ITEM: TIMESTEP
0
ITEM: NUMBER OF ATOMS
106
ITEM: BOX BOUNDS xy xz yz pp pp pp
0.0000000000000000e+00 3.6531964750000000e+01 9.1329911900000003e+00
0.0000000000000000e+00 2.1091739680000000e+01 9.1329911900000003e+00
0.0000000000000000e+00 1.4914112149999999e+01 5.2729349200000000e+00
ITEM: ATOMS id mol type q x y z
1 1 1 1.10383 27.399 17.6496 10.5383
2 1 1 1.10383 9.13299 3.44217 4.3758
3 1 1 1.10383 27.399 15.8188 13.1274
4 1 1 1.10383 9.13299 5.27293 1.78671
5 1 1 1.10383 25.8135 14.9034 10.5383
6 1 1 1.10383 10.7185 6.18832 4.3758
7 1 1 1.10383 28.9845 14.9034 10.5383
8 1 1 1.10383 7.5475 6.18832 4.3758
9 1 2 0.115889 18.266 5.48596 12.6084
10 1 2 0.115889 18.266 15.6058 2.30572
11 1 2 0.115888 18.266 13.716 0.969417
12 1 2 0.115888 18.266 7.37578 13.9447
13 1 2 0.11589 25.3934 11.4908 8.12521
14 1 2 0.11589 11.1386 9.60096 6.7889
15 1 2 0.115888 11.1386 11.4908 8.12521
16 1 2 0.115888 25.3934 9.60096 6.7889
17 1 2 0.115889 15.5206 8.96083 0.969417
18 1 2 0.115889 21.0114 12.1309 13.9447
19 1 2 0.115888 22.648 13.0758 12.6084
20 1 2 0.115888 13.884 8.01592 2.30572
21 1 2 0.115889 21.0114 3.90092 8.12521
22 1 2 0.115889 15.5206 17.1908 6.7889
23 1 2 0.115887 13.884 16.2459 8.12521
24 1 2 0.115887 22.648 4.84583 6.7889
25 1 2 0.115889 22.648 16.2459 8.12521
26 1 2 0.115889 13.884 4.84583 6.7889
27 1 2 0.115887 15.5206 3.90092 8.12521
28 1 2 0.115887 21.0114 17.1908 6.7889
29 1 2 0.115889 21.0114 8.96083 0.969417
30 1 2 0.115889 15.5206 12.1309 13.9447
31 1 2 0.115887 13.884 13.0758 12.6084
32 1 2 0.115887 22.648 8.01592 2.30572
33 1 3 0.671939 27.399 18.7442 13.2542
34 1 3 0.671939 9.13299 2.34751 1.65994
35 1 3 0.671939 27.399 12.8934 9.117
36 1 3 0.671939 9.13299 8.19836 5.79712
37 1 3 0.67194 24.8655 14.3561 13.2542
38 1 3 0.67194 11.6665 6.73565 1.65994
39 1 3 0.67194 29.9325 17.2815 9.117
40 1 3 0.67194 6.5995 3.81022 5.79712
41 1 3 0.67194 24.8655 17.2815 9.117
42 1 3 0.67194 11.6665 3.81022 5.79712
43 1 3 0.67194 29.9325 14.3561 13.2542
44 1 3 0.67194 6.5995 6.73565 1.65994
45 1 3 -0.11508 27.399 19.957 14.1117
46 1 3 -0.11508 9.13299 1.13474 0.802379
47 1 3 -0.11508 27.399 11.6806 8.25944
48 1 3 -0.11508 9.13299 9.41113 6.65468
49 1 3 -0.11508 23.8152 13.7497 14.1117
50 1 3 -0.11508 12.7168 7.34203 0.802379
51 1 3 -0.11508 30.9828 17.8879 8.25944
52 1 3 -0.11508 5.54921 3.20384 6.65468
53 1 3 -0.11508 23.8152 17.8879 8.25944
54 1 3 -0.11508 12.7168 3.20384 6.65468
55 1 3 -0.11508 30.9828 13.7497 14.1117
56 1 3 -0.11508 5.54921 7.34203 0.802379
57 1 3 -0.0559 18.266 5.39949 13.5316
58 1 3 -0.0559 18.266 15.6923 1.38254
59 1 3 -0.055903 18.266 14.5575 0.580159
60 1 3 -0.055903 18.266 6.53422 14.334
61 1 3 -0.0559 26.1971 11.1132 7.85825
62 1 3 -0.0559 10.3349 9.9785 7.05587
63 1 3 -0.055903 10.3349 11.1132 7.85825
64 1 3 -0.055903 26.1971 9.9785 7.05587
65 1 3 -0.0559 14.7918 8.54005 0.580159
66 1 3 -0.0559 21.7402 12.5517 14.334
67 1 3 -0.055903 22.7229 13.1191 13.5316
68 1 3 -0.055903 13.8091 7.97268 1.38254
69 1 3 -0.0559 21.7402 3.39366 7.85825
70 1 3 -0.0559 14.7918 17.6981 7.05587
71 1 3 -0.055903 13.8091 17.1307 7.85825
72 1 3 -0.055903 22.7229 3.96103 7.05587
73 1 3 -0.055901 22.7229 17.1307 7.85825
74 1 3 -0.055901 13.8091 3.96103 7.05587
75 1 3 -0.055903 14.7918 3.39366 7.85825
76 1 3 -0.055903 21.7402 17.6981 7.05587
77 1 3 -0.0559 21.7402 8.54005 0.580159
78 1 3 -0.0559 14.7918 12.5517 14.334
79 1 3 -0.055903 13.8091 13.1191 13.5316
80 1 3 -0.055903 22.7229 7.97268 1.38254
81 1 4 -1.26215 27.399 15.8188 11.1856
82 1 4 -1.26215 9.13299 5.27293 3.72853
83 1 4 -0.60118 27.399 18.9383 11.9641
84 1 4 -0.60118 9.13299 2.15347 2.95001
85 1 4 -0.601179 27.399 17.5926 13.8671
86 1 4 -0.601179 9.13299 3.49912 1.04697
87 1 4 -0.601179 26.2336 13.3722 9.45555
88 1 4 -0.601179 10.2984 7.71958 5.45857
89 1 4 -0.60118 28.5643 13.3722 9.45555
90 1 4 -0.60118 7.96762 7.71958 5.45857
91 1 4 -0.60118 25.8628 14.9319 13.8671
92 1 4 -0.60118 10.6692 6.15984 1.04697
93 1 4 -0.601179 24.6974 14.2591 11.9641
94 1 4 -0.601179 11.8345 6.83267 2.95001
95 1 4 -0.60118 28.9351 18.0514 9.45555
96 1 4 -0.60118 7.59682 3.04037 5.45857
97 1 4 -0.601179 30.1005 16.0329 9.45555
98 1 4 -0.601179 6.43145 5.05885 5.45857
99 1 4 -0.601179 24.6974 16.0329 9.45555
100 1 4 -0.601179 11.8345 5.05885 5.45857
101 1 4 -0.60118 25.8628 18.0514 9.45555
102 1 4 -0.60118 10.6692 3.04037 5.45857
103 1 4 -0.60118 28.9351 14.9319 13.8671
104 1 4 -0.60118 7.59682 6.15984 1.04697
105 1 4 -0.60118 30.1005 14.2591 11.9641
106 1 4 -0.60118 6.43145 6.83267 2.95001
ITEM: TIMESTEP
1000
ITEM: NUMBER OF ATOMS
205
ITEM: BOX BOUNDS xy xz yz pp pp pp
0.0000000000000000e+00 3.6531964750000000e+01 9.1329911900000003e+00
0.0000000000000000e+00 2.1091739680000000e+01 9.1329911900000003e+00
0.0000000000000000e+00 1.4914112149999999e+01 5.2729349200000000e+00
ITEM: ATOMS id mol type q x y z
1 1 1 1.10383 27.399 17.6496 10.5383
2 1 1 1.10383 9.13299 3.44217 4.3758
3 1 1 1.10383 27.399 15.8188 13.1274
4 1 1 1.10383 9.13299 5.27293 1.78671
5 1 1 1.10383 25.8135 14.9034 10.5383
6 1 1 1.10383 10.7185 6.18832 4.3758
7 1 1 1.10383 28.9845 14.9034 10.5383
8 1 1 1.10383 7.5475 6.18832 4.3758
9 1 2 0.115889 18.266 5.48596 12.6084
10 1 2 0.115889 18.266 15.6058 2.30572
11 1 2 0.115888 18.266 13.716 0.969417
12 1 2 0.115888 18.266 7.37578 13.9447
13 1 2 0.11589 25.3934 11.4908 8.12521
14 1 2 0.11589 11.1386 9.60096 6.7889
15 1 2 0.115888 11.1386 11.4908 8.12521
16 1 2 0.115888 25.3934 9.60096 6.7889
17 1 2 0.115889 15.5206 8.96083 0.969417
18 1 2 0.115889 21.0114 12.1309 13.9447
19 1 2 0.115888 22.648 13.0758 12.6084
20 1 2 0.115888 13.884 8.01592 2.30572
21 1 2 0.115889 21.0114 3.90092 8.12521
22 1 2 0.115889 15.5206 17.1908 6.7889
23 1 2 0.115887 13.884 16.2459 8.12521
24 1 2 0.115887 22.648 4.84583 6.7889
25 1 2 0.115889 22.648 16.2459 8.12521
26 1 2 0.115889 13.884 4.84583 6.7889
27 1 2 0.115887 15.5206 3.90092 8.12521
28 1 2 0.115887 21.0114 17.1908 6.7889
29 1 2 0.115889 21.0114 8.96083 0.969417
30 1 2 0.115889 15.5206 12.1309 13.9447
31 1 2 0.115887 13.884 13.0758 12.6084
32 1 2 0.115887 22.648 8.01592 2.30572
33 1 3 0.671939 27.399 18.7442 13.2542
34 1 3 0.671939 9.13299 2.34751 1.65994
35 1 3 0.671939 27.399 12.8934 9.117
36 1 3 0.671939 9.13299 8.19836 5.79712
37 1 3 0.67194 24.8655 14.3561 13.2542
38 1 3 0.67194 11.6665 6.73565 1.65994
39 1 3 0.67194 29.9325 17.2815 9.117
40 1 3 0.67194 6.5995 3.81022 5.79712
41 1 3 0.67194 24.8655 17.2815 9.117
42 1 3 0.67194 11.6665 3.81022 5.79712
43 1 3 0.67194 29.9325 14.3561 13.2542
44 1 3 0.67194 6.5995 6.73565 1.65994
45 1 3 -0.11508 27.399 19.957 14.1117
46 1 3 -0.11508 9.13299 1.13474 0.802379
47 1 3 -0.11508 27.399 11.6806 8.25944
48 1 3 -0.11508 9.13299 9.41113 6.65468
49 1 3 -0.11508 23.8152 13.7497 14.1117
50 1 3 -0.11508 12.7168 7.34203 0.802379
51 1 3 -0.11508 30.9828 17.8879 8.25944
52 1 3 -0.11508 5.54921 3.20384 6.65468
53 1 3 -0.11508 23.8152 17.8879 8.25944
54 1 3 -0.11508 12.7168 3.20384 6.65468
55 1 3 -0.11508 30.9828 13.7497 14.1117
56 1 3 -0.11508 5.54921 7.34203 0.802379
57 1 3 -0.0559 18.266 5.39949 13.5316
58 1 3 -0.0559 18.266 15.6923 1.38254
59 1 3 -0.055903 18.266 14.5575 0.580159
60 1 3 -0.055903 18.266 6.53422 14.334
61 1 3 -0.0559 26.1971 11.1132 7.85825
62 1 3 -0.0559 10.3349 9.9785 7.05587
63 1 3 -0.055903 10.3349 11.1132 7.85825
64 1 3 -0.055903 26.1971 9.9785 7.05587
65 1 3 -0.0559 14.7918 8.54005 0.580159
66 1 3 -0.0559 21.7402 12.5517 14.334
67 1 3 -0.055903 22.7229 13.1191 13.5316
68 1 3 -0.055903 13.8091 7.97268 1.38254
69 1 3 -0.0559 21.7402 3.39366 7.85825
70 1 3 -0.0559 14.7918 17.6981 7.05587
71 1 3 -0.055903 13.8091 17.1307 7.85825
72 1 3 -0.055903 22.7229 3.96103 7.05587
73 1 3 -0.055901 22.7229 17.1307 7.85825
74 1 3 -0.055901 13.8091 3.96103 7.05587
75 1 3 -0.055903 14.7918 3.39366 7.85825
76 1 3 -0.055903 21.7402 17.6981 7.05587
77 1 3 -0.0559 21.7402 8.54005 0.580159
78 1 3 -0.0559 14.7918 12.5517 14.334
79 1 3 -0.055903 13.8091 13.1191 13.5316
80 1 3 -0.055903 22.7229 7.97268 1.38254
81 1 4 -1.26215 27.399 15.8188 11.1856
82 1 4 -1.26215 9.13299 5.27293 3.72853
83 1 4 -0.60118 27.399 18.9383 11.9641
84 1 4 -0.60118 9.13299 2.15347 2.95001
85 1 4 -0.601179 27.399 17.5926 13.8671
86 1 4 -0.601179 9.13299 3.49912 1.04697
87 1 4 -0.601179 26.2336 13.3722 9.45555
88 1 4 -0.601179 10.2984 7.71958 5.45857
89 1 4 -0.60118 28.5643 13.3722 9.45555
90 1 4 -0.60118 7.96762 7.71958 5.45857
91 1 4 -0.60118 25.8628 14.9319 13.8671
92 1 4 -0.60118 10.6692 6.15984 1.04697
93 1 4 -0.601179 24.6974 14.2591 11.9641
94 1 4 -0.601179 11.8345 6.83267 2.95001
95 1 4 -0.60118 28.9351 18.0514 9.45555
96 1 4 -0.60118 7.59682 3.04037 5.45857
97 1 4 -0.601179 30.1005 16.0329 9.45555
98 1 4 -0.601179 6.43145 5.05885 5.45857
99 1 4 -0.601179 24.6974 16.0329 9.45555
100 1 4 -0.601179 11.8345 5.05885 5.45857
101 1 4 -0.60118 25.8628 18.0514 9.45555
102 1 4 -0.60118 10.6692 3.04037 5.45857
103 1 4 -0.60118 28.9351 14.9319 13.8671
104 1 4 -0.60118 7.59682 6.15984 1.04697
105 1 4 -0.60118 30.1005 14.2591 11.9641
106 1 4 -0.60118 6.43145 6.83267 2.95001
476 125 5 -0.35 21.5608 5.84262 4.02915
477 125 6 0.7 22.1449 6.63168 4.64698
478 125 5 -0.35 22.7291 7.42074 5.26481
494 131 5 -0.35 21.1006 8.37126 13.4795
495 131 6 0.7 21.7567 8.55821 14.4177
496 131 5 -0.35 13.2797 3.47222 0.441835
605 168 5 -0.35 25.0255 15.0789 5.11736
606 168 6 0.7 24.0035 14.8325 5.60764
607 168 5 -0.35 22.9815 14.5861 6.09793
608 169 5 -0.35 12.5216 2.09837 2.89442
609 169 6 0.7 13.415 1.82716 3.58281
610 169 5 -0.35 14.3084 1.55596 4.27119
656 185 5 -0.35 19.0052 7.03738 1.08544
657 185 6 0.7 18.56 6.89626 0.0236094
658 185 5 -0.35 27.2478 12.0281 13.8759
746 215 5 -0.35 9.5353 8.75348 2.58185
747 215 6 0.7 9.2155 9.08757 1.51802
748 215 5 -0.35 8.8957 9.42165 0.454202
758 219 5 -0.35 15.3779 4.42767 3.35548
759 219 6 0.7 15.7412 4.9896 2.40794
760 219 5 -0.35 16.1045 5.55153 1.4604
791 230 5 -0.35 24.5566 11.3604 0.595602
792 230 6 0.7 33.5682 16.4436 14.3718
793 230 5 -0.35 15.1808 16.2539 13.2339
803 234 5 -0.35 5.99541 3.55304 1.97642
804 234 6 0.7 5.14212 4.00362 1.33263
805 234 5 -0.35 4.28883 4.45421 0.688841
806 235 5 -0.35 17.3445 18.672 8.76066
807 235 6 0.7 17.8269 17.6283 8.60737
808 235 5 -0.35 18.3093 16.5846 8.45407
815 238 5 -0.35 19.7465 8.74907 3.80595
816 238 6 0.7 18.5972 8.89703 3.75178
817 238 5 -0.35 17.448 9.04499 3.69762
836 245 5 -0.35 13.4906 10.2489 9.81626
837 245 6 0.7 13.1582 10.0248 10.9048
838 245 5 -0.35 12.8258 9.80076 11.9933
860 253 5 -0.35 21.7526 16.7713 14.2984
861 253 6 0.7 12.1182 10.8925 0.236989
862 253 5 -0.35 11.6169 10.2866 1.0897
875 258 5 -0.35 14.663 7.69965 13.8013
876 258 6 0.7 14.1234 7.10712 12.9627
877 258 5 -0.35 13.5837 6.51459 12.1241
890 263 5 -0.35 17.0769 7.46881 8.22993
891 263 6 0.7 16.6582 7.13034 7.20242
892 263 5 -0.35 16.2396 6.79187 6.17491
899 266 5 -0.35 11.7462 6.72392 9.67581
900 266 6 0.7 12.7539 6.8784 9.12232
901 266 5 -0.35 13.7615 7.03288 8.56884
902 267 5 -0.35 18.304 2.97035 1.80347
903 267 6 0.7 19.4021 2.65009 1.99631
904 267 5 -0.35 20.5002 2.32983 2.18914
908 269 5 -0.35 16.2711 10.8981 11.2555
909 269 6 0.7 16.35 10.9024 10.0982
910 269 5 -0.35 16.4289 10.9066 8.9409
911 270 5 -0.35 20.6079 16.4494 10.776
912 270 6 0.7 21.2087 15.5075 10.4637
913 270 5 -0.35 21.8095 14.5656 10.1514
914 271 5 -0.35 19.3661 8.90136 10.467
915 271 6 0.7 19.7755 7.86244 10.1529
916 271 5 -0.35 20.1849 6.82351 9.83885
929 276 5 -0.35 9.08431 7.1323 11.2356
930 276 6 0.7 8.8761 6.94152 10.1105
931 276 5 -0.35 8.66789 6.75074 8.98543
932 277 5 -0.35 31.3831 20.0085 11.9229
933 277 6 0.7 30.9786 18.9271 12.0351
934 277 5 -0.35 30.574 17.8458 12.1472
935 278 5 -0.35 19.2913 2.85516 5.85327
936 278 6 0.7 18.7658 3.71629 6.42588
937 278 5 -0.35 18.2403 4.57742 6.99849
941 280 5 -0.35 15.4146 10.4705 5.98806
942 280 6 0.7 14.8382 10.4782 4.98145
943 280 5 -0.35 14.2618 10.486 3.97483
950 283 5 -0.35 20.3491 19.3065 12.3214
951 283 6 0.7 20.3523 19.4016 11.1653
952 283 5 -0.35 11.2226 3.6779 10.0092
953 284 5 -0.35 18.7967 13.6452 12.212
954 284 6 0.7 18.3655 13.5831 11.137
955 284 5 -0.35 17.9343 13.521 10.0619
962 287 5 -0.35 33.7121 19.6411 13.9386
963 287 6 0.7 33.3678 20.7059 14.2442
964 287 5 -0.35 23.8905 5.95182 14.5498
965 288 5 -0.35 14.5815 13.9626 10.1399
966 288 6 0.7 14.7169 13.9376 8.98811
967 288 5 -0.35 14.8524 13.9125 7.83631
968 289 5 -0.35 21.9724 14.0376 3.10048
969 289 6 0.7 22.1145 13.9597 1.95185
970 289 5 -0.35 22.2566 13.8819 0.803215
971 290 5 -0.35 24.1186 10.7658 11.4157
972 290 6 0.7 23.3325 10.7496 10.5629
973 290 5 -0.35 22.5463 10.7335 9.71012
974 291 5 -0.35 9.38662 12.6875 0.789079
975 291 6 0.7 8.78252 13.4719 1.39345
976 291 5 -0.35 26.4444 14.2564 1.99783
983 294 5 -0.35 13.8617 14.8844 3.71707
984 294 6 0.7 13.5493 15.2212 2.65187
985 294 5 -0.35 13.237 15.5579 1.58668
989 296 5 -0.35 28.3862 15.1738 6.16528
990 296 6 0.7 29.3132 14.5536 6.48414
991 296 5 -0.35 11.9741 13.9333 6.80299
ITEM: TIMESTEP
2000
ITEM: NUMBER OF ATOMS
196
ITEM: BOX BOUNDS xy xz yz pp pp pp
0.0000000000000000e+00 3.6531964750000000e+01 9.1329911900000003e+00
0.0000000000000000e+00 2.1091739680000000e+01 9.1329911900000003e+00
0.0000000000000000e+00 1.4914112149999999e+01 5.2729349200000000e+00
ITEM: ATOMS id mol type q x y z
1 1 1 1.10383 27.399 17.6496 10.5383
2 1 1 1.10383 9.13299 3.44217 4.3758
3 1 1 1.10383 27.399 15.8188 13.1274
4 1 1 1.10383 9.13299 5.27293 1.78671
5 1 1 1.10383 25.8135 14.9034 10.5383
6 1 1 1.10383 10.7185 6.18832 4.3758
7 1 1 1.10383 28.9845 14.9034 10.5383
8 1 1 1.10383 7.5475 6.18832 4.3758
9 1 2 0.115889 18.266 5.48596 12.6084
10 1 2 0.115889 18.266 15.6058 2.30572
11 1 2 0.115888 18.266 13.716 0.969417
12 1 2 0.115888 18.266 7.37578 13.9447
13 1 2 0.11589 25.3934 11.4908 8.12521
14 1 2 0.11589 11.1386 9.60096 6.7889
15 1 2 0.115888 11.1386 11.4908 8.12521
16 1 2 0.115888 25.3934 9.60096 6.7889
17 1 2 0.115889 15.5206 8.96083 0.969417
18 1 2 0.115889 21.0114 12.1309 13.9447
19 1 2 0.115888 22.648 13.0758 12.6084
20 1 2 0.115888 13.884 8.01592 2.30572
21 1 2 0.115889 21.0114 3.90092 8.12521
22 1 2 0.115889 15.5206 17.1908 6.7889
23 1 2 0.115887 13.884 16.2459 8.12521
24 1 2 0.115887 22.648 4.84583 6.7889
25 1 2 0.115889 22.648 16.2459 8.12521
26 1 2 0.115889 13.884 4.84583 6.7889
27 1 2 0.115887 15.5206 3.90092 8.12521
28 1 2 0.115887 21.0114 17.1908 6.7889
29 1 2 0.115889 21.0114 8.96083 0.969417
30 1 2 0.115889 15.5206 12.1309 13.9447
31 1 2 0.115887 13.884 13.0758 12.6084
32 1 2 0.115887 22.648 8.01592 2.30572
33 1 3 0.671939 27.399 18.7442 13.2542
34 1 3 0.671939 9.13299 2.34751 1.65994
35 1 3 0.671939 27.399 12.8934 9.117
36 1 3 0.671939 9.13299 8.19836 5.79712
37 1 3 0.67194 24.8655 14.3561 13.2542
38 1 3 0.67194 11.6665 6.73565 1.65994
39 1 3 0.67194 29.9325 17.2815 9.117
40 1 3 0.67194 6.5995 3.81022 5.79712
41 1 3 0.67194 24.8655 17.2815 9.117
42 1 3 0.67194 11.6665 3.81022 5.79712
43 1 3 0.67194 29.9325 14.3561 13.2542
44 1 3 0.67194 6.5995 6.73565 1.65994
45 1 3 -0.11508 27.399 19.957 14.1117
46 1 3 -0.11508 9.13299 1.13474 0.802379
47 1 3 -0.11508 27.399 11.6806 8.25944
48 1 3 -0.11508 9.13299 9.41113 6.65468
49 1 3 -0.11508 23.8152 13.7497 14.1117
50 1 3 -0.11508 12.7168 7.34203 0.802379
51 1 3 -0.11508 30.9828 17.8879 8.25944
52 1 3 -0.11508 5.54921 3.20384 6.65468
53 1 3 -0.11508 23.8152 17.8879 8.25944
54 1 3 -0.11508 12.7168 3.20384 6.65468
55 1 3 -0.11508 30.9828 13.7497 14.1117
56 1 3 -0.11508 5.54921 7.34203 0.802379
57 1 3 -0.0559 18.266 5.39949 13.5316
58 1 3 -0.0559 18.266 15.6923 1.38254
59 1 3 -0.055903 18.266 14.5575 0.580159
60 1 3 -0.055903 18.266 6.53422 14.334
61 1 3 -0.0559 26.1971 11.1132 7.85825
62 1 3 -0.0559 10.3349 9.9785 7.05587
63 1 3 -0.055903 10.3349 11.1132 7.85825
64 1 3 -0.055903 26.1971 9.9785 7.05587
65 1 3 -0.0559 14.7918 8.54005 0.580159
66 1 3 -0.0559 21.7402 12.5517 14.334
67 1 3 -0.055903 22.7229 13.1191 13.5316
68 1 3 -0.055903 13.8091 7.97268 1.38254
69 1 3 -0.0559 21.7402 3.39366 7.85825
70 1 3 -0.0559 14.7918 17.6981 7.05587
71 1 3 -0.055903 13.8091 17.1307 7.85825
72 1 3 -0.055903 22.7229 3.96103 7.05587
73 1 3 -0.055901 22.7229 17.1307 7.85825
74 1 3 -0.055901 13.8091 3.96103 7.05587
75 1 3 -0.055903 14.7918 3.39366 7.85825
76 1 3 -0.055903 21.7402 17.6981 7.05587
77 1 3 -0.0559 21.7402 8.54005 0.580159
78 1 3 -0.0559 14.7918 12.5517 14.334
79 1 3 -0.055903 13.8091 13.1191 13.5316
80 1 3 -0.055903 22.7229 7.97268 1.38254
81 1 4 -1.26215 27.399 15.8188 11.1856
82 1 4 -1.26215 9.13299 5.27293 3.72853
83 1 4 -0.60118 27.399 18.9383 11.9641
84 1 4 -0.60118 9.13299 2.15347 2.95001
85 1 4 -0.601179 27.399 17.5926 13.8671
86 1 4 -0.601179 9.13299 3.49912 1.04697
87 1 4 -0.601179 26.2336 13.3722 9.45555
88 1 4 -0.601179 10.2984 7.71958 5.45857
89 1 4 -0.60118 28.5643 13.3722 9.45555
90 1 4 -0.60118 7.96762 7.71958 5.45857
91 1 4 -0.60118 25.8628 14.9319 13.8671
92 1 4 -0.60118 10.6692 6.15984 1.04697
93 1 4 -0.601179 24.6974 14.2591 11.9641
94 1 4 -0.601179 11.8345 6.83267 2.95001
95 1 4 -0.60118 28.9351 18.0514 9.45555
96 1 4 -0.60118 7.59682 3.04037 5.45857
97 1 4 -0.601179 30.1005 16.0329 9.45555
98 1 4 -0.601179 6.43145 5.05885 5.45857
99 1 4 -0.601179 24.6974 16.0329 9.45555
100 1 4 -0.601179 11.8345 5.05885 5.45857
101 1 4 -0.60118 25.8628 18.0514 9.45555
102 1 4 -0.60118 10.6692 3.04037 5.45857
103 1 4 -0.60118 28.9351 14.9319 13.8671
104 1 4 -0.60118 7.59682 6.15984 1.04697
105 1 4 -0.60118 30.1005 14.2591 11.9641
106 1 4 -0.60118 6.43145 6.83267 2.95001
746 215 5 -0.35 9.77233 9.70623 0.739661
747 215 6 0.7 18.6283 14.6159 14.5875
748 215 5 -0.35 18.3512 14.2526 13.5213
803 234 5 -0.35 6.21793 3.12827 2.12347
804 234 6 0.7 5.20432 3.3582 1.60839
805 234 5 -0.35 4.1907 3.58812 1.0933
836 245 5 -0.35 12.3187 10.9204 11.1299
837 245 6 0.7 11.4759 10.2567 11.5714
838 245 5 -0.35 10.6332 9.59298 12.0128
860 253 5 -0.35 21.4667 16.1096 12.1574
861 253 6 0.7 20.7484 16.6152 12.915
862 253 5 -0.35 20.0301 17.1208 13.6727
899 266 5 -0.35 11.4713 8.21906 9.31081
900 266 6 0.7 12.3895 7.69233 8.83643
901 266 5 -0.35 13.3078 7.1656 8.36206
902 267 5 -0.35 19.5984 2.93825 4.61621
903 267 6 0.7 20.6632 2.49709 4.48563
904 267 5 -0.35 3.46211 2.05593 4.35506
929 276 5 -0.35 7.82125 4.89446 9.87236
930 276 6 0.7 8.44605 5.12839 8.92341
931 276 5 -0.35 9.07085 5.36232 7.97447
941 280 5 -0.35 12.8916 9.15244 5.16613
942 280 6 0.7 12.1327 9.45791 4.34373
943 280 5 -0.35 11.3738 9.76338 3.52132
950 283 5 -0.35 21.1797 19.0018 10.4676
951 283 6 0.7 11.9117 4.1757 9.88288
952 283 5 -0.35 11.7768 5.16843 9.29819
983 294 5 -0.35 14.5638 15.3726 4.82237
984 294 6 0.7 14.5679 15.7834 3.73756
985 294 5 -0.35 14.572 16.1942 2.65275
989 296 5 -0.35 12.0386 13.4669 6.89302
990 296 6 0.7 12.9153 13.6064 7.63976
991 296 5 -0.35 13.7919 13.7459 8.38649
1004 301 5 -0.35 14.0312 11.5823 2.67619
1005 301 6 0.7 13.7527 11.5099 1.55243
1006 301 5 -0.35 13.4743 11.4376 0.42867
1007 302 5 -0.35 23.1223 19.4561 13.5113
1008 302 6 0.7 23.8284 18.635 13.0954
1009 302 5 -0.35 24.5344 17.8139 12.6795
1010 303 5 -0.35 16.7849 11.2633 1.52804
1011 303 6 0.7 17.8913 10.9664 1.71039
1012 303 5 -0.35 18.9978 10.6695 1.89274
1034 311 5 -0.35 12.7347 4.06976 2.75864
1035 311 6 0.7 13.092 3.80183 1.68805
1036 311 5 -0.35 13.4493 3.5339 0.617464
1085 328 5 -0.35 26.1731 11.0191 12.1992
1086 328 6 0.7 26.2638 10.1839 11.3993
1087 328 5 -0.35 26.3545 9.34875 10.5994
1112 337 5 -0.35 18.0959 18.2144 8.18072
1113 337 6 0.7 18.1863 17.3745 7.38566
1114 337 5 -0.35 18.2767 16.5347 6.5906
1130 343 5 -0.35 12.0912 0.852714 2.38178
1131 343 6 0.7 21.7444 16.3503 3.36758
1132 343 5 -0.35 22.2646 16.0291 4.35337
1154 351 5 -0.35 27.5439 15.9715 6.98667
1155 351 6 0.7 27.8826 15.8865 5.88046
1156 351 5 -0.35 28.2212 15.8014 4.77426
1157 352 5 -0.35 25.3855 14.7623 5.38462
1158 352 6 0.7 24.827 13.8973 5.91897
1159 352 5 -0.35 24.2686 13.0323 6.45332
1163 354 5 -0.35 7.69579 11.8295 1.9614
1164 354 6 0.7 7.62496 11.0405 2.80879
1165 354 5 -0.35 7.55413 10.2515 3.65618
1166 355 5 -0.35 10.1965 12.6401 5.06421
1167 355 6 0.7 10.7264 12.7548 4.03875
1168 355 5 -0.35 11.2564 12.8696 3.01328
1199 366 5 -0.35 14.3489 7.2154 12.2703
1200 366 6 0.7 14.4418 8.29546 12.6832
1201 366 5 -0.35 14.5347 9.37552 13.096
1205 368 5 -0.35 22.0337 13.675 2.34547
1206 368 6 0.7 21.6059 13.5158 1.27907
1207 368 5 -0.35 21.1781 13.3565 0.212668
1214 371 5 -0.35 23.4066 11.0726 0.667134
1215 371 6 0.7 32.4711 16.5249 14.4372
1216 371 5 -0.35 32.4027 16.7042 13.2932
1217 372 5 -0.35 16.3788 9.78896 5.51772
1218 372 6 0.7 15.9854 10.7697 5.99619
1219 372 5 -0.35 15.592 11.7505 6.47467
1226 375 5 -0.35 32.6699 18.0176 10.6275
1227 375 6 0.7 31.9891 18.8452 11.0716
1228 375 5 -0.35 31.3083 19.6727 11.5158
1229 376 5 -0.35 18.7774 13.6569 8.91061
1230 376 6 0.7 19.3731 13.5885 9.90363
1231 376 5 -0.35 19.9687 13.5201 10.8966
1235 378 5 -0.35 22.4825 10.4236 4.403
1236 378 6 0.7 22.3231 9.50986 5.09957
1237 378 5 -0.35 22.1637 8.5961 5.79614
1241 380 5 -0.35 23.1596 7.40768 11.0529
1242 380 6 0.7 22.4274 8.30735 11.052
1243 380 5 -0.35 21.6951 9.20702 11.0511
ITEM: TIMESTEP
3000
ITEM: NUMBER OF ATOMS
163
ITEM: BOX BOUNDS xy xz yz pp pp pp
0.0000000000000000e+00 3.6531964750000000e+01 9.1329911900000003e+00
0.0000000000000000e+00 2.1091739680000000e+01 9.1329911900000003e+00
0.0000000000000000e+00 1.4914112149999999e+01 5.2729349200000000e+00
ITEM: ATOMS id mol type q x y z
1 1 1 1.10383 27.399 17.6496 10.5383
2 1 1 1.10383 9.13299 3.44217 4.3758
3 1 1 1.10383 27.399 15.8188 13.1274
4 1 1 1.10383 9.13299 5.27293 1.78671
5 1 1 1.10383 25.8135 14.9034 10.5383
6 1 1 1.10383 10.7185 6.18832 4.3758
7 1 1 1.10383 28.9845 14.9034 10.5383
8 1 1 1.10383 7.5475 6.18832 4.3758
9 1 2 0.115889 18.266 5.48596 12.6084
10 1 2 0.115889 18.266 15.6058 2.30572
11 1 2 0.115888 18.266 13.716 0.969417
12 1 2 0.115888 18.266 7.37578 13.9447
13 1 2 0.11589 25.3934 11.4908 8.12521
14 1 2 0.11589 11.1386 9.60096 6.7889
15 1 2 0.115888 11.1386 11.4908 8.12521
16 1 2 0.115888 25.3934 9.60096 6.7889
17 1 2 0.115889 15.5206 8.96083 0.969417
18 1 2 0.115889 21.0114 12.1309 13.9447
19 1 2 0.115888 22.648 13.0758 12.6084
20 1 2 0.115888 13.884 8.01592 2.30572
21 1 2 0.115889 21.0114 3.90092 8.12521
22 1 2 0.115889 15.5206 17.1908 6.7889
23 1 2 0.115887 13.884 16.2459 8.12521
24 1 2 0.115887 22.648 4.84583 6.7889
25 1 2 0.115889 22.648 16.2459 8.12521
26 1 2 0.115889 13.884 4.84583 6.7889
27 1 2 0.115887 15.5206 3.90092 8.12521
28 1 2 0.115887 21.0114 17.1908 6.7889
29 1 2 0.115889 21.0114 8.96083 0.969417
30 1 2 0.115889 15.5206 12.1309 13.9447
31 1 2 0.115887 13.884 13.0758 12.6084
32 1 2 0.115887 22.648 8.01592 2.30572
33 1 3 0.671939 27.399 18.7442 13.2542
34 1 3 0.671939 9.13299 2.34751 1.65994
35 1 3 0.671939 27.399 12.8934 9.117
36 1 3 0.671939 9.13299 8.19836 5.79712
37 1 3 0.67194 24.8655 14.3561 13.2542
38 1 3 0.67194 11.6665 6.73565 1.65994
39 1 3 0.67194 29.9325 17.2815 9.117
40 1 3 0.67194 6.5995 3.81022 5.79712
41 1 3 0.67194 24.8655 17.2815 9.117
42 1 3 0.67194 11.6665 3.81022 5.79712
43 1 3 0.67194 29.9325 14.3561 13.2542
44 1 3 0.67194 6.5995 6.73565 1.65994
45 1 3 -0.11508 27.399 19.957 14.1117
46 1 3 -0.11508 9.13299 1.13474 0.802379
47 1 3 -0.11508 27.399 11.6806 8.25944
48 1 3 -0.11508 9.13299 9.41113 6.65468
49 1 3 -0.11508 23.8152 13.7497 14.1117
50 1 3 -0.11508 12.7168 7.34203 0.802379
51 1 3 -0.11508 30.9828 17.8879 8.25944
52 1 3 -0.11508 5.54921 3.20384 6.65468
53 1 3 -0.11508 23.8152 17.8879 8.25944
54 1 3 -0.11508 12.7168 3.20384 6.65468
55 1 3 -0.11508 30.9828 13.7497 14.1117
56 1 3 -0.11508 5.54921 7.34203 0.802379
57 1 3 -0.0559 18.266 5.39949 13.5316
58 1 3 -0.0559 18.266 15.6923 1.38254
59 1 3 -0.055903 18.266 14.5575 0.580159
60 1 3 -0.055903 18.266 6.53422 14.334
61 1 3 -0.0559 26.1971 11.1132 7.85825
62 1 3 -0.0559 10.3349 9.9785 7.05587
63 1 3 -0.055903 10.3349 11.1132 7.85825
64 1 3 -0.055903 26.1971 9.9785 7.05587
65 1 3 -0.0559 14.7918 8.54005 0.580159
66 1 3 -0.0559 21.7402 12.5517 14.334
67 1 3 -0.055903 22.7229 13.1191 13.5316
68 1 3 -0.055903 13.8091 7.97268 1.38254
69 1 3 -0.0559 21.7402 3.39366 7.85825
70 1 3 -0.0559 14.7918 17.6981 7.05587
71 1 3 -0.055903 13.8091 17.1307 7.85825
72 1 3 -0.055903 22.7229 3.96103 7.05587
73 1 3 -0.055901 22.7229 17.1307 7.85825
74 1 3 -0.055901 13.8091 3.96103 7.05587
75 1 3 -0.055903 14.7918 3.39366 7.85825
76 1 3 -0.055903 21.7402 17.6981 7.05587
77 1 3 -0.0559 21.7402 8.54005 0.580159
78 1 3 -0.0559 14.7918 12.5517 14.334
79 1 3 -0.055903 13.8091 13.1191 13.5316
80 1 3 -0.055903 22.7229 7.97268 1.38254
81 1 4 -1.26215 27.399 15.8188 11.1856
82 1 4 -1.26215 9.13299 5.27293 3.72853
83 1 4 -0.60118 27.399 18.9383 11.9641
84 1 4 -0.60118 9.13299 2.15347 2.95001
85 1 4 -0.601179 27.399 17.5926 13.8671
86 1 4 -0.601179 9.13299 3.49912 1.04697
87 1 4 -0.601179 26.2336 13.3722 9.45555
88 1 4 -0.601179 10.2984 7.71958 5.45857
89 1 4 -0.60118 28.5643 13.3722 9.45555
90 1 4 -0.60118 7.96762 7.71958 5.45857
91 1 4 -0.60118 25.8628 14.9319 13.8671
92 1 4 -0.60118 10.6692 6.15984 1.04697
93 1 4 -0.601179 24.6974 14.2591 11.9641
94 1 4 -0.601179 11.8345 6.83267 2.95001
95 1 4 -0.60118 28.9351 18.0514 9.45555
96 1 4 -0.60118 7.59682 3.04037 5.45857
97 1 4 -0.601179 30.1005 16.0329 9.45555
98 1 4 -0.601179 6.43145 5.05885 5.45857
99 1 4 -0.601179 24.6974 16.0329 9.45555
100 1 4 -0.601179 11.8345 5.05885 5.45857
101 1 4 -0.60118 25.8628 18.0514 9.45555
102 1 4 -0.60118 10.6692 3.04037 5.45857
103 1 4 -0.60118 28.9351 14.9319 13.8671
104 1 4 -0.60118 7.59682 6.15984 1.04697
105 1 4 -0.60118 30.1005 14.2591 11.9641
106 1 4 -0.60118 6.43145 6.83267 2.95001
746 215 5 -0.35 8.72108 8.93422 0.223402
747 215 6 0.7 18.1975 13.4409 14.3372
748 215 5 -0.35 18.541 12.6746 13.537
836 245 5 -0.35 12.9613 11.1031 10.2739
837 245 6 0.7 11.9673 10.9053 10.8381
838 245 5 -0.35 10.9732 10.7075 11.4023
1112 337 5 -0.35 19.1755 18.0315 9.60206
1113 337 6 0.7 18.5915 17.3803 8.84016
1114 337 5 -0.35 18.0075 16.7292 8.07826
1295 398 5 -0.35 19.3014 15.4031 5.01749
1296 398 6 0.7 20.0148 15.92 4.26277
1297 398 5 -0.35 20.7282 16.4368 3.50804
1355 418 5 -0.35 31.7373 17.1077 12.6167
1356 418 6 0.7 31.5102 17.6388 13.6227
1357 418 5 -0.35 31.2832 18.1699 14.6287
1382 427 5 -0.35 16.3541 15.8783 12.7454
1383 427 6 0.7 15.9107 16.0672 11.6903
1384 427 5 -0.35 15.4673 16.2562 10.6351
1385 428 5 -0.35 14.4233 2.26476 1.32566
1386 428 6 0.7 13.356 2.70535 1.21505
1387 428 5 -0.35 12.2886 3.14595 1.10444
1415 438 5 -0.35 19.1155 14.6835 10.0455
1416 438 6 0.7 19.0774 13.6779 9.46842
1417 438 5 -0.35 19.0393 12.6723 8.89137
1433 444 5 -0.35 22.1731 16.345 11.245
1434 444 6 0.7 22.277 15.4252 10.5458
1435 444 5 -0.35 22.3809 14.5055 9.84663
1502 467 5 -0.35 27.1843 12.2941 12.9437
1503 467 6 0.7 26.4141 11.5726 13.4251
1504 467 5 -0.35 25.644 10.851 13.9066
1505 468 5 -0.35 11.0259 7.40643 9.34811
1506 468 6 0.7 10.5513 6.66576 8.59194
1507 468 5 -0.35 10.0768 5.92509 7.83577
1523 474 5 -0.35 20.047 5.80338 10.1968
1524 474 6 0.7 20.8259 5.46518 10.987
1525 474 5 -0.35 21.6049 5.12698 11.7773
1532 477 5 -0.35 23.0949 8.47346 6.31581
1533 477 6 0.7 23.3137 9.33358 5.56886
1534 477 5 -0.35 23.5325 10.1937 4.82191
1586 495 5 -0.35 13.8056 9.92662 6.78736
1587 495 6 0.7 14.3548 10.4179 5.89143
1588 495 5 -0.35 14.9039 10.9092 4.9955
1589 496 5 -0.35 13.3811 9.62074 13.3227
1590 496 6 0.7 13.7839 8.70318 12.7384
1591 496 5 -0.35 14.1867 7.78563 12.154
1592 497 5 -0.35 15.2312 13.1764 10.2705
1593 497 6 0.7 14.7322 13.0094 9.23672
1594 497 5 -0.35 14.2332 12.8424 8.20294
1598 499 5 -0.35 18.1801 12.6531 3.54245
1599 499 6 0.7 17.8194 12.515 4.63625
1600 499 5 -0.35 17.4586 12.3769 5.73005
1604 501 5 -0.35 26.1916 17.3294 6.05639
1605 501 6 0.7 27.1705 17.9517 6.06618
1606 501 5 -0.35 19.0164 2.75515 6.07598
1613 504 5 -0.35 10.4955 11.3719 1.53152
1614 504 6 0.7 9.48366 11.8023 1.16202
1615 504 5 -0.35 8.47184 12.2328 0.792511
ITEM: TIMESTEP
4000
ITEM: NUMBER OF ATOMS
202
ITEM: BOX BOUNDS xy xz yz pp pp pp
0.0000000000000000e+00 3.6531964750000000e+01 9.1329911900000003e+00
0.0000000000000000e+00 2.1091739680000000e+01 9.1329911900000003e+00
0.0000000000000000e+00 1.4914112149999999e+01 5.2729349200000000e+00
ITEM: ATOMS id mol type q x y z
1 1 1 1.10383 27.399 17.6496 10.5383
2 1 1 1.10383 9.13299 3.44217 4.3758
3 1 1 1.10383 27.399 15.8188 13.1274
4 1 1 1.10383 9.13299 5.27293 1.78671
5 1 1 1.10383 25.8135 14.9034 10.5383
6 1 1 1.10383 10.7185 6.18832 4.3758
7 1 1 1.10383 28.9845 14.9034 10.5383
8 1 1 1.10383 7.5475 6.18832 4.3758
9 1 2 0.115889 18.266 5.48596 12.6084
10 1 2 0.115889 18.266 15.6058 2.30572
11 1 2 0.115888 18.266 13.716 0.969417
12 1 2 0.115888 18.266 7.37578 13.9447
13 1 2 0.11589 25.3934 11.4908 8.12521
14 1 2 0.11589 11.1386 9.60096 6.7889
15 1 2 0.115888 11.1386 11.4908 8.12521
16 1 2 0.115888 25.3934 9.60096 6.7889
17 1 2 0.115889 15.5206 8.96083 0.969417
18 1 2 0.115889 21.0114 12.1309 13.9447
19 1 2 0.115888 22.648 13.0758 12.6084
20 1 2 0.115888 13.884 8.01592 2.30572
21 1 2 0.115889 21.0114 3.90092 8.12521
22 1 2 0.115889 15.5206 17.1908 6.7889
23 1 2 0.115887 13.884 16.2459 8.12521
24 1 2 0.115887 22.648 4.84583 6.7889
25 1 2 0.115889 22.648 16.2459 8.12521
26 1 2 0.115889 13.884 4.84583 6.7889
27 1 2 0.115887 15.5206 3.90092 8.12521
28 1 2 0.115887 21.0114 17.1908 6.7889
29 1 2 0.115889 21.0114 8.96083 0.969417
30 1 2 0.115889 15.5206 12.1309 13.9447
31 1 2 0.115887 13.884 13.0758 12.6084
32 1 2 0.115887 22.648 8.01592 2.30572
33 1 3 0.671939 27.399 18.7442 13.2542
34 1 3 0.671939 9.13299 2.34751 1.65994
35 1 3 0.671939 27.399 12.8934 9.117
36 1 3 0.671939 9.13299 8.19836 5.79712
37 1 3 0.67194 24.8655 14.3561 13.2542
38 1 3 0.67194 11.6665 6.73565 1.65994
39 1 3 0.67194 29.9325 17.2815 9.117
40 1 3 0.67194 6.5995 3.81022 5.79712
41 1 3 0.67194 24.8655 17.2815 9.117
42 1 3 0.67194 11.6665 3.81022 5.79712
43 1 3 0.67194 29.9325 14.3561 13.2542
44 1 3 0.67194 6.5995 6.73565 1.65994
45 1 3 -0.11508 27.399 19.957 14.1117
46 1 3 -0.11508 9.13299 1.13474 0.802379
47 1 3 -0.11508 27.399 11.6806 8.25944
48 1 3 -0.11508 9.13299 9.41113 6.65468
49 1 3 -0.11508 23.8152 13.7497 14.1117
50 1 3 -0.11508 12.7168 7.34203 0.802379
51 1 3 -0.11508 30.9828 17.8879 8.25944
52 1 3 -0.11508 5.54921 3.20384 6.65468
53 1 3 -0.11508 23.8152 17.8879 8.25944
54 1 3 -0.11508 12.7168 3.20384 6.65468
55 1 3 -0.11508 30.9828 13.7497 14.1117
56 1 3 -0.11508 5.54921 7.34203 0.802379
57 1 3 -0.0559 18.266 5.39949 13.5316
58 1 3 -0.0559 18.266 15.6923 1.38254
59 1 3 -0.055903 18.266 14.5575 0.580159
60 1 3 -0.055903 18.266 6.53422 14.334
61 1 3 -0.0559 26.1971 11.1132 7.85825
62 1 3 -0.0559 10.3349 9.9785 7.05587
63 1 3 -0.055903 10.3349 11.1132 7.85825
64 1 3 -0.055903 26.1971 9.9785 7.05587
65 1 3 -0.0559 14.7918 8.54005 0.580159
66 1 3 -0.0559 21.7402 12.5517 14.334
67 1 3 -0.055903 22.7229 13.1191 13.5316
68 1 3 -0.055903 13.8091 7.97268 1.38254
69 1 3 -0.0559 21.7402 3.39366 7.85825
70 1 3 -0.0559 14.7918 17.6981 7.05587
71 1 3 -0.055903 13.8091 17.1307 7.85825
72 1 3 -0.055903 22.7229 3.96103 7.05587
73 1 3 -0.055901 22.7229 17.1307 7.85825
74 1 3 -0.055901 13.8091 3.96103 7.05587
75 1 3 -0.055903 14.7918 3.39366 7.85825
76 1 3 -0.055903 21.7402 17.6981 7.05587
77 1 3 -0.0559 21.7402 8.54005 0.580159
78 1 3 -0.0559 14.7918 12.5517 14.334
79 1 3 -0.055903 13.8091 13.1191 13.5316
80 1 3 -0.055903 22.7229 7.97268 1.38254
81 1 4 -1.26215 27.399 15.8188 11.1856
82 1 4 -1.26215 9.13299 5.27293 3.72853
83 1 4 -0.60118 27.399 18.9383 11.9641
84 1 4 -0.60118 9.13299 2.15347 2.95001
85 1 4 -0.601179 27.399 17.5926 13.8671
86 1 4 -0.601179 9.13299 3.49912 1.04697
87 1 4 -0.601179 26.2336 13.3722 9.45555
88 1 4 -0.601179 10.2984 7.71958 5.45857
89 1 4 -0.60118 28.5643 13.3722 9.45555
90 1 4 -0.60118 7.96762 7.71958 5.45857
91 1 4 -0.60118 25.8628 14.9319 13.8671
92 1 4 -0.60118 10.6692 6.15984 1.04697
93 1 4 -0.601179 24.6974 14.2591 11.9641
94 1 4 -0.601179 11.8345 6.83267 2.95001
95 1 4 -0.60118 28.9351 18.0514 9.45555
96 1 4 -0.60118 7.59682 3.04037 5.45857
97 1 4 -0.601179 30.1005 16.0329 9.45555
98 1 4 -0.601179 6.43145 5.05885 5.45857
99 1 4 -0.601179 24.6974 16.0329 9.45555
100 1 4 -0.601179 11.8345 5.05885 5.45857
101 1 4 -0.60118 25.8628 18.0514 9.45555
102 1 4 -0.60118 10.6692 3.04037 5.45857
103 1 4 -0.60118 28.9351 14.9319 13.8671
104 1 4 -0.60118 7.59682 6.15984 1.04697
105 1 4 -0.60118 30.1005 14.2591 11.9641
106 1 4 -0.60118 6.43145 6.83267 2.95001
1619 506 5 -0.35 21.6295 17.2923 11.8883
1620 506 6 0.7 22.7845 17.1888 11.9202
1621 506 5 -0.35 23.9394 17.0853 11.9521
1724 541 5 -0.35 9.57074 3.72201 8.87016
1725 541 6 0.7 9.73872 4.25612 9.88608
1726 541 5 -0.35 9.9067 4.79024 10.902
1886 595 5 -0.35 16.1193 5.42545 1.23952
1887 595 6 0.7 17.0719 5.94463 0.82877
1888 595 5 -0.35 18.0244 6.46381 0.418023
2075 658 5 -0.35 24.0949 15.7678 5.03495
2076 658 6 0.7 24.5059 15.2089 5.96463
2077 658 5 -0.35 24.9169 14.65 6.89431
2093 664 5 -0.35 7.46093 9.48792 0.628041
2094 664 6 0.7 16.3092 15.1601 14.4909
2095 664 5 -0.35 16.0245 15.5593 13.4396
2102 667 5 -0.35 23.2869 7.75296 6.36341
2103 667 6 0.7 22.6588 7.11531 5.62546
2104 667 5 -0.35 22.0308 6.47766 4.88751
2108 669 5 -0.35 14.882 5.02711 4.08309
2109 669 6 0.7 14.4429 4.09156 3.55634
2110 669 5 -0.35 14.0037 3.15601 3.02959
2135 678 5 -0.35 19.5842 3.92053 1.7188
2136 678 6 0.7 19.8504 5.01271 2.00494
2137 678 5 -0.35 20.1166 6.1049 2.29108
2138 679 5 -0.35 6.27511 3.85217 2.50928
2139 679 6 0.7 5.15871 4.12353 2.66937
2140 679 5 -0.35 4.04232 4.39488 2.82946
2144 681 5 -0.35 4.61113 1.68838 0.95152
2145 681 6 0.7 4.1866 2.4849 0.222861
2146 681 5 -0.35 12.8951 8.55435 14.4083
2147 682 5 -0.35 18.9002 5.06427 6.25694
2148 682 6 0.7 18.3362 4.79607 5.27944
2149 682 5 -0.35 17.7721 4.52787 4.30195
2168 689 5 -0.35 11.9808 14.3235 6.5947
2169 689 6 0.7 29.5104 15.148 6.24305
2170 689 5 -0.35 28.7741 15.9725 5.89141
2213 704 5 -0.35 17.811 10.3938 13.1196
2214 704 6 0.7 16.8628 9.73026 13.1982
2215 704 5 -0.35 15.9145 9.0667 13.2767
2228 709 5 -0.35 18.3983 16.202 10.9456
2229 709 6 0.7 17.966 15.1259 10.9186
2230 709 5 -0.35 17.5337 14.0498 10.8915
2234 711 5 -0.35 26.0292 7.87237 9.63149
2235 711 6 0.7 25.3021 7.05041 9.25569
2236 711 5 -0.35 24.5749 6.22845 8.8799
2249 716 5 -0.35 25.9257 9.3119 13.085
2250 716 6 0.7 26.2896 9.76424 12.0808
2251 716 5 -0.35 26.6536 10.2166 11.0765
2258 719 5 -0.35 16.1236 18.7636 12.9518
2259 719 6 0.7 16.0874 18.6144 11.8021
2260 719 5 -0.35 16.0511 18.4652 10.6523
2279 726 5 -0.35 13.43 7.56758 7.22538
2280 726 6 0.7 13.3495 8.02844 6.16391
2281 726 5 -0.35 13.2689 8.4893 5.10243
2282 727 5 -0.35 21.2281 14.6553 0.527065
2283 727 6 0.7 30.7004 20.6267 14.5794
2284 727 5 -0.35 21.9066 5.5063 13.7175
2288 729 5 -0.35 15.1247 6.22139 10.2654
2289 729 6 0.7 14.0369 5.84218 10.401
2290 729 5 -0.35 12.949 5.46298 10.5365
2291 730 5 -0.35 25.3772 6.25133 14.3146
2292 730 6 0.7 25.2762 6.04252 13.178
2293 730 5 -0.35 25.1753 5.83371 12.0414
2297 732 5 -0.35 21.4488 11.7975 10.4922
2298 732 6 0.7 21.7084 12.3165 9.48775
2299 732 5 -0.35 21.968 12.8355 8.48335
2312 737 5 -0.35 23.3055 9.4407 11.6454
2313 737 6 0.7 22.6209 9.16206 10.7514
2314 737 5 -0.35 21.9363 8.88341 9.85738
2315 738 5 -0.35 20.1513 10.7179 2.98522
2316 738 6 0.7 18.9935 10.7289 2.91372
2317 738 5 -0.35 17.8358 10.7399 2.84222
2324 741 5 -0.35 14.2045 11.3248 2.83055
2325 741 6 0.7 14.4293 11.507 1.70722
2326 741 5 -0.35 14.6542 11.6892 0.583903
2336 745 5 -0.35 12.8395 14.6878 2.09687
2337 745 6 0.7 12.8235 14.5513 0.94504
2338 745 5 -0.35 21.9405 19.6877 14.7073
2342 747 5 -0.35 20.4256 8.13016 7.29369
2343 747 6 0.7 19.5097 8.20108 8.00207
2344 747 5 -0.35 18.5939 8.27199 8.71044
2348 749 5 -0.35 16.5449 7.46023 6.19789
2349 749 6 0.7 16.8311 7.64868 5.08967
2350 749 5 -0.35 17.1173 7.83714 3.98144
2351 750 5 -0.35 11.0045 10.5183 3.12518
2352 750 6 0.7 10.7405 10.2479 2.02846
2353 750 5 -0.35 10.4766 9.97752 0.931733
2354 751 5 -0.35 22.3743 12.9659 4.01569
2355 751 6 0.7 22.9474 13.0072 3.00803
2356 751 5 -0.35 23.5206 13.0484 2.00037
2357 752 5 -0.35 9.52908 14.4943 1.99146
2358 752 6 0.7 27.3373 13.9051 2.87964
2359 752 5 -0.35 26.8795 13.3159 3.76782
2360 753 5 -0.35 18.3295 13.3155 7.6594
2361 753 6 0.7 17.9391 13.2521 6.56891
2362 753 5 -0.35 17.5487 13.1888 5.47842
ITEM: TIMESTEP
5000
ITEM: NUMBER OF ATOMS
175
ITEM: BOX BOUNDS xy xz yz pp pp pp
0.0000000000000000e+00 3.6531964750000000e+01 9.1329911900000003e+00
0.0000000000000000e+00 2.1091739680000000e+01 9.1329911900000003e+00
0.0000000000000000e+00 1.4914112149999999e+01 5.2729349200000000e+00
ITEM: ATOMS id mol type q x y z
1 1 1 1.10383 27.399 17.6496 10.5383
2 1 1 1.10383 9.13299 3.44217 4.3758
3 1 1 1.10383 27.399 15.8188 13.1274
4 1 1 1.10383 9.13299 5.27293 1.78671
5 1 1 1.10383 25.8135 14.9034 10.5383
6 1 1 1.10383 10.7185 6.18832 4.3758
7 1 1 1.10383 28.9845 14.9034 10.5383
8 1 1 1.10383 7.5475 6.18832 4.3758
9 1 2 0.115889 18.266 5.48596 12.6084
10 1 2 0.115889 18.266 15.6058 2.30572
11 1 2 0.115888 18.266 13.716 0.969417
12 1 2 0.115888 18.266 7.37578 13.9447
13 1 2 0.11589 25.3934 11.4908 8.12521
14 1 2 0.11589 11.1386 9.60096 6.7889
15 1 2 0.115888 11.1386 11.4908 8.12521
16 1 2 0.115888 25.3934 9.60096 6.7889
17 1 2 0.115889 15.5206 8.96083 0.969417
18 1 2 0.115889 21.0114 12.1309 13.9447
19 1 2 0.115888 22.648 13.0758 12.6084
20 1 2 0.115888 13.884 8.01592 2.30572
21 1 2 0.115889 21.0114 3.90092 8.12521
22 1 2 0.115889 15.5206 17.1908 6.7889
23 1 2 0.115887 13.884 16.2459 8.12521
24 1 2 0.115887 22.648 4.84583 6.7889
25 1 2 0.115889 22.648 16.2459 8.12521
26 1 2 0.115889 13.884 4.84583 6.7889
27 1 2 0.115887 15.5206 3.90092 8.12521
28 1 2 0.115887 21.0114 17.1908 6.7889
29 1 2 0.115889 21.0114 8.96083 0.969417
30 1 2 0.115889 15.5206 12.1309 13.9447
31 1 2 0.115887 13.884 13.0758 12.6084
32 1 2 0.115887 22.648 8.01592 2.30572
33 1 3 0.671939 27.399 18.7442 13.2542
34 1 3 0.671939 9.13299 2.34751 1.65994
35 1 3 0.671939 27.399 12.8934 9.117
36 1 3 0.671939 9.13299 8.19836 5.79712
37 1 3 0.67194 24.8655 14.3561 13.2542
38 1 3 0.67194 11.6665 6.73565 1.65994
39 1 3 0.67194 29.9325 17.2815 9.117
40 1 3 0.67194 6.5995 3.81022 5.79712
41 1 3 0.67194 24.8655 17.2815 9.117
42 1 3 0.67194 11.6665 3.81022 5.79712
43 1 3 0.67194 29.9325 14.3561 13.2542
44 1 3 0.67194 6.5995 6.73565 1.65994
45 1 3 -0.11508 27.399 19.957 14.1117
46 1 3 -0.11508 9.13299 1.13474 0.802379
47 1 3 -0.11508 27.399 11.6806 8.25944
48 1 3 -0.11508 9.13299 9.41113 6.65468
49 1 3 -0.11508 23.8152 13.7497 14.1117
50 1 3 -0.11508 12.7168 7.34203 0.802379
51 1 3 -0.11508 30.9828 17.8879 8.25944
52 1 3 -0.11508 5.54921 3.20384 6.65468
53 1 3 -0.11508 23.8152 17.8879 8.25944
54 1 3 -0.11508 12.7168 3.20384 6.65468
55 1 3 -0.11508 30.9828 13.7497 14.1117
56 1 3 -0.11508 5.54921 7.34203 0.802379
57 1 3 -0.0559 18.266 5.39949 13.5316
58 1 3 -0.0559 18.266 15.6923 1.38254
59 1 3 -0.055903 18.266 14.5575 0.580159
60 1 3 -0.055903 18.266 6.53422 14.334
61 1 3 -0.0559 26.1971 11.1132 7.85825
62 1 3 -0.0559 10.3349 9.9785 7.05587
63 1 3 -0.055903 10.3349 11.1132 7.85825
64 1 3 -0.055903 26.1971 9.9785 7.05587
65 1 3 -0.0559 14.7918 8.54005 0.580159
66 1 3 -0.0559 21.7402 12.5517 14.334
67 1 3 -0.055903 22.7229 13.1191 13.5316
68 1 3 -0.055903 13.8091 7.97268 1.38254
69 1 3 -0.0559 21.7402 3.39366 7.85825
70 1 3 -0.0559 14.7918 17.6981 7.05587
71 1 3 -0.055903 13.8091 17.1307 7.85825
72 1 3 -0.055903 22.7229 3.96103 7.05587
73 1 3 -0.055901 22.7229 17.1307 7.85825
74 1 3 -0.055901 13.8091 3.96103 7.05587
75 1 3 -0.055903 14.7918 3.39366 7.85825
76 1 3 -0.055903 21.7402 17.6981 7.05587
77 1 3 -0.0559 21.7402 8.54005 0.580159
78 1 3 -0.0559 14.7918 12.5517 14.334
79 1 3 -0.055903 13.8091 13.1191 13.5316
80 1 3 -0.055903 22.7229 7.97268 1.38254
81 1 4 -1.26215 27.399 15.8188 11.1856
82 1 4 -1.26215 9.13299 5.27293 3.72853
83 1 4 -0.60118 27.399 18.9383 11.9641
84 1 4 -0.60118 9.13299 2.15347 2.95001
85 1 4 -0.601179 27.399 17.5926 13.8671
86 1 4 -0.601179 9.13299 3.49912 1.04697
87 1 4 -0.601179 26.2336 13.3722 9.45555
88 1 4 -0.601179 10.2984 7.71958 5.45857
89 1 4 -0.60118 28.5643 13.3722 9.45555
90 1 4 -0.60118 7.96762 7.71958 5.45857
91 1 4 -0.60118 25.8628 14.9319 13.8671
92 1 4 -0.60118 10.6692 6.15984 1.04697
93 1 4 -0.601179 24.6974 14.2591 11.9641
94 1 4 -0.601179 11.8345 6.83267 2.95001
95 1 4 -0.60118 28.9351 18.0514 9.45555
96 1 4 -0.60118 7.59682 3.04037 5.45857
97 1 4 -0.601179 30.1005 16.0329 9.45555
98 1 4 -0.601179 6.43145 5.05885 5.45857
99 1 4 -0.601179 24.6974 16.0329 9.45555
100 1 4 -0.601179 11.8345 5.05885 5.45857
101 1 4 -0.60118 25.8628 18.0514 9.45555
102 1 4 -0.60118 10.6692 3.04037 5.45857
103 1 4 -0.60118 28.9351 14.9319 13.8671
104 1 4 -0.60118 7.59682 6.15984 1.04697
105 1 4 -0.60118 30.1005 14.2591 11.9641
106 1 4 -0.60118 6.43145 6.83267 2.95001
2588 829 5 -0.35 11.9245 16.357 4.94225
2589 829 6 0.7 29.2379 16.2483 5.59521
2590 829 5 -0.35 28.2853 16.1396 6.24817
2711 870 5 -0.35 12.547 10.7151 11.7276
2712 870 6 0.7 11.4275 10.9679 11.896
2713 870 5 -0.35 28.5739 11.2206 12.0643
2744 881 5 -0.35 9.15224 9.44361 1.14042
2745 881 6 0.7 8.70175 9.77845 0.125269
2746 881 5 -0.35 17.3842 15.3862 14.0242
2861 920 5 -0.35 23.0973 12.7235 0.668132
2862 920 6 0.7 24.0668 12.1267 0.890927
2863 920 5 -0.35 25.0362 11.53 1.11372
2930 943 5 -0.35 3.12473 4.33302 0.707163
2931 943 6 0.7 3.1531 4.04177 1.82965
2932 943 5 -0.35 21.4474 3.75052 2.95213
2933 944 5 -0.35 16.2168 3.86379 5.26595
2934 944 6 0.7 16.0161 4.56722 4.36565
2935 944 5 -0.35 15.8155 5.27065 3.46535
2948 949 5 -0.35 14.2435 9.01652 6.27742
2949 949 6 0.7 14.7111 7.98985 6.00746
2950 949 5 -0.35 15.1787 6.96318 5.7375
2957 952 5 -0.35 32.7244 16.5106 12.9122
2958 952 6 0.7 15.095 16.2145 11.9888
2959 952 5 -0.35 15.7315 15.9185 11.0653
2963 954 5 -0.35 21.144 7.91695 10.0542
2964 954 6 0.7 20.9364 8.46865 11.0532
2965 954 5 -0.35 20.7288 9.02036 12.0523
2993 964 5 -0.35 22.074 8.06154 5.72771
2994 964 6 0.7 22.1202 9.17339 6.05521
2995 964 5 -0.35 22.1663 10.2852 6.38271
2999 966 5 -0.35 9.66244 4.05999 9.48529
3000 966 6 0.7 9.42807 4.5756 8.47295
3001 966 5 -0.35 9.19371 5.0912 7.46062
3017 972 5 -0.35 19.5256 7.57283 3.03436
3018 972 6 0.7 18.5484 8.1522 3.26904
3019 972 5 -0.35 17.5713 8.73158 3.50371
3032 977 5 -0.35 11.7904 3.95449 2.42091
3033 977 6 0.7 12.0323 3.55517 1.35902
3034 977 5 -0.35 12.2742 3.15585 0.297124
3041 980 5 -0.35 26.9429 8.84434 12.6796
3042 980 6 0.7 26.2486 9.62361 12.1733
3043 980 5 -0.35 25.5543 10.4029 11.6671
3050 983 5 -0.35 10.5311 11.3337 3.17325
3051 983 6 0.7 11.4042 10.5699 3.17043
3052 983 5 -0.35 12.2772 9.80617 3.1676
3053 984 5 -0.35 25.3105 15.7907 6.29105
3054 984 6 0.7 25.0742 15.0629 5.41928
3055 984 5 -0.35 24.8379 14.335 4.5475
3065 988 5 -0.35 33.0394 19.179 10.7301
3066 988 6 0.7 24.414 4.38474 10.5344
3067 988 5 -0.35 24.9216 5.40927 10.3387
3074 991 5 -0.35 6.00504 3.40442 0.732037
3075 991 6 0.7 15.3899 8.44912 14.5371
3076 991 5 -0.35 15.6418 8.22088 13.428
3080 993 5 -0.35 21.5799 11.6075 9.23627
3081 993 6 0.7 22.1316 12.4103 8.60639
3082 993 5 -0.35 22.6834 13.213 7.9765
3092 997 5 -0.35 13.806 13.1844 2.70011
3093 997 6 0.7 14.5785 12.6284 2.03711
3094 997 5 -0.35 15.3511 12.0723 1.37412
3098 999 5 -0.35 11.6551 6.8478 11.4245
3099 999 6 0.7 12.2594 6.25871 12.2204
3100 999 5 -0.35 12.8636 5.66962 13.0163
3101 1000 5 -0.35 15.9114 4.89855 11.3615
3102 1000 6 0.7 16.361 5.45267 10.447
3103 1000 5 -0.35 16.8106 6.00679 9.53247
3104 1001 5 -0.35 19.1413 14.5846 9.50138
3105 1001 6 0.7 18.3478 14.646 8.65749
3106 1001 5 -0.35 17.5543 14.7075 7.81359
ITEM: TIMESTEP
6000
ITEM: NUMBER OF ATOMS
187
ITEM: BOX BOUNDS xy xz yz pp pp pp
0.0000000000000000e+00 3.6531964750000000e+01 9.1329911900000003e+00
0.0000000000000000e+00 2.1091739680000000e+01 9.1329911900000003e+00
0.0000000000000000e+00 1.4914112149999999e+01 5.2729349200000000e+00
ITEM: ATOMS id mol type q x y z
1 1 1 1.10383 27.399 17.6496 10.5383
2 1 1 1.10383 9.13299 3.44217 4.3758
3 1 1 1.10383 27.399 15.8188 13.1274
4 1 1 1.10383 9.13299 5.27293 1.78671
5 1 1 1.10383 25.8135 14.9034 10.5383
6 1 1 1.10383 10.7185 6.18832 4.3758
7 1 1 1.10383 28.9845 14.9034 10.5383
8 1 1 1.10383 7.5475 6.18832 4.3758
9 1 2 0.115889 18.266 5.48596 12.6084
10 1 2 0.115889 18.266 15.6058 2.30572
11 1 2 0.115888 18.266 13.716 0.969417
12 1 2 0.115888 18.266 7.37578 13.9447
13 1 2 0.11589 25.3934 11.4908 8.12521
14 1 2 0.11589 11.1386 9.60096 6.7889
15 1 2 0.115888 11.1386 11.4908 8.12521
16 1 2 0.115888 25.3934 9.60096 6.7889
17 1 2 0.115889 15.5206 8.96083 0.969417
18 1 2 0.115889 21.0114 12.1309 13.9447
19 1 2 0.115888 22.648 13.0758 12.6084
20 1 2 0.115888 13.884 8.01592 2.30572
21 1 2 0.115889 21.0114 3.90092 8.12521
22 1 2 0.115889 15.5206 17.1908 6.7889
23 1 2 0.115887 13.884 16.2459 8.12521
24 1 2 0.115887 22.648 4.84583 6.7889
25 1 2 0.115889 22.648 16.2459 8.12521
26 1 2 0.115889 13.884 4.84583 6.7889
27 1 2 0.115887 15.5206 3.90092 8.12521
28 1 2 0.115887 21.0114 17.1908 6.7889
29 1 2 0.115889 21.0114 8.96083 0.969417
30 1 2 0.115889 15.5206 12.1309 13.9447
31 1 2 0.115887 13.884 13.0758 12.6084
32 1 2 0.115887 22.648 8.01592 2.30572
33 1 3 0.671939 27.399 18.7442 13.2542
34 1 3 0.671939 9.13299 2.34751 1.65994
35 1 3 0.671939 27.399 12.8934 9.117
36 1 3 0.671939 9.13299 8.19836 5.79712
37 1 3 0.67194 24.8655 14.3561 13.2542
38 1 3 0.67194 11.6665 6.73565 1.65994
39 1 3 0.67194 29.9325 17.2815 9.117
40 1 3 0.67194 6.5995 3.81022 5.79712
41 1 3 0.67194 24.8655 17.2815 9.117
42 1 3 0.67194 11.6665 3.81022 5.79712
43 1 3 0.67194 29.9325 14.3561 13.2542
44 1 3 0.67194 6.5995 6.73565 1.65994
45 1 3 -0.11508 27.399 19.957 14.1117
46 1 3 -0.11508 9.13299 1.13474 0.802379
47 1 3 -0.11508 27.399 11.6806 8.25944
48 1 3 -0.11508 9.13299 9.41113 6.65468
49 1 3 -0.11508 23.8152 13.7497 14.1117
50 1 3 -0.11508 12.7168 7.34203 0.802379
51 1 3 -0.11508 30.9828 17.8879 8.25944
52 1 3 -0.11508 5.54921 3.20384 6.65468
53 1 3 -0.11508 23.8152 17.8879 8.25944
54 1 3 -0.11508 12.7168 3.20384 6.65468
55 1 3 -0.11508 30.9828 13.7497 14.1117
56 1 3 -0.11508 5.54921 7.34203 0.802379
57 1 3 -0.0559 18.266 5.39949 13.5316
58 1 3 -0.0559 18.266 15.6923 1.38254
59 1 3 -0.055903 18.266 14.5575 0.580159
60 1 3 -0.055903 18.266 6.53422 14.334
61 1 3 -0.0559 26.1971 11.1132 7.85825
62 1 3 -0.0559 10.3349 9.9785 7.05587
63 1 3 -0.055903 10.3349 11.1132 7.85825
64 1 3 -0.055903 26.1971 9.9785 7.05587
65 1 3 -0.0559 14.7918 8.54005 0.580159
66 1 3 -0.0559 21.7402 12.5517 14.334
67 1 3 -0.055903 22.7229 13.1191 13.5316
68 1 3 -0.055903 13.8091 7.97268 1.38254
69 1 3 -0.0559 21.7402 3.39366 7.85825
70 1 3 -0.0559 14.7918 17.6981 7.05587
71 1 3 -0.055903 13.8091 17.1307 7.85825
72 1 3 -0.055903 22.7229 3.96103 7.05587
73 1 3 -0.055901 22.7229 17.1307 7.85825
74 1 3 -0.055901 13.8091 3.96103 7.05587
75 1 3 -0.055903 14.7918 3.39366 7.85825
76 1 3 -0.055903 21.7402 17.6981 7.05587
77 1 3 -0.0559 21.7402 8.54005 0.580159
78 1 3 -0.0559 14.7918 12.5517 14.334
79 1 3 -0.055903 13.8091 13.1191 13.5316
80 1 3 -0.055903 22.7229 7.97268 1.38254
81 1 4 -1.26215 27.399 15.8188 11.1856
82 1 4 -1.26215 9.13299 5.27293 3.72853
83 1 4 -0.60118 27.399 18.9383 11.9641
84 1 4 -0.60118 9.13299 2.15347 2.95001
85 1 4 -0.601179 27.399 17.5926 13.8671
86 1 4 -0.601179 9.13299 3.49912 1.04697
87 1 4 -0.601179 26.2336 13.3722 9.45555
88 1 4 -0.601179 10.2984 7.71958 5.45857
89 1 4 -0.60118 28.5643 13.3722 9.45555
90 1 4 -0.60118 7.96762 7.71958 5.45857
91 1 4 -0.60118 25.8628 14.9319 13.8671
92 1 4 -0.60118 10.6692 6.15984 1.04697
93 1 4 -0.601179 24.6974 14.2591 11.9641
94 1 4 -0.601179 11.8345 6.83267 2.95001
95 1 4 -0.60118 28.9351 18.0514 9.45555
96 1 4 -0.60118 7.59682 3.04037 5.45857
97 1 4 -0.601179 30.1005 16.0329 9.45555
98 1 4 -0.601179 6.43145 5.05885 5.45857
99 1 4 -0.601179 24.6974 16.0329 9.45555
100 1 4 -0.601179 11.8345 5.05885 5.45857
101 1 4 -0.60118 25.8628 18.0514 9.45555
102 1 4 -0.60118 10.6692 3.04037 5.45857
103 1 4 -0.60118 28.9351 14.9319 13.8671
104 1 4 -0.60118 7.59682 6.15984 1.04697
105 1 4 -0.60118 30.1005 14.2591 11.9641
106 1 4 -0.60118 6.43145 6.83267 2.95001
3428 1109 5 -0.35 13.9483 2.41038 3.40577
3429 1109 6 0.7 13.2647 1.52898 3.72432
3430 1109 5 -0.35 21.7141 16.4664 4.04287
3539 1146 5 -0.35 12.7994 9.50174 3.94129
3540 1146 6 0.7 11.6981 9.61607 3.59547
3541 1146 5 -0.35 10.5967 9.7304 3.24965
3545 1148 5 -0.35 12.3305 10.8984 10.5378
3546 1148 6 0.7 13.223 11.5963 10.2885
3547 1148 5 -0.35 14.1155 12.2941 10.0392
3731 1210 5 -0.35 16.3757 11.4008 7.09142
3732 1210 6 0.7 15.5874 10.7499 7.63959
3733 1210 5 -0.35 14.7991 10.099 8.18776
3743 1214 5 -0.35 21.6653 16.8314 10.9529
3744 1214 6 0.7 22.3801 17.6371 11.3835
3745 1214 5 -0.35 23.0949 18.4429 11.8142
3758 1219 5 -0.35 26.8944 11.9884 4.57432
3759 1219 6 0.7 26.1762 11.3046 3.97246
3760 1219 5 -0.35 25.458 10.6208 3.37059
3761 1220 5 -0.35 13.4362 12.8121 5.86375
3762 1220 6 0.7 12.4113 13.3298 6.02858
3763 1220 5 -0.35 11.3863 13.8475 6.19341
3791 1230 5 -0.35 16.5176 5.12906 3.67201
3792 1230 6 0.7 16.4523 6.28502 3.60061
3793 1230 5 -0.35 16.387 7.44097 3.5292
3854 1251 5 -0.35 16.473 13.9873 11.3003
3855 1251 6 0.7 16.2281 14.595 10.3431
3856 1251 5 -0.35 15.9832 15.2028 9.38589
3875 1258 5 -0.35 6.0312 3.63122 1.16228
3876 1258 6 0.7 5.66478 3.55162 0.0645532
3877 1258 5 -0.35 14.4314 8.74496 13.8809
3887 1262 5 -0.35 10.7807 8.77432 12.0078
3888 1262 6 0.7 10.3318 8.4094 11.0023
3889 1262 5 -0.35 9.88284 8.04447 9.99692
3893 1264 5 -0.35 7.37913 3.98237 10.2749
3894 1264 6 0.7 16.9026 18.7134 10.1753
3895 1264 5 -0.35 17.2931 17.6257 10.0756
3899 1266 5 -0.35 27.1209 10.5057 14.4789
3900 1266 6 0.7 27.4943 11.0407 13.5198
3901 1266 5 -0.35 27.8676 11.5756 12.5606
3902 1267 5 -0.35 24.7925 8.6668 9.96068
3903 1267 6 0.7 24.9565 7.88767 9.11709
3904 1267 5 -0.35 25.1206 7.10855 8.27349
3905 1268 5 -0.35 15.9579 10.4635 4.3006
3906 1268 6 0.7 16.6114 10.4004 3.34428
3907 1268 5 -0.35 17.2649 10.3373 2.38796
3908 1269 5 -0.35 14.6883 5.66252 13.8903
3909 1269 6 0.7 14.9097 5.51119 12.7617
3910 1269 5 -0.35 15.1312 5.35986 11.6331
3917 1272 5 -0.35 12.3289 11.2845 1.55662
3918 1272 6 0.7 12.0781 11.03 0.453018
3919 1272 5 -0.35 20.9603 16.0485 14.2635
3941 1280 5 -0.35 12.4914 3.81287 0.688793
3942 1280 6 0.7 21.5731 9.00012 14.4472
3943 1280 5 -0.35 21.5218 8.91443 13.2915
3947 1282 5 -0.35 21.4337 3.79485 3.74905
3948 1282 6 0.7 3.86204 2.8657 3.76084
3949 1282 5 -0.35 4.55641 1.93655 3.77264
3953 1284 5 -0.35 30.7948 19.6222 13.9302
3954 1284 6 0.7 31.681 19.4434 13.2034
3955 1284 5 -0.35 32.5672 19.2647 12.4765
3959 1286 5 -0.35 25.3958 15.3442 6.09298
3960 1286 6 0.7 26.2812 15.3714 6.84198
3961 1286 5 -0.35 27.1666 15.3986 7.59097
3962 1287 5 -0.35 16.8425 14.2231 4.64417
3963 1287 6 0.7 15.9326 13.8868 4.00808
3964 1287 5 -0.35 15.0227 13.5505 3.37198
3968 1289 5 -0.35 21.8693 13.7385 5.47426
3969 1289 6 0.7 22.5192 12.8896 5.92438
3970 1289 5 -0.35 23.1692 12.0407 6.37449
3980 1293 5 -0.35 21.7715 10.205 4.17028
3981 1293 6 0.7 22.2898 9.2911 4.66191
3982 1293 5 -0.35 22.8082 8.3772 5.15354
3983 1294 5 -0.35 23.6635 14.6264 1.89515
3984 1294 6 0.7 24.0758 13.9195 2.71728
3985 1294 5 -0.35 24.4881 13.2126 3.53942
3986 1295 5 -0.35 9.44707 15.5448 0.847748
3987 1295 6 0.7 19.0856 0.588691 1.43587
3988 1295 5 -0.35 19.5911 1.45135 2.02399
3989 1296 5 -0.35 22.6044 10.5854 9.38206
3990 1296 6 0.7 22.0936 11.4877 9.90225
3991 1296 5 -0.35 21.5828 12.39 10.4224
ITEM: TIMESTEP
7000
ITEM: NUMBER OF ATOMS
169
ITEM: BOX BOUNDS xy xz yz pp pp pp
0.0000000000000000e+00 3.6531964750000000e+01 9.1329911900000003e+00
0.0000000000000000e+00 2.1091739680000000e+01 9.1329911900000003e+00
0.0000000000000000e+00 1.4914112149999999e+01 5.2729349200000000e+00
ITEM: ATOMS id mol type q x y z
1 1 1 1.10383 27.399 17.6496 10.5383
2 1 1 1.10383 9.13299 3.44217 4.3758
3 1 1 1.10383 27.399 15.8188 13.1274
4 1 1 1.10383 9.13299 5.27293 1.78671
5 1 1 1.10383 25.8135 14.9034 10.5383
6 1 1 1.10383 10.7185 6.18832 4.3758
7 1 1 1.10383 28.9845 14.9034 10.5383
8 1 1 1.10383 7.5475 6.18832 4.3758
9 1 2 0.115889 18.266 5.48596 12.6084
10 1 2 0.115889 18.266 15.6058 2.30572
11 1 2 0.115888 18.266 13.716 0.969417
12 1 2 0.115888 18.266 7.37578 13.9447
13 1 2 0.11589 25.3934 11.4908 8.12521
14 1 2 0.11589 11.1386 9.60096 6.7889
15 1 2 0.115888 11.1386 11.4908 8.12521
16 1 2 0.115888 25.3934 9.60096 6.7889
17 1 2 0.115889 15.5206 8.96083 0.969417
18 1 2 0.115889 21.0114 12.1309 13.9447
19 1 2 0.115888 22.648 13.0758 12.6084
20 1 2 0.115888 13.884 8.01592 2.30572
21 1 2 0.115889 21.0114 3.90092 8.12521
22 1 2 0.115889 15.5206 17.1908 6.7889
23 1 2 0.115887 13.884 16.2459 8.12521
24 1 2 0.115887 22.648 4.84583 6.7889
25 1 2 0.115889 22.648 16.2459 8.12521
26 1 2 0.115889 13.884 4.84583 6.7889
27 1 2 0.115887 15.5206 3.90092 8.12521
28 1 2 0.115887 21.0114 17.1908 6.7889
29 1 2 0.115889 21.0114 8.96083 0.969417
30 1 2 0.115889 15.5206 12.1309 13.9447
31 1 2 0.115887 13.884 13.0758 12.6084
32 1 2 0.115887 22.648 8.01592 2.30572
33 1 3 0.671939 27.399 18.7442 13.2542
34 1 3 0.671939 9.13299 2.34751 1.65994
35 1 3 0.671939 27.399 12.8934 9.117
36 1 3 0.671939 9.13299 8.19836 5.79712
37 1 3 0.67194 24.8655 14.3561 13.2542
38 1 3 0.67194 11.6665 6.73565 1.65994
39 1 3 0.67194 29.9325 17.2815 9.117
40 1 3 0.67194 6.5995 3.81022 5.79712
41 1 3 0.67194 24.8655 17.2815 9.117
42 1 3 0.67194 11.6665 3.81022 5.79712
43 1 3 0.67194 29.9325 14.3561 13.2542
44 1 3 0.67194 6.5995 6.73565 1.65994
45 1 3 -0.11508 27.399 19.957 14.1117
46 1 3 -0.11508 9.13299 1.13474 0.802379
47 1 3 -0.11508 27.399 11.6806 8.25944
48 1 3 -0.11508 9.13299 9.41113 6.65468
49 1 3 -0.11508 23.8152 13.7497 14.1117
50 1 3 -0.11508 12.7168 7.34203 0.802379
51 1 3 -0.11508 30.9828 17.8879 8.25944
52 1 3 -0.11508 5.54921 3.20384 6.65468
53 1 3 -0.11508 23.8152 17.8879 8.25944
54 1 3 -0.11508 12.7168 3.20384 6.65468
55 1 3 -0.11508 30.9828 13.7497 14.1117
56 1 3 -0.11508 5.54921 7.34203 0.802379
57 1 3 -0.0559 18.266 5.39949 13.5316
58 1 3 -0.0559 18.266 15.6923 1.38254
59 1 3 -0.055903 18.266 14.5575 0.580159
60 1 3 -0.055903 18.266 6.53422 14.334
61 1 3 -0.0559 26.1971 11.1132 7.85825
62 1 3 -0.0559 10.3349 9.9785 7.05587
63 1 3 -0.055903 10.3349 11.1132 7.85825
64 1 3 -0.055903 26.1971 9.9785 7.05587
65 1 3 -0.0559 14.7918 8.54005 0.580159
66 1 3 -0.0559 21.7402 12.5517 14.334
67 1 3 -0.055903 22.7229 13.1191 13.5316
68 1 3 -0.055903 13.8091 7.97268 1.38254
69 1 3 -0.0559 21.7402 3.39366 7.85825
70 1 3 -0.0559 14.7918 17.6981 7.05587
71 1 3 -0.055903 13.8091 17.1307 7.85825
72 1 3 -0.055903 22.7229 3.96103 7.05587
73 1 3 -0.055901 22.7229 17.1307 7.85825
74 1 3 -0.055901 13.8091 3.96103 7.05587
75 1 3 -0.055903 14.7918 3.39366 7.85825
76 1 3 -0.055903 21.7402 17.6981 7.05587
77 1 3 -0.0559 21.7402 8.54005 0.580159
78 1 3 -0.0559 14.7918 12.5517 14.334
79 1 3 -0.055903 13.8091 13.1191 13.5316
80 1 3 -0.055903 22.7229 7.97268 1.38254
81 1 4 -1.26215 27.399 15.8188 11.1856
82 1 4 -1.26215 9.13299 5.27293 3.72853
83 1 4 -0.60118 27.399 18.9383 11.9641
84 1 4 -0.60118 9.13299 2.15347 2.95001
85 1 4 -0.601179 27.399 17.5926 13.8671
86 1 4 -0.601179 9.13299 3.49912 1.04697
87 1 4 -0.601179 26.2336 13.3722 9.45555
88 1 4 -0.601179 10.2984 7.71958 5.45857
89 1 4 -0.60118 28.5643 13.3722 9.45555
90 1 4 -0.60118 7.96762 7.71958 5.45857
91 1 4 -0.60118 25.8628 14.9319 13.8671
92 1 4 -0.60118 10.6692 6.15984 1.04697
93 1 4 -0.601179 24.6974 14.2591 11.9641
94 1 4 -0.601179 11.8345 6.83267 2.95001
95 1 4 -0.60118 28.9351 18.0514 9.45555
96 1 4 -0.60118 7.59682 3.04037 5.45857
97 1 4 -0.601179 30.1005 16.0329 9.45555
98 1 4 -0.601179 6.43145 5.05885 5.45857
99 1 4 -0.601179 24.6974 16.0329 9.45555
100 1 4 -0.601179 11.8345 5.05885 5.45857
101 1 4 -0.60118 25.8628 18.0514 9.45555
102 1 4 -0.60118 10.6692 3.04037 5.45857
103 1 4 -0.60118 28.9351 14.9319 13.8671
104 1 4 -0.60118 7.59682 6.15984 1.04697
105 1 4 -0.60118 30.1005 14.2591 11.9641
106 1 4 -0.60118 6.43145 6.83267 2.95001
4061 1320 5 -0.35 21.9808 12.8799 0.570405
4062 1320 6 0.7 30.6686 18.1583 14.4134
4063 1320 5 -0.35 30.2234 18.1637 13.3422
4091 1330 5 -0.35 17.0415 3.95547 5.70778
4092 1330 6 0.7 17.6078 2.95583 5.54772
4093 1330 5 -0.35 18.1741 1.95618 5.38766
4103 1334 5 -0.35 12.4511 3.60991 2.4232
4104 1334 6 0.7 13.3574 3.48535 3.13643
4105 1334 5 -0.35 14.2637 3.3608 3.84966
4292 1397 5 -0.35 14.8822 7.88274 6.34048
4293 1397 6 0.7 15.2377 7.08048 5.58181
4294 1397 5 -0.35 15.5932 6.27823 4.82313
4295 1398 5 -0.35 16.9605 2.03229 2.18673
4296 1398 6 0.7 17.6792 2.8573 2.57196
4297 1398 5 -0.35 18.3979 3.6823 2.95718
4310 1403 5 -0.35 21.2183 5.46993 14.0839
4311 1403 6 0.7 21.5338 5.58168 12.9732
4312 1403 5 -0.35 21.8493 5.69343 11.8626
4325 1408 5 -0.35 21.5192 5.71487 4.24299
4326 1408 6 0.7 22.2368 5.06358 3.60552
4327 1408 5 -0.35 4.68851 4.41229 2.96804
4406 1435 5 -0.35 22.5778 15.6927 4.29027
4407 1435 6 0.7 23.5126 15.941 4.93068
4408 1435 5 -0.35 24.4474 16.1893 5.5711
4421 1440 5 -0.35 16.891 6.29289 1.21043
4422 1440 6 0.7 17.7705 7.04639 1.27722
4423 1440 5 -0.35 18.6499 7.79989 1.34401
4457 1452 5 -0.35 24.7052 12.9477 2.90393
4458 1452 6 0.7 24.9644 12.9741 1.77357
4459 1452 5 -0.35 25.2236 13.0005 0.643211
4496 1465 5 -0.35 18.7361 17.6332 8.01654
4497 1465 6 0.7 18.4317 16.9281 7.14718
4498 1465 5 -0.35 18.1274 16.223 6.27781
4505 1468 5 -0.35 27.771 12.0974 13.3381
4506 1468 6 0.7 27.3005 11.5076 12.457
4507 1468 5 -0.35 26.83 10.9178 11.5759
4511 1470 5 -0.35 25.6703 6.94329 9.70781
4512 1470 6 0.7 24.7301 6.96566 9.02883
4513 1470 5 -0.35 23.7898 6.98804 8.34985
4541 1480 5 -0.35 15.5441 15.7655 4.03168
4542 1480 6 0.7 14.6396 16.4528 3.79679
4543 1480 5 -0.35 4.60212 1.32125 3.5619
4544 1481 5 -0.35 16.8948 15.3957 11.5642
4545 1481 6 0.7 16.1766 16.0977 12.1447
4546 1481 5 -0.35 15.4584 16.7997 12.7252
4556 1485 5 -0.35 23.8982 9.19674 13.7689
4557 1485 6 0.7 22.7542 9.37561 13.6989
4558 1485 5 -0.35 21.6102 9.55448 13.6289
4571 1490 5 -0.35 20.189 7.25212 6.57972
4572 1490 6 0.7 20.4584 8.02333 5.75617
4573 1490 5 -0.35 20.7278 8.79454 4.93261
4577 1492 5 -0.35 12.3264 13.8629 7.11516
4578 1492 6 0.7 12.4984 13.7507 5.97348
4579 1492 5 -0.35 12.6703 13.6385 4.83179
4586 1495 5 -0.35 16.325 6.42744 10.3185
4587 1495 6 0.7 16.4219 6.29652 9.16999
4588 1495 5 -0.35 16.5188 6.16559 8.02148
4592 1497 5 -0.35 12.3485 6.16662 9.34441
4593 1497 6 0.7 12.0607 5.09935 9.69615
4594 1497 5 -0.35 11.7729 4.03209 10.0479
4595 1498 5 -0.35 11.6494 11.1185 3.34776
4596 1498 6 0.7 12.0983 11.1372 2.27829
4597 1498 5 -0.35 12.5472 11.1559 1.20882
ITEM: TIMESTEP
8000
ITEM: NUMBER OF ATOMS
148
ITEM: BOX BOUNDS xy xz yz pp pp pp
0.0000000000000000e+00 3.6531964750000000e+01 9.1329911900000003e+00
0.0000000000000000e+00 2.1091739680000000e+01 9.1329911900000003e+00
0.0000000000000000e+00 1.4914112149999999e+01 5.2729349200000000e+00
ITEM: ATOMS id mol type q x y z
1 1 1 1.10383 27.399 17.6496 10.5383
2 1 1 1.10383 9.13299 3.44217 4.3758
3 1 1 1.10383 27.399 15.8188 13.1274
4 1 1 1.10383 9.13299 5.27293 1.78671
5 1 1 1.10383 25.8135 14.9034 10.5383
6 1 1 1.10383 10.7185 6.18832 4.3758
7 1 1 1.10383 28.9845 14.9034 10.5383
8 1 1 1.10383 7.5475 6.18832 4.3758
9 1 2 0.115889 18.266 5.48596 12.6084
10 1 2 0.115889 18.266 15.6058 2.30572
11 1 2 0.115888 18.266 13.716 0.969417
12 1 2 0.115888 18.266 7.37578 13.9447
13 1 2 0.11589 25.3934 11.4908 8.12521
14 1 2 0.11589 11.1386 9.60096 6.7889
15 1 2 0.115888 11.1386 11.4908 8.12521
16 1 2 0.115888 25.3934 9.60096 6.7889
17 1 2 0.115889 15.5206 8.96083 0.969417
18 1 2 0.115889 21.0114 12.1309 13.9447
19 1 2 0.115888 22.648 13.0758 12.6084
20 1 2 0.115888 13.884 8.01592 2.30572
21 1 2 0.115889 21.0114 3.90092 8.12521
22 1 2 0.115889 15.5206 17.1908 6.7889
23 1 2 0.115887 13.884 16.2459 8.12521
24 1 2 0.115887 22.648 4.84583 6.7889
25 1 2 0.115889 22.648 16.2459 8.12521
26 1 2 0.115889 13.884 4.84583 6.7889
27 1 2 0.115887 15.5206 3.90092 8.12521
28 1 2 0.115887 21.0114 17.1908 6.7889
29 1 2 0.115889 21.0114 8.96083 0.969417
30 1 2 0.115889 15.5206 12.1309 13.9447
31 1 2 0.115887 13.884 13.0758 12.6084
32 1 2 0.115887 22.648 8.01592 2.30572
33 1 3 0.671939 27.399 18.7442 13.2542
34 1 3 0.671939 9.13299 2.34751 1.65994
35 1 3 0.671939 27.399 12.8934 9.117
36 1 3 0.671939 9.13299 8.19836 5.79712
37 1 3 0.67194 24.8655 14.3561 13.2542
38 1 3 0.67194 11.6665 6.73565 1.65994
39 1 3 0.67194 29.9325 17.2815 9.117
40 1 3 0.67194 6.5995 3.81022 5.79712
41 1 3 0.67194 24.8655 17.2815 9.117
42 1 3 0.67194 11.6665 3.81022 5.79712
43 1 3 0.67194 29.9325 14.3561 13.2542
44 1 3 0.67194 6.5995 6.73565 1.65994
45 1 3 -0.11508 27.399 19.957 14.1117
46 1 3 -0.11508 9.13299 1.13474 0.802379
47 1 3 -0.11508 27.399 11.6806 8.25944
48 1 3 -0.11508 9.13299 9.41113 6.65468
49 1 3 -0.11508 23.8152 13.7497 14.1117
50 1 3 -0.11508 12.7168 7.34203 0.802379
51 1 3 -0.11508 30.9828 17.8879 8.25944
52 1 3 -0.11508 5.54921 3.20384 6.65468
53 1 3 -0.11508 23.8152 17.8879 8.25944
54 1 3 -0.11508 12.7168 3.20384 6.65468
55 1 3 -0.11508 30.9828 13.7497 14.1117
56 1 3 -0.11508 5.54921 7.34203 0.802379
57 1 3 -0.0559 18.266 5.39949 13.5316
58 1 3 -0.0559 18.266 15.6923 1.38254
59 1 3 -0.055903 18.266 14.5575 0.580159
60 1 3 -0.055903 18.266 6.53422 14.334
61 1 3 -0.0559 26.1971 11.1132 7.85825
62 1 3 -0.0559 10.3349 9.9785 7.05587
63 1 3 -0.055903 10.3349 11.1132 7.85825
64 1 3 -0.055903 26.1971 9.9785 7.05587
65 1 3 -0.0559 14.7918 8.54005 0.580159
66 1 3 -0.0559 21.7402 12.5517 14.334
67 1 3 -0.055903 22.7229 13.1191 13.5316
68 1 3 -0.055903 13.8091 7.97268 1.38254
69 1 3 -0.0559 21.7402 3.39366 7.85825
70 1 3 -0.0559 14.7918 17.6981 7.05587
71 1 3 -0.055903 13.8091 17.1307 7.85825
72 1 3 -0.055903 22.7229 3.96103 7.05587
73 1 3 -0.055901 22.7229 17.1307 7.85825
74 1 3 -0.055901 13.8091 3.96103 7.05587
75 1 3 -0.055903 14.7918 3.39366 7.85825
76 1 3 -0.055903 21.7402 17.6981 7.05587
77 1 3 -0.0559 21.7402 8.54005 0.580159
78 1 3 -0.0559 14.7918 12.5517 14.334
79 1 3 -0.055903 13.8091 13.1191 13.5316
80 1 3 -0.055903 22.7229 7.97268 1.38254
81 1 4 -1.26215 27.399 15.8188 11.1856
82 1 4 -1.26215 9.13299 5.27293 3.72853
83 1 4 -0.60118 27.399 18.9383 11.9641
84 1 4 -0.60118 9.13299 2.15347 2.95001
85 1 4 -0.601179 27.399 17.5926 13.8671
86 1 4 -0.601179 9.13299 3.49912 1.04697
87 1 4 -0.601179 26.2336 13.3722 9.45555
88 1 4 -0.601179 10.2984 7.71958 5.45857
89 1 4 -0.60118 28.5643 13.3722 9.45555
90 1 4 -0.60118 7.96762 7.71958 5.45857
91 1 4 -0.60118 25.8628 14.9319 13.8671
92 1 4 -0.60118 10.6692 6.15984 1.04697
93 1 4 -0.601179 24.6974 14.2591 11.9641
94 1 4 -0.601179 11.8345 6.83267 2.95001
95 1 4 -0.60118 28.9351 18.0514 9.45555
96 1 4 -0.60118 7.59682 3.04037 5.45857
97 1 4 -0.601179 30.1005 16.0329 9.45555
98 1 4 -0.601179 6.43145 5.05885 5.45857
99 1 4 -0.601179 24.6974 16.0329 9.45555
100 1 4 -0.601179 11.8345 5.05885 5.45857
101 1 4 -0.60118 25.8628 18.0514 9.45555
102 1 4 -0.60118 10.6692 3.04037 5.45857
103 1 4 -0.60118 28.9351 14.9319 13.8671
104 1 4 -0.60118 7.59682 6.15984 1.04697
105 1 4 -0.60118 30.1005 14.2591 11.9641
106 1 4 -0.60118 6.43145 6.83267 2.95001
5432 1777 5 -0.35 26.6799 15.4348 7.19436
5433 1777 6 0.7 26.1635 14.587 6.59418
5434 1777 5 -0.35 25.647 13.7393 5.994
5576 1825 5 -0.35 7.81792 4.42917 10.1912
5577 1825 6 0.7 7.10397 5.04774 9.51796
5578 1825 5 -0.35 24.656 5.6663 8.84472
5597 1832 5 -0.35 17.5458 10.0136 12.8155
5598 1832 6 0.7 16.7427 9.42535 13.4111
5599 1832 5 -0.35 15.9397 8.8371 14.0066
5606 1835 5 -0.35 30.8628 18.4859 14.7286
5607 1835 6 0.7 30.4804 17.9683 13.7634
5608 1835 5 -0.35 30.0981 17.4507 12.7982
5618 1839 5 -0.35 14.0427 14.4898 0.394525
5619 1839 6 0.7 13.9287 13.3756 0.0927556
5620 1839 5 -0.35 22.9477 17.5343 14.7051
5660 1853 5 -0.35 23.8827 12.8931 3.07521
5661 1853 6 0.7 23.6777 12.4475 4.12641
5662 1853 5 -0.35 23.4727 12.0019 5.17761
5699 1866 5 -0.35 15.6007 13.5063 4.56694
5700 1866 6 0.7 16.7206 13.5602 4.26921
5701 1866 5 -0.35 17.8404 13.6141 3.97147
5702 1867 5 -0.35 9.8515 8.52255 10.2693
5703 1867 6 0.7 9.55761 7.72447 9.48048
5704 1867 5 -0.35 9.26371 6.92639 8.69162
5720 1873 5 -0.35 6.75091 9.8151 2.42938
5721 1873 6 0.7 7.54686 10.2026 1.67977
5722 1873 5 -0.35 8.34281 10.5901 0.930166
5723 1874 5 -0.35 17.6389 10.3605 9.01843
5724 1874 6 0.7 18.5174 9.79573 9.52324
5725 1874 5 -0.35 19.3959 9.23096 10.028
5729 1876 5 -0.35 22.7157 8.7575 9.73155
5730 1876 6 0.7 22.6239 9.018 8.60491
5731 1876 5 -0.35 22.5321 9.2785 7.47827
5738 1879 5 -0.35 27.4084 9.84308 14.8687
5739 1879 6 0.7 27.396 10.7156 14.1043
5740 1879 5 -0.35 27.3837 11.5881 13.34
5741 1880 5 -0.35 17.7917 3.93483 5.94002
5742 1880 6 0.7 17.5154 4.81877 6.6385
5743 1880 5 -0.35 17.239 5.70271 7.33698
5744 1881 5 -0.35 5.08313 2.37312 0.85574
5745 1881 6 0.7 4.28897 2.69324 0.0731614
5746 1881 5 -0.35 12.6278 8.2863 14.2047
ITEM: TIMESTEP
9000
ITEM: NUMBER OF ATOMS
160
ITEM: BOX BOUNDS xy xz yz pp pp pp
0.0000000000000000e+00 3.6531964750000000e+01 9.1329911900000003e+00
0.0000000000000000e+00 2.1091739680000000e+01 9.1329911900000003e+00
0.0000000000000000e+00 1.4914112149999999e+01 5.2729349200000000e+00
ITEM: ATOMS id mol type q x y z
1 1 1 1.10383 27.399 17.6496 10.5383
2 1 1 1.10383 9.13299 3.44217 4.3758
3 1 1 1.10383 27.399 15.8188 13.1274
4 1 1 1.10383 9.13299 5.27293 1.78671
5 1 1 1.10383 25.8135 14.9034 10.5383
6 1 1 1.10383 10.7185 6.18832 4.3758
7 1 1 1.10383 28.9845 14.9034 10.5383
8 1 1 1.10383 7.5475 6.18832 4.3758
9 1 2 0.115889 18.266 5.48596 12.6084
10 1 2 0.115889 18.266 15.6058 2.30572
11 1 2 0.115888 18.266 13.716 0.969417
12 1 2 0.115888 18.266 7.37578 13.9447
13 1 2 0.11589 25.3934 11.4908 8.12521
14 1 2 0.11589 11.1386 9.60096 6.7889
15 1 2 0.115888 11.1386 11.4908 8.12521
16 1 2 0.115888 25.3934 9.60096 6.7889
17 1 2 0.115889 15.5206 8.96083 0.969417
18 1 2 0.115889 21.0114 12.1309 13.9447
19 1 2 0.115888 22.648 13.0758 12.6084
20 1 2 0.115888 13.884 8.01592 2.30572
21 1 2 0.115889 21.0114 3.90092 8.12521
22 1 2 0.115889 15.5206 17.1908 6.7889
23 1 2 0.115887 13.884 16.2459 8.12521
24 1 2 0.115887 22.648 4.84583 6.7889
25 1 2 0.115889 22.648 16.2459 8.12521
26 1 2 0.115889 13.884 4.84583 6.7889
27 1 2 0.115887 15.5206 3.90092 8.12521
28 1 2 0.115887 21.0114 17.1908 6.7889
29 1 2 0.115889 21.0114 8.96083 0.969417
30 1 2 0.115889 15.5206 12.1309 13.9447
31 1 2 0.115887 13.884 13.0758 12.6084
32 1 2 0.115887 22.648 8.01592 2.30572
33 1 3 0.671939 27.399 18.7442 13.2542
34 1 3 0.671939 9.13299 2.34751 1.65994
35 1 3 0.671939 27.399 12.8934 9.117
36 1 3 0.671939 9.13299 8.19836 5.79712
37 1 3 0.67194 24.8655 14.3561 13.2542
38 1 3 0.67194 11.6665 6.73565 1.65994
39 1 3 0.67194 29.9325 17.2815 9.117
40 1 3 0.67194 6.5995 3.81022 5.79712
41 1 3 0.67194 24.8655 17.2815 9.117
42 1 3 0.67194 11.6665 3.81022 5.79712
43 1 3 0.67194 29.9325 14.3561 13.2542
44 1 3 0.67194 6.5995 6.73565 1.65994
45 1 3 -0.11508 27.399 19.957 14.1117
46 1 3 -0.11508 9.13299 1.13474 0.802379
47 1 3 -0.11508 27.399 11.6806 8.25944
48 1 3 -0.11508 9.13299 9.41113 6.65468
49 1 3 -0.11508 23.8152 13.7497 14.1117
50 1 3 -0.11508 12.7168 7.34203 0.802379
51 1 3 -0.11508 30.9828 17.8879 8.25944
52 1 3 -0.11508 5.54921 3.20384 6.65468
53 1 3 -0.11508 23.8152 17.8879 8.25944
54 1 3 -0.11508 12.7168 3.20384 6.65468
55 1 3 -0.11508 30.9828 13.7497 14.1117
56 1 3 -0.11508 5.54921 7.34203 0.802379
57 1 3 -0.0559 18.266 5.39949 13.5316
58 1 3 -0.0559 18.266 15.6923 1.38254
59 1 3 -0.055903 18.266 14.5575 0.580159
60 1 3 -0.055903 18.266 6.53422 14.334
61 1 3 -0.0559 26.1971 11.1132 7.85825
62 1 3 -0.0559 10.3349 9.9785 7.05587
63 1 3 -0.055903 10.3349 11.1132 7.85825
64 1 3 -0.055903 26.1971 9.9785 7.05587
65 1 3 -0.0559 14.7918 8.54005 0.580159
66 1 3 -0.0559 21.7402 12.5517 14.334
67 1 3 -0.055903 22.7229 13.1191 13.5316
68 1 3 -0.055903 13.8091 7.97268 1.38254
69 1 3 -0.0559 21.7402 3.39366 7.85825
70 1 3 -0.0559 14.7918 17.6981 7.05587
71 1 3 -0.055903 13.8091 17.1307 7.85825
72 1 3 -0.055903 22.7229 3.96103 7.05587
73 1 3 -0.055901 22.7229 17.1307 7.85825
74 1 3 -0.055901 13.8091 3.96103 7.05587
75 1 3 -0.055903 14.7918 3.39366 7.85825
76 1 3 -0.055903 21.7402 17.6981 7.05587
77 1 3 -0.0559 21.7402 8.54005 0.580159
78 1 3 -0.0559 14.7918 12.5517 14.334
79 1 3 -0.055903 13.8091 13.1191 13.5316
80 1 3 -0.055903 22.7229 7.97268 1.38254
81 1 4 -1.26215 27.399 15.8188 11.1856
82 1 4 -1.26215 9.13299 5.27293 3.72853
83 1 4 -0.60118 27.399 18.9383 11.9641
84 1 4 -0.60118 9.13299 2.15347 2.95001
85 1 4 -0.601179 27.399 17.5926 13.8671
86 1 4 -0.601179 9.13299 3.49912 1.04697
87 1 4 -0.601179 26.2336 13.3722 9.45555
88 1 4 -0.601179 10.2984 7.71958 5.45857
89 1 4 -0.60118 28.5643 13.3722 9.45555
90 1 4 -0.60118 7.96762 7.71958 5.45857
91 1 4 -0.60118 25.8628 14.9319 13.8671
92 1 4 -0.60118 10.6692 6.15984 1.04697
93 1 4 -0.601179 24.6974 14.2591 11.9641
94 1 4 -0.601179 11.8345 6.83267 2.95001
95 1 4 -0.60118 28.9351 18.0514 9.45555
96 1 4 -0.60118 7.59682 3.04037 5.45857
97 1 4 -0.601179 30.1005 16.0329 9.45555
98 1 4 -0.601179 6.43145 5.05885 5.45857
99 1 4 -0.601179 24.6974 16.0329 9.45555
100 1 4 -0.601179 11.8345 5.05885 5.45857
101 1 4 -0.60118 25.8628 18.0514 9.45555
102 1 4 -0.60118 10.6692 3.04037 5.45857
103 1 4 -0.60118 28.9351 14.9319 13.8671
104 1 4 -0.60118 7.59682 6.15984 1.04697
105 1 4 -0.60118 30.1005 14.2591 11.9641
106 1 4 -0.60118 6.43145 6.83267 2.95001
5789 1896 5 -0.35 24.8357 10.8748 11.7193
5790 1896 6 0.7 24.1107 11.449 11.0191
5791 1896 5 -0.35 23.3857 12.0232 10.3188
6137 2012 5 -0.35 16.6916 16.443 12.026
6138 2012 6 0.7 16.398 17.2339 11.2298
6139 2012 5 -0.35 16.1045 18.0248 10.4336
6293 2064 5 -0.35 24.4327 17.6485 12.0199
6294 2064 6 0.7 24.0897 18.732 12.2526
6295 2064 5 -0.35 23.7467 19.8154 12.4852
6413 2104 5 -0.35 7.4645 5.85995 8.37647
6414 2104 6 0.7 24.8067 6.44427 7.98824
6415 2104 5 -0.35 23.8828 7.0286 7.60002
6443 2114 5 -0.35 14.7432 13.7639 2.3951
6444 2114 6 0.7 14.7081 13.0751 1.46244
6445 2114 5 -0.35 14.6731 12.3862 0.529776
6446 2115 5 -0.35 11.8422 12.3858 5.15894
6447 2115 6 0.7 12.3155 11.8962 4.21981
6448 2115 5 -0.35 12.7888 11.4067 3.28069
6461 2120 5 -0.35 18.7804 18.0732 9.16463
6462 2120 6 0.7 18.3855 17.3155 8.38008
6463 2120 5 -0.35 17.9907 16.5578 7.59553
6464 2121 5 -0.35 21.6976 4.41199 11.6442
6465 2121 6 0.7 31.181 19.3658 12.3332
6466 2121 5 -0.35 31.5314 18.5009 13.0222
6494 2131 5 -0.35 10.3204 5.08651 10.5055
6495 2131 6 0.7 10.3808 5.2566 9.35964
6496 2131 5 -0.35 10.4412 5.42669 8.21377
6497 2132 5 -0.35 10.0228 9.95979 0.262911
6498 2132 6 0.7 19.7747 15.5919 14.2641
6499 2132 5 -0.35 20.3937 15.951 13.3511
6518 2139 5 -0.35 18.8004 6.53663 10.4272
6519 2139 6 0.7 19.6706 6.81948 9.71427
6520 2139 5 -0.35 20.5409 7.10233 9.00136
6530 2143 5 -0.35 6.09206 1.16607 0.221932
6531 2143 6 0.7 15.0495 6.81922 14.0543
6532 2143 5 -0.35 14.8739 7.19944 12.9725
6551 2150 5 -0.35 17.1374 9.89108 12.7652
6552 2150 6 0.7 16.5083 9.54451 11.8543
6553 2150 5 -0.35 15.8791 9.19793 10.9434
6554 2151 5 -0.35 11.8976 9.70429 12.8509
6555 2151 6 0.7 12.043 10.1133 11.7752
6556 2151 5 -0.35 12.1885 10.5224 10.6995
6557 2152 5 -0.35 12.9011 1.38425 1.25669
6558 2152 6 0.7 12.6562 1.30616 0.125546
6559 2152 5 -0.35 21.5442 6.50101 13.9085
6575 2158 5 -0.35 12.4652 7.70123 7.8523
6576 2158 6 0.7 12.914 7.64375 6.78419
6577 2158 5 -0.35 13.3628 7.58627 5.71608
6584 2161 5 -0.35 26.9857 15.5441 7.51843
6585 2161 6 0.7 26.5152 15.3782 6.47119
6586 2161 5 -0.35 26.0447 15.2123 5.42395
6587 2162 5 -0.35 23.6128 13.2377 6.42905
6588 2162 6 0.7 23.4314 13.2512 5.2834
6589 2162 5 -0.35 23.2501 13.2647 4.13774
ITEM: TIMESTEP
10000
ITEM: NUMBER OF ATOMS
163
ITEM: BOX BOUNDS xy xz yz pp pp pp
0.0000000000000000e+00 3.6531964750000000e+01 9.1329911900000003e+00
0.0000000000000000e+00 2.1091739680000000e+01 9.1329911900000003e+00
0.0000000000000000e+00 1.4914112149999999e+01 5.2729349200000000e+00
ITEM: ATOMS id mol type q x y z
1 1 1 1.10383 27.399 17.6496 10.5383
2 1 1 1.10383 9.13299 3.44217 4.3758
3 1 1 1.10383 27.399 15.8188 13.1274
4 1 1 1.10383 9.13299 5.27293 1.78671
5 1 1 1.10383 25.8135 14.9034 10.5383
6 1 1 1.10383 10.7185 6.18832 4.3758
7 1 1 1.10383 28.9845 14.9034 10.5383
8 1 1 1.10383 7.5475 6.18832 4.3758
9 1 2 0.115889 18.266 5.48596 12.6084
10 1 2 0.115889 18.266 15.6058 2.30572
11 1 2 0.115888 18.266 13.716 0.969417
12 1 2 0.115888 18.266 7.37578 13.9447
13 1 2 0.11589 25.3934 11.4908 8.12521
14 1 2 0.11589 11.1386 9.60096 6.7889
15 1 2 0.115888 11.1386 11.4908 8.12521
16 1 2 0.115888 25.3934 9.60096 6.7889
17 1 2 0.115889 15.5206 8.96083 0.969417
18 1 2 0.115889 21.0114 12.1309 13.9447
19 1 2 0.115888 22.648 13.0758 12.6084
20 1 2 0.115888 13.884 8.01592 2.30572
21 1 2 0.115889 21.0114 3.90092 8.12521
22 1 2 0.115889 15.5206 17.1908 6.7889
23 1 2 0.115887 13.884 16.2459 8.12521
24 1 2 0.115887 22.648 4.84583 6.7889
25 1 2 0.115889 22.648 16.2459 8.12521
26 1 2 0.115889 13.884 4.84583 6.7889
27 1 2 0.115887 15.5206 3.90092 8.12521
28 1 2 0.115887 21.0114 17.1908 6.7889
29 1 2 0.115889 21.0114 8.96083 0.969417
30 1 2 0.115889 15.5206 12.1309 13.9447
31 1 2 0.115887 13.884 13.0758 12.6084
32 1 2 0.115887 22.648 8.01592 2.30572
33 1 3 0.671939 27.399 18.7442 13.2542
34 1 3 0.671939 9.13299 2.34751 1.65994
35 1 3 0.671939 27.399 12.8934 9.117
36 1 3 0.671939 9.13299 8.19836 5.79712
37 1 3 0.67194 24.8655 14.3561 13.2542
38 1 3 0.67194 11.6665 6.73565 1.65994
39 1 3 0.67194 29.9325 17.2815 9.117
40 1 3 0.67194 6.5995 3.81022 5.79712
41 1 3 0.67194 24.8655 17.2815 9.117
42 1 3 0.67194 11.6665 3.81022 5.79712
43 1 3 0.67194 29.9325 14.3561 13.2542
44 1 3 0.67194 6.5995 6.73565 1.65994
45 1 3 -0.11508 27.399 19.957 14.1117
46 1 3 -0.11508 9.13299 1.13474 0.802379
47 1 3 -0.11508 27.399 11.6806 8.25944
48 1 3 -0.11508 9.13299 9.41113 6.65468
49 1 3 -0.11508 23.8152 13.7497 14.1117
50 1 3 -0.11508 12.7168 7.34203 0.802379
51 1 3 -0.11508 30.9828 17.8879 8.25944
52 1 3 -0.11508 5.54921 3.20384 6.65468
53 1 3 -0.11508 23.8152 17.8879 8.25944
54 1 3 -0.11508 12.7168 3.20384 6.65468
55 1 3 -0.11508 30.9828 13.7497 14.1117
56 1 3 -0.11508 5.54921 7.34203 0.802379
57 1 3 -0.0559 18.266 5.39949 13.5316
58 1 3 -0.0559 18.266 15.6923 1.38254
59 1 3 -0.055903 18.266 14.5575 0.580159
60 1 3 -0.055903 18.266 6.53422 14.334
61 1 3 -0.0559 26.1971 11.1132 7.85825
62 1 3 -0.0559 10.3349 9.9785 7.05587
63 1 3 -0.055903 10.3349 11.1132 7.85825
64 1 3 -0.055903 26.1971 9.9785 7.05587
65 1 3 -0.0559 14.7918 8.54005 0.580159
66 1 3 -0.0559 21.7402 12.5517 14.334
67 1 3 -0.055903 22.7229 13.1191 13.5316
68 1 3 -0.055903 13.8091 7.97268 1.38254
69 1 3 -0.0559 21.7402 3.39366 7.85825
70 1 3 -0.0559 14.7918 17.6981 7.05587
71 1 3 -0.055903 13.8091 17.1307 7.85825
72 1 3 -0.055903 22.7229 3.96103 7.05587
73 1 3 -0.055901 22.7229 17.1307 7.85825
74 1 3 -0.055901 13.8091 3.96103 7.05587
75 1 3 -0.055903 14.7918 3.39366 7.85825
76 1 3 -0.055903 21.7402 17.6981 7.05587
77 1 3 -0.0559 21.7402 8.54005 0.580159
78 1 3 -0.0559 14.7918 12.5517 14.334
79 1 3 -0.055903 13.8091 13.1191 13.5316
80 1 3 -0.055903 22.7229 7.97268 1.38254
81 1 4 -1.26215 27.399 15.8188 11.1856
82 1 4 -1.26215 9.13299 5.27293 3.72853
83 1 4 -0.60118 27.399 18.9383 11.9641
84 1 4 -0.60118 9.13299 2.15347 2.95001
85 1 4 -0.601179 27.399 17.5926 13.8671
86 1 4 -0.601179 9.13299 3.49912 1.04697
87 1 4 -0.601179 26.2336 13.3722 9.45555
88 1 4 -0.601179 10.2984 7.71958 5.45857
89 1 4 -0.60118 28.5643 13.3722 9.45555
90 1 4 -0.60118 7.96762 7.71958 5.45857
91 1 4 -0.60118 25.8628 14.9319 13.8671
92 1 4 -0.60118 10.6692 6.15984 1.04697
93 1 4 -0.601179 24.6974 14.2591 11.9641
94 1 4 -0.601179 11.8345 6.83267 2.95001
95 1 4 -0.60118 28.9351 18.0514 9.45555
96 1 4 -0.60118 7.59682 3.04037 5.45857
97 1 4 -0.601179 30.1005 16.0329 9.45555
98 1 4 -0.601179 6.43145 5.05885 5.45857
99 1 4 -0.601179 24.6974 16.0329 9.45555
100 1 4 -0.601179 11.8345 5.05885 5.45857
101 1 4 -0.60118 25.8628 18.0514 9.45555
102 1 4 -0.60118 10.6692 3.04037 5.45857
103 1 4 -0.60118 28.9351 14.9319 13.8671
104 1 4 -0.60118 7.59682 6.15984 1.04697
105 1 4 -0.60118 30.1005 14.2591 11.9641
106 1 4 -0.60118 6.43145 6.83267 2.95001
7151 2350 5 -0.35 20.8649 15.9029 14.2981
7152 2350 6 0.7 21.4031 15.939 13.2711
7153 2350 5 -0.35 21.9413 15.9752 12.2442
7223 2374 5 -0.35 8.47004 8.97651 1.58576
7224 2374 6 0.7 8.46779 9.05835 0.428654
7225 2374 5 -0.35 17.5985 14.4131 14.1857
7328 2409 5 -0.35 16.8806 11.0697 2.4533
7329 2409 6 0.7 15.897 11.6274 2.19444
7330 2409 5 -0.35 14.9133 12.1851 1.93558
7358 2419 5 -0.35 19.5599 6.19142 9.67484
7359 2419 6 0.7 18.8695 5.70787 8.87784
7360 2419 5 -0.35 18.1792 5.22432 8.08085
7385 2428 5 -0.35 20.9248 12.4537 10.2054
7386 2428 6 0.7 20.7591 13.4858 9.70251
7387 2428 5 -0.35 20.5935 14.5179 9.19965
7388 2429 5 -0.35 17.7857 15.6203 7.20302
7389 2429 6 0.7 17.5884 15.3075 6.10352
7390 2429 5 -0.35 17.3912 14.9948 5.00402
7439 2446 5 -0.35 11.824 10.4111 13.1041
7440 2446 6 0.7 11.8921 9.7671 12.1417
7441 2446 5 -0.35 11.9601 9.12307 11.1794
7454 2451 5 -0.35 19.2877 2.62649 6.04993
7455 2451 6 0.7 27.568 17.6618 6.11754
7456 2451 5 -0.35 26.7153 16.8782 6.18515
7457 2452 5 -0.35 30.8273 18.7317 14.5305
7458 2452 6 0.7 30.8121 18.6954 13.3711
7459 2452 5 -0.35 30.7969 18.659 12.2118
7481 2460 5 -0.35 14.9984 10.7757 7.10752
7482 2460 6 0.7 15.4611 11.8363 7.02563
7483 2460 5 -0.35 15.9237 12.8969 6.94373
7484 2461 5 -0.35 15.9131 12.2687 10.6182
7485 2461 6 0.7 16.9339 12.8043 10.4893
7486 2461 5 -0.35 17.9548 13.3399 10.3603
7490 2463 5 -0.35 14.4579 15.9877 2.11829
7491 2463 6 0.7 14.519 15.598 1.02743
7492 2463 5 -0.35 23.7131 20.4813 14.8507
7496 2465 5 -0.35 22.5495 14.6785 2.21299
7497 2465 6 0.7 21.549 14.3991 2.72942
7498 2465 5 -0.35 20.5486 14.1198 3.24585
7499 2466 5 -0.35 24.6412 10.6988 13.3228
7500 2466 6 0.7 24.5281 10.6454 12.1696
7501 2466 5 -0.35 24.415 10.592 11.0164
7511 2470 5 -0.35 4.01996 2.35462 3.34624
7512 2470 6 0.7 3.50881 1.39524 3.7511
7513 2470 5 -0.35 12.1307 16.2547 4.15596
7517 2472 5 -0.35 7.64301 4.11638 8.88451
7518 2472 6 0.7 8.7297 3.71442 8.82851
7519 2472 5 -0.35 9.81639 3.31246 8.77252
7520 2473 5 -0.35 12.3755 4.78647 10.6038
7521 2473 6 0.7 21.2461 19.8282 11.4241
7522 2473 5 -0.35 20.9838 19.0511 12.2444
7523 2474 5 -0.35 16.8734 3.56709 3.76571
7524 2474 6 0.7 17.0189 3.27069 2.65369
7525 2474 5 -0.35 17.1643 2.97429 1.54167
7526 2475 5 -0.35 26.3591 12.9556 3.18716
7527 2475 6 0.7 26.0511 13.7997 2.45347
7528 2475 5 -0.35 25.7432 14.6438 1.71978
ITEM: TIMESTEP
11000
ITEM: NUMBER OF ATOMS
193
ITEM: BOX BOUNDS xy xz yz pp pp pp
0.0000000000000000e+00 3.6531964750000000e+01 9.1329911900000003e+00
0.0000000000000000e+00 2.1091739680000000e+01 9.1329911900000003e+00
0.0000000000000000e+00 1.4914112149999999e+01 5.2729349200000000e+00
ITEM: ATOMS id mol type q x y z
1 1 1 1.10383 27.399 17.6496 10.5383
2 1 1 1.10383 9.13299 3.44217 4.3758
3 1 1 1.10383 27.399 15.8188 13.1274
4 1 1 1.10383 9.13299 5.27293 1.78671
5 1 1 1.10383 25.8135 14.9034 10.5383
6 1 1 1.10383 10.7185 6.18832 4.3758
7 1 1 1.10383 28.9845 14.9034 10.5383
8 1 1 1.10383 7.5475 6.18832 4.3758
9 1 2 0.115889 18.266 5.48596 12.6084
10 1 2 0.115889 18.266 15.6058 2.30572
11 1 2 0.115888 18.266 13.716 0.969417
12 1 2 0.115888 18.266 7.37578 13.9447
13 1 2 0.11589 25.3934 11.4908 8.12521
14 1 2 0.11589 11.1386 9.60096 6.7889
15 1 2 0.115888 11.1386 11.4908 8.12521
16 1 2 0.115888 25.3934 9.60096 6.7889
17 1 2 0.115889 15.5206 8.96083 0.969417
18 1 2 0.115889 21.0114 12.1309 13.9447
19 1 2 0.115888 22.648 13.0758 12.6084
20 1 2 0.115888 13.884 8.01592 2.30572
21 1 2 0.115889 21.0114 3.90092 8.12521
22 1 2 0.115889 15.5206 17.1908 6.7889
23 1 2 0.115887 13.884 16.2459 8.12521
24 1 2 0.115887 22.648 4.84583 6.7889
25 1 2 0.115889 22.648 16.2459 8.12521
26 1 2 0.115889 13.884 4.84583 6.7889
27 1 2 0.115887 15.5206 3.90092 8.12521
28 1 2 0.115887 21.0114 17.1908 6.7889
29 1 2 0.115889 21.0114 8.96083 0.969417
30 1 2 0.115889 15.5206 12.1309 13.9447
31 1 2 0.115887 13.884 13.0758 12.6084
32 1 2 0.115887 22.648 8.01592 2.30572
33 1 3 0.671939 27.399 18.7442 13.2542
34 1 3 0.671939 9.13299 2.34751 1.65994
35 1 3 0.671939 27.399 12.8934 9.117
36 1 3 0.671939 9.13299 8.19836 5.79712
37 1 3 0.67194 24.8655 14.3561 13.2542
38 1 3 0.67194 11.6665 6.73565 1.65994
39 1 3 0.67194 29.9325 17.2815 9.117
40 1 3 0.67194 6.5995 3.81022 5.79712
41 1 3 0.67194 24.8655 17.2815 9.117
42 1 3 0.67194 11.6665 3.81022 5.79712
43 1 3 0.67194 29.9325 14.3561 13.2542
44 1 3 0.67194 6.5995 6.73565 1.65994
45 1 3 -0.11508 27.399 19.957 14.1117
46 1 3 -0.11508 9.13299 1.13474 0.802379
47 1 3 -0.11508 27.399 11.6806 8.25944
48 1 3 -0.11508 9.13299 9.41113 6.65468
49 1 3 -0.11508 23.8152 13.7497 14.1117
50 1 3 -0.11508 12.7168 7.34203 0.802379
51 1 3 -0.11508 30.9828 17.8879 8.25944
52 1 3 -0.11508 5.54921 3.20384 6.65468
53 1 3 -0.11508 23.8152 17.8879 8.25944
54 1 3 -0.11508 12.7168 3.20384 6.65468
55 1 3 -0.11508 30.9828 13.7497 14.1117
56 1 3 -0.11508 5.54921 7.34203 0.802379
57 1 3 -0.0559 18.266 5.39949 13.5316
58 1 3 -0.0559 18.266 15.6923 1.38254
59 1 3 -0.055903 18.266 14.5575 0.580159
60 1 3 -0.055903 18.266 6.53422 14.334
61 1 3 -0.0559 26.1971 11.1132 7.85825
62 1 3 -0.0559 10.3349 9.9785 7.05587
63 1 3 -0.055903 10.3349 11.1132 7.85825
64 1 3 -0.055903 26.1971 9.9785 7.05587
65 1 3 -0.0559 14.7918 8.54005 0.580159
66 1 3 -0.0559 21.7402 12.5517 14.334
67 1 3 -0.055903 22.7229 13.1191 13.5316
68 1 3 -0.055903 13.8091 7.97268 1.38254
69 1 3 -0.0559 21.7402 3.39366 7.85825
70 1 3 -0.0559 14.7918 17.6981 7.05587
71 1 3 -0.055903 13.8091 17.1307 7.85825
72 1 3 -0.055903 22.7229 3.96103 7.05587
73 1 3 -0.055901 22.7229 17.1307 7.85825
74 1 3 -0.055901 13.8091 3.96103 7.05587
75 1 3 -0.055903 14.7918 3.39366 7.85825
76 1 3 -0.055903 21.7402 17.6981 7.05587
77 1 3 -0.0559 21.7402 8.54005 0.580159
78 1 3 -0.0559 14.7918 12.5517 14.334
79 1 3 -0.055903 13.8091 13.1191 13.5316
80 1 3 -0.055903 22.7229 7.97268 1.38254
81 1 4 -1.26215 27.399 15.8188 11.1856
82 1 4 -1.26215 9.13299 5.27293 3.72853
83 1 4 -0.60118 27.399 18.9383 11.9641
84 1 4 -0.60118 9.13299 2.15347 2.95001
85 1 4 -0.601179 27.399 17.5926 13.8671
86 1 4 -0.601179 9.13299 3.49912 1.04697
87 1 4 -0.601179 26.2336 13.3722 9.45555
88 1 4 -0.601179 10.2984 7.71958 5.45857
89 1 4 -0.60118 28.5643 13.3722 9.45555
90 1 4 -0.60118 7.96762 7.71958 5.45857
91 1 4 -0.60118 25.8628 14.9319 13.8671
92 1 4 -0.60118 10.6692 6.15984 1.04697
93 1 4 -0.601179 24.6974 14.2591 11.9641
94 1 4 -0.601179 11.8345 6.83267 2.95001
95 1 4 -0.60118 28.9351 18.0514 9.45555
96 1 4 -0.60118 7.59682 3.04037 5.45857
97 1 4 -0.601179 30.1005 16.0329 9.45555
98 1 4 -0.601179 6.43145 5.05885 5.45857
99 1 4 -0.601179 24.6974 16.0329 9.45555
100 1 4 -0.601179 11.8345 5.05885 5.45857
101 1 4 -0.60118 25.8628 18.0514 9.45555
102 1 4 -0.60118 10.6692 3.04037 5.45857
103 1 4 -0.60118 28.9351 14.9319 13.8671
104 1 4 -0.60118 7.59682 6.15984 1.04697
105 1 4 -0.60118 30.1005 14.2591 11.9641
106 1 4 -0.60118 6.43145 6.83267 2.95001
7151 2350 5 -0.35 9.03668 9.70149 1.22927
7152 2350 6 0.7 9.46091 10.2617 0.306359
7153 2350 5 -0.35 19.0181 16.0949 14.2976
7481 2460 5 -0.35 13.543 12.1188 8.5646
7482 2460 6 0.7 14.0683 12.9072 9.23398
7483 2460 5 -0.35 14.5935 13.6956 9.90336
7703 2534 5 -0.35 28.3458 14.7966 6.69727
7704 2534 6 0.7 11.2049 14.5182 6.74596
7705 2534 5 -0.35 12.33 14.2399 6.79465
7727 2542 5 -0.35 24.1638 13.2335 5.88387
7728 2542 6 0.7 24.4532 14.3568 5.89304
7729 2542 5 -0.35 24.7427 15.4801 5.9022
7778 2559 5 -0.35 20.0065 15.458 4.09179
7779 2559 6 0.7 20.7627 16.3318 3.98964
7780 2559 5 -0.35 12.3859 1.38668 3.8875
7814 2571 5 -0.35 26.8112 12.426 4.35423
7815 2571 6 0.7 9.15571 12.3605 3.37005
7816 2571 5 -0.35 9.76619 12.295 2.38586
7829 2576 5 -0.35 6.39661 3.15713 2.62557
7830 2576 6 0.7 5.61054 2.46088 2.13268
7831 2576 5 -0.35 4.82448 1.76463 1.63978
7883 2594 5 -0.35 20.0712 11.4847 2.02999
7884 2594 6 0.7 20.7482 12.1141 1.32927
7885 2594 5 -0.35 21.4252 12.7436 0.628542
7967 2622 5 -0.35 11.9565 11.7302 5.25254
7968 2622 6 0.7 12.906 11.1544 5.5877
7969 2622 5 -0.35 13.8556 10.5786 5.92286
7973 2624 5 -0.35 23.5137 9.49119 4.90953
7974 2624 6 0.7 23.0995 10.104 4.01593
7975 2624 5 -0.35 22.6852 10.7168 3.12234
7979 2626 5 -0.35 15.9723 8.1961 4.68072
7980 2626 6 0.7 16.9273 8.52277 5.25246
7981 2626 5 -0.35 17.8823 8.84943 5.82421
7997 2632 5 -0.35 29.3214 10.5676 13.0918
7998 2632 6 0.7 11.6334 10.9205 12.15
7999 2632 5 -0.35 12.2114 11.2735 11.2082
8009 2636 5 -0.35 21.3982 8.18205 6.5515
8010 2636 6 0.7 21.278 9.33556 6.52749
8011 2636 5 -0.35 21.1578 10.4891 6.50347
8021 2640 5 -0.35 11.5066 6.06848 8.40387
8022 2640 6 0.7 10.3761 6.30337 8.29277
8023 2640 5 -0.35 9.24559 6.53825 8.18167
8024 2641 5 -0.35 19.5505 4.00068 5.1939
8025 2641 6 0.7 18.6409 4.49155 5.72047
8026 2641 5 -0.35 17.7312 4.98241 6.24704
8042 2647 5 -0.35 23.3562 20.366 13.61
8043 2647 6 0.7 23.8856 19.6298 12.8866
8044 2647 5 -0.35 24.415 18.8936 12.1632
8057 2652 5 -0.35 24.9015 7.85699 9.46935
8058 2652 6 0.7 25.8814 8.19664 9.9889
8059 2652 5 -0.35 26.8614 8.53629 10.5085
8072 2657 5 -0.35 25.6478 11.0507 12.19
8073 2657 6 0.7 26.5248 11.8054 12.2729
8074 2657 5 -0.35 27.4019 12.56 12.3559
8075 2658 5 -0.35 16.6835 6.7842 8.74803
8076 2658 6 0.7 16.3518 6.45841 9.81079
8077 2658 5 -0.35 16.0202 6.13262 10.8736
8078 2659 5 -0.35 21.8393 12.8519 8.9293
8079 2659 6 0.7 21.2883 13.6894 8.34577
8080 2659 5 -0.35 20.7372 14.5269 7.76225
8099 2666 5 -0.35 33.8842 18.2551 14.6514
8100 2666 6 0.7 34.6352 18.9883 14.1576
8101 2666 5 -0.35 17.1203 19.7215 13.6637
8105 2668 5 -0.35 14.7532 9.63702 10.0723
8106 2668 6 0.7 14.0678 9.21893 9.23502
8107 2668 5 -0.35 13.3823 8.80084 8.39778
8111 2670 5 -0.35 28.9319 16.2397 3.96539
8112 2670 6 0.7 19.4586 1.16416 3.14233
8113 2670 5 -0.35 19.1184 1.90742 2.31928
8114 2671 5 -0.35 25.1042 16.9477 3.26914
8115 2671 6 0.7 15.8531 1.07635 2.11637
8116 2671 5 -0.35 15.7349 1.02383 0.963598
8117 2672 5 -0.35 12.7593 1.56733 0.755909
8118 2672 6 0.7 12.9515 0.586197 0.167684
8119 2672 5 -0.35 31.4098 20.6968 14.4936
8120 2673 5 -0.35 19.8931 8.70377 9.67662
8121 2673 6 0.7 20.2943 7.61542 9.68614
8122 2673 5 -0.35 20.6956 6.52707 9.69567
8123 2674 5 -0.35 17.5421 4.65263 1.02058
8124 2674 6 0.7 18.3058 4.91778 1.85249
8125 2674 5 -0.35 19.0695 5.18294 2.6844
8126 2675 5 -0.35 14.917 11.7253 2.49869
8127 2675 6 0.7 15.1997 11.8172 1.37743
8128 2675 5 -0.35 15.4825 11.9091 0.256179
8129 2676 5 -0.35 17.2472 15.4329 8.99471
8130 2676 6 0.7 17.4358 15.1031 7.89868
8131 2676 5 -0.35 17.6244 14.7733 6.80264
ITEM: TIMESTEP
12000
ITEM: NUMBER OF ATOMS
163
ITEM: BOX BOUNDS xy xz yz pp pp pp
0.0000000000000000e+00 3.6531964750000000e+01 9.1329911900000003e+00
0.0000000000000000e+00 2.1091739680000000e+01 9.1329911900000003e+00
0.0000000000000000e+00 1.4914112149999999e+01 5.2729349200000000e+00
ITEM: ATOMS id mol type q x y z
1 1 1 1.10383 27.399 17.6496 10.5383
2 1 1 1.10383 9.13299 3.44217 4.3758
3 1 1 1.10383 27.399 15.8188 13.1274
4 1 1 1.10383 9.13299 5.27293 1.78671
5 1 1 1.10383 25.8135 14.9034 10.5383
6 1 1 1.10383 10.7185 6.18832 4.3758
7 1 1 1.10383 28.9845 14.9034 10.5383
8 1 1 1.10383 7.5475 6.18832 4.3758
9 1 2 0.115889 18.266 5.48596 12.6084
10 1 2 0.115889 18.266 15.6058 2.30572
11 1 2 0.115888 18.266 13.716 0.969417
12 1 2 0.115888 18.266 7.37578 13.9447
13 1 2 0.11589 25.3934 11.4908 8.12521
14 1 2 0.11589 11.1386 9.60096 6.7889
15 1 2 0.115888 11.1386 11.4908 8.12521
16 1 2 0.115888 25.3934 9.60096 6.7889
17 1 2 0.115889 15.5206 8.96083 0.969417
18 1 2 0.115889 21.0114 12.1309 13.9447
19 1 2 0.115888 22.648 13.0758 12.6084
20 1 2 0.115888 13.884 8.01592 2.30572
21 1 2 0.115889 21.0114 3.90092 8.12521
22 1 2 0.115889 15.5206 17.1908 6.7889
23 1 2 0.115887 13.884 16.2459 8.12521
24 1 2 0.115887 22.648 4.84583 6.7889
25 1 2 0.115889 22.648 16.2459 8.12521
26 1 2 0.115889 13.884 4.84583 6.7889
27 1 2 0.115887 15.5206 3.90092 8.12521
28 1 2 0.115887 21.0114 17.1908 6.7889
29 1 2 0.115889 21.0114 8.96083 0.969417
30 1 2 0.115889 15.5206 12.1309 13.9447
31 1 2 0.115887 13.884 13.0758 12.6084
32 1 2 0.115887 22.648 8.01592 2.30572
33 1 3 0.671939 27.399 18.7442 13.2542
34 1 3 0.671939 9.13299 2.34751 1.65994
35 1 3 0.671939 27.399 12.8934 9.117
36 1 3 0.671939 9.13299 8.19836 5.79712
37 1 3 0.67194 24.8655 14.3561 13.2542
38 1 3 0.67194 11.6665 6.73565 1.65994
39 1 3 0.67194 29.9325 17.2815 9.117
40 1 3 0.67194 6.5995 3.81022 5.79712
41 1 3 0.67194 24.8655 17.2815 9.117
42 1 3 0.67194 11.6665 3.81022 5.79712
43 1 3 0.67194 29.9325 14.3561 13.2542
44 1 3 0.67194 6.5995 6.73565 1.65994
45 1 3 -0.11508 27.399 19.957 14.1117
46 1 3 -0.11508 9.13299 1.13474 0.802379
47 1 3 -0.11508 27.399 11.6806 8.25944
48 1 3 -0.11508 9.13299 9.41113 6.65468
49 1 3 -0.11508 23.8152 13.7497 14.1117
50 1 3 -0.11508 12.7168 7.34203 0.802379
51 1 3 -0.11508 30.9828 17.8879 8.25944
52 1 3 -0.11508 5.54921 3.20384 6.65468
53 1 3 -0.11508 23.8152 17.8879 8.25944
54 1 3 -0.11508 12.7168 3.20384 6.65468
55 1 3 -0.11508 30.9828 13.7497 14.1117
56 1 3 -0.11508 5.54921 7.34203 0.802379
57 1 3 -0.0559 18.266 5.39949 13.5316
58 1 3 -0.0559 18.266 15.6923 1.38254
59 1 3 -0.055903 18.266 14.5575 0.580159
60 1 3 -0.055903 18.266 6.53422 14.334
61 1 3 -0.0559 26.1971 11.1132 7.85825
62 1 3 -0.0559 10.3349 9.9785 7.05587
63 1 3 -0.055903 10.3349 11.1132 7.85825
64 1 3 -0.055903 26.1971 9.9785 7.05587
65 1 3 -0.0559 14.7918 8.54005 0.580159
66 1 3 -0.0559 21.7402 12.5517 14.334
67 1 3 -0.055903 22.7229 13.1191 13.5316
68 1 3 -0.055903 13.8091 7.97268 1.38254
69 1 3 -0.0559 21.7402 3.39366 7.85825
70 1 3 -0.0559 14.7918 17.6981 7.05587
71 1 3 -0.055903 13.8091 17.1307 7.85825
72 1 3 -0.055903 22.7229 3.96103 7.05587
73 1 3 -0.055901 22.7229 17.1307 7.85825
74 1 3 -0.055901 13.8091 3.96103 7.05587
75 1 3 -0.055903 14.7918 3.39366 7.85825
76 1 3 -0.055903 21.7402 17.6981 7.05587
77 1 3 -0.0559 21.7402 8.54005 0.580159
78 1 3 -0.0559 14.7918 12.5517 14.334
79 1 3 -0.055903 13.8091 13.1191 13.5316
80 1 3 -0.055903 22.7229 7.97268 1.38254
81 1 4 -1.26215 27.399 15.8188 11.1856
82 1 4 -1.26215 9.13299 5.27293 3.72853
83 1 4 -0.60118 27.399 18.9383 11.9641
84 1 4 -0.60118 9.13299 2.15347 2.95001
85 1 4 -0.601179 27.399 17.5926 13.8671
86 1 4 -0.601179 9.13299 3.49912 1.04697
87 1 4 -0.601179 26.2336 13.3722 9.45555
88 1 4 -0.601179 10.2984 7.71958 5.45857
89 1 4 -0.60118 28.5643 13.3722 9.45555
90 1 4 -0.60118 7.96762 7.71958 5.45857
91 1 4 -0.60118 25.8628 14.9319 13.8671
92 1 4 -0.60118 10.6692 6.15984 1.04697
93 1 4 -0.601179 24.6974 14.2591 11.9641
94 1 4 -0.601179 11.8345 6.83267 2.95001
95 1 4 -0.60118 28.9351 18.0514 9.45555
96 1 4 -0.60118 7.59682 3.04037 5.45857
97 1 4 -0.601179 30.1005 16.0329 9.45555
98 1 4 -0.601179 6.43145 5.05885 5.45857
99 1 4 -0.601179 24.6974 16.0329 9.45555
100 1 4 -0.601179 11.8345 5.05885 5.45857
101 1 4 -0.60118 25.8628 18.0514 9.45555
102 1 4 -0.60118 10.6692 3.04037 5.45857
103 1 4 -0.60118 28.9351 14.9319 13.8671
104 1 4 -0.60118 7.59682 6.15984 1.04697
105 1 4 -0.60118 30.1005 14.2591 11.9641
106 1 4 -0.60118 6.43145 6.83267 2.95001
8303 2734 5 -0.35 16.9612 15.1535 5.61598
8304 2734 6 0.7 16.1216 15.4267 4.8636
8305 2734 5 -0.35 15.282 15.6999 4.11123
8318 2739 5 -0.35 28.749 14.7511 6.72639
8319 2739 6 0.7 11.6021 14.7668 6.42158
8320 2739 5 -0.35 12.7213 14.7825 6.11678
8321 2740 5 -0.35 21.466 6.47855 10.6877
8322 2740 6 0.7 20.5205 6.46446 10.0159
8323 2740 5 -0.35 19.5749 6.45037 9.34401
8342 2747 5 -0.35 5.84861 3.55946 2.41641
8343 2747 6 0.7 5.11891 2.91286 1.78788
8344 2747 5 -0.35 4.38921 2.26626 1.15936
8486 2795 5 -0.35 28.0721 11.659 11.8767
8487 2795 6 0.7 29.1401 11.208 11.8361
8488 2795 5 -0.35 11.9421 10.757 11.7955
8546 2815 5 -0.35 14.5862 6.69241 4.56413
8547 2815 6 0.7 14.534 5.8144 3.80783
8548 2815 5 -0.35 14.4817 4.9364 3.05154
8558 2819 5 -0.35 11.0745 11.7112 3.19491
8559 2819 6 0.7 11.111 11.2732 2.12139
8560 2819 5 -0.35 11.1476 10.8352 1.04788
8561 2820 5 -0.35 24.2923 15.2621 5.70676
8562 2820 6 0.7 24.7321 14.1888 5.717
8563 2820 5 -0.35 25.172 13.1155 5.72724
8567 2822 5 -0.35 20.1254 2.02977 5.59847
8568 2822 6 0.7 19.3787 2.51922 4.85791
8569 2822 5 -0.35 18.632 3.00867 4.11734
8573 2824 5 -0.35 8.96018 5.13831 7.44344
8574 2824 6 0.7 8.83315 4.24623 8.17395
8575 2824 5 -0.35 8.70611 3.35414 8.90446
8585 2828 5 -0.35 24.1793 10.5188 2.71372
8586 2828 6 0.7 7.02679 10.2 2.77822
8587 2828 5 -0.35 8.14028 9.88128 2.84272
8591 2830 5 -0.35 16.8962 6.49043 1.4531
8592 2830 6 0.7 17.0622 6.44357 0.306001
8593 2830 5 -0.35 26.3612 11.6696 14.073
8600 2833 5 -0.35 14.3839 9.45101 7.59368
8601 2833 6 0.7 14.852 9.70926 6.56425
8602 2833 5 -0.35 15.3202 9.96752 5.53483
8603 2834 5 -0.35 15.265 7.5881 13.7164
8604 2834 6 0.7 14.7921 7.07676 12.7888
8605 2834 5 -0.35 14.3192 6.56541 11.8612
8606 2835 5 -0.35 12.0672 15.4412 2.79603
8607 2835 6 0.7 11.4847 15.8434 1.87707
8608 2835 5 -0.35 1.76911 0.4267 0.958099
8609 2836 5 -0.35 20.1258 19.2635 13.3198
8610 2836 6 0.7 19.963 19.4505 12.1866
8611 2836 5 -0.35 19.8002 19.6375 11.0534
8615 2838 5 -0.35 20.3538 10.9348 4.87402
8616 2838 6 0.7 20.0844 12.0378 5.1117
8617 2838 5 -0.35 19.815 13.1408 5.34939
8618 2839 5 -0.35 16.7805 15.5786 11.5707
8619 2839 6 0.7 16.6441 14.5464 11.0592
8620 2839 5 -0.35 16.5077 13.5143 10.5478
8621 2840 5 -0.35 14.6181 12.2581 2.74755
8622 2840 6 0.7 15.7308 11.9569 2.87697
8623 2840 5 -0.35 16.8436 11.6558 3.00639
ITEM: TIMESTEP
13000
ITEM: NUMBER OF ATOMS
217
ITEM: BOX BOUNDS xy xz yz pp pp pp
0.0000000000000000e+00 3.6531964750000000e+01 9.1329911900000003e+00
0.0000000000000000e+00 2.1091739680000000e+01 9.1329911900000003e+00
0.0000000000000000e+00 1.4914112149999999e+01 5.2729349200000000e+00
ITEM: ATOMS id mol type q x y z
1 1 1 1.10383 27.399 17.6496 10.5383
2 1 1 1.10383 9.13299 3.44217 4.3758
3 1 1 1.10383 27.399 15.8188 13.1274
4 1 1 1.10383 9.13299 5.27293 1.78671
5 1 1 1.10383 25.8135 14.9034 10.5383
6 1 1 1.10383 10.7185 6.18832 4.3758
7 1 1 1.10383 28.9845 14.9034 10.5383
8 1 1 1.10383 7.5475 6.18832 4.3758
9 1 2 0.115889 18.266 5.48596 12.6084
10 1 2 0.115889 18.266 15.6058 2.30572
11 1 2 0.115888 18.266 13.716 0.969417
12 1 2 0.115888 18.266 7.37578 13.9447
13 1 2 0.11589 25.3934 11.4908 8.12521
14 1 2 0.11589 11.1386 9.60096 6.7889
15 1 2 0.115888 11.1386 11.4908 8.12521
16 1 2 0.115888 25.3934 9.60096 6.7889
17 1 2 0.115889 15.5206 8.96083 0.969417
18 1 2 0.115889 21.0114 12.1309 13.9447
19 1 2 0.115888 22.648 13.0758 12.6084
20 1 2 0.115888 13.884 8.01592 2.30572
21 1 2 0.115889 21.0114 3.90092 8.12521
22 1 2 0.115889 15.5206 17.1908 6.7889
23 1 2 0.115887 13.884 16.2459 8.12521
24 1 2 0.115887 22.648 4.84583 6.7889
25 1 2 0.115889 22.648 16.2459 8.12521
26 1 2 0.115889 13.884 4.84583 6.7889
27 1 2 0.115887 15.5206 3.90092 8.12521
28 1 2 0.115887 21.0114 17.1908 6.7889
29 1 2 0.115889 21.0114 8.96083 0.969417
30 1 2 0.115889 15.5206 12.1309 13.9447
31 1 2 0.115887 13.884 13.0758 12.6084
32 1 2 0.115887 22.648 8.01592 2.30572
33 1 3 0.671939 27.399 18.7442 13.2542
34 1 3 0.671939 9.13299 2.34751 1.65994
35 1 3 0.671939 27.399 12.8934 9.117
36 1 3 0.671939 9.13299 8.19836 5.79712
37 1 3 0.67194 24.8655 14.3561 13.2542
38 1 3 0.67194 11.6665 6.73565 1.65994
39 1 3 0.67194 29.9325 17.2815 9.117
40 1 3 0.67194 6.5995 3.81022 5.79712
41 1 3 0.67194 24.8655 17.2815 9.117
42 1 3 0.67194 11.6665 3.81022 5.79712
43 1 3 0.67194 29.9325 14.3561 13.2542
44 1 3 0.67194 6.5995 6.73565 1.65994
45 1 3 -0.11508 27.399 19.957 14.1117
46 1 3 -0.11508 9.13299 1.13474 0.802379
47 1 3 -0.11508 27.399 11.6806 8.25944
48 1 3 -0.11508 9.13299 9.41113 6.65468
49 1 3 -0.11508 23.8152 13.7497 14.1117
50 1 3 -0.11508 12.7168 7.34203 0.802379
51 1 3 -0.11508 30.9828 17.8879 8.25944
52 1 3 -0.11508 5.54921 3.20384 6.65468
53 1 3 -0.11508 23.8152 17.8879 8.25944
54 1 3 -0.11508 12.7168 3.20384 6.65468
55 1 3 -0.11508 30.9828 13.7497 14.1117
56 1 3 -0.11508 5.54921 7.34203 0.802379
57 1 3 -0.0559 18.266 5.39949 13.5316
58 1 3 -0.0559 18.266 15.6923 1.38254
59 1 3 -0.055903 18.266 14.5575 0.580159
60 1 3 -0.055903 18.266 6.53422 14.334
61 1 3 -0.0559 26.1971 11.1132 7.85825
62 1 3 -0.0559 10.3349 9.9785 7.05587
63 1 3 -0.055903 10.3349 11.1132 7.85825
64 1 3 -0.055903 26.1971 9.9785 7.05587
65 1 3 -0.0559 14.7918 8.54005 0.580159
66 1 3 -0.0559 21.7402 12.5517 14.334
67 1 3 -0.055903 22.7229 13.1191 13.5316
68 1 3 -0.055903 13.8091 7.97268 1.38254
69 1 3 -0.0559 21.7402 3.39366 7.85825
70 1 3 -0.0559 14.7918 17.6981 7.05587
71 1 3 -0.055903 13.8091 17.1307 7.85825
72 1 3 -0.055903 22.7229 3.96103 7.05587
73 1 3 -0.055901 22.7229 17.1307 7.85825
74 1 3 -0.055901 13.8091 3.96103 7.05587
75 1 3 -0.055903 14.7918 3.39366 7.85825
76 1 3 -0.055903 21.7402 17.6981 7.05587
77 1 3 -0.0559 21.7402 8.54005 0.580159
78 1 3 -0.0559 14.7918 12.5517 14.334
79 1 3 -0.055903 13.8091 13.1191 13.5316
80 1 3 -0.055903 22.7229 7.97268 1.38254
81 1 4 -1.26215 27.399 15.8188 11.1856
82 1 4 -1.26215 9.13299 5.27293 3.72853
83 1 4 -0.60118 27.399 18.9383 11.9641
84 1 4 -0.60118 9.13299 2.15347 2.95001
85 1 4 -0.601179 27.399 17.5926 13.8671
86 1 4 -0.601179 9.13299 3.49912 1.04697
87 1 4 -0.601179 26.2336 13.3722 9.45555
88 1 4 -0.601179 10.2984 7.71958 5.45857
89 1 4 -0.60118 28.5643 13.3722 9.45555
90 1 4 -0.60118 7.96762 7.71958 5.45857
91 1 4 -0.60118 25.8628 14.9319 13.8671
92 1 4 -0.60118 10.6692 6.15984 1.04697
93 1 4 -0.601179 24.6974 14.2591 11.9641
94 1 4 -0.601179 11.8345 6.83267 2.95001
95 1 4 -0.60118 28.9351 18.0514 9.45555
96 1 4 -0.60118 7.59682 3.04037 5.45857
97 1 4 -0.601179 30.1005 16.0329 9.45555
98 1 4 -0.601179 6.43145 5.05885 5.45857
99 1 4 -0.601179 24.6974 16.0329 9.45555
100 1 4 -0.601179 11.8345 5.05885 5.45857
101 1 4 -0.60118 25.8628 18.0514 9.45555
102 1 4 -0.60118 10.6692 3.04037 5.45857
103 1 4 -0.60118 28.9351 14.9319 13.8671
104 1 4 -0.60118 7.59682 6.15984 1.04697
105 1 4 -0.60118 30.1005 14.2591 11.9641
106 1 4 -0.60118 6.43145 6.83267 2.95001
8342 2747 5 -0.35 5.65841 3.66474 2.67311
8343 2747 6 0.7 4.889 2.91205 2.24059
8344 2747 5 -0.35 4.1196 2.15936 1.80807
8546 2815 5 -0.35 15.4072 6.58446 4.82287
8547 2815 6 0.7 14.8322 5.81121 4.17712
8548 2815 5 -0.35 14.2571 5.03796 3.53138
8591 2830 5 -0.35 18.7784 7.35647 2.62688
8592 2830 6 0.7 18.8473 7.15703 1.48624
8593 2830 5 -0.35 18.9163 6.95759 0.345594
8651 2850 5 -0.35 12.3372 7.78385 13.3124
8652 2850 6 0.7 12.3916 6.62987 13.2076
8653 2850 5 -0.35 12.4459 5.4759 13.1029
8783 2894 5 -0.35 10.1326 5.95763 7.55911
8784 2894 6 0.7 11.1891 6.41624 7.69743
8785 2894 5 -0.35 12.2456 6.87485 7.83576
8819 2906 5 -0.35 12.289 10.425 14.6708
8820 2906 6 0.7 29.8203 10.5155 13.7777
8821 2906 5 -0.35 29.0856 10.606 12.8846
8843 2914 5 -0.35 18.6597 2.66631 6.82623
8844 2914 6 0.7 17.9055 2.60976 5.94671
8845 2914 5 -0.35 17.1512 2.55321 5.06719
8864 2921 5 -0.35 15.2273 8.72163 14.3351
8865 2921 6 0.7 16.0426 9.34561 13.7951
8866 2921 5 -0.35 16.8579 9.96959 13.2552
8879 2926 5 -0.35 16.0148 7.53283 11.6286
8880 2926 6 0.7 15.3764 6.82301 10.9696
8881 2926 5 -0.35 14.7381 6.11319 10.3106
8888 2929 5 -0.35 11.7028 15.6764 3.7855
8889 2929 6 0.7 12.0371 16.6422 4.33419
8890 2929 5 -0.35 3.2384 1.78921 4.88288
8939 2946 5 -0.35 12.0111 2.75697 1.82073
8940 2946 6 0.7 12.5731 2.12838 2.61738
8941 2946 5 -0.35 13.135 1.49979 3.41403
8957 2952 5 -0.35 19.8799 4.42145 3.93782
8958 2952 6 0.7 20.5711 5.33726 4.10853
8959 2952 5 -0.35 21.2623 6.25307 4.27924
8963 2954 5 -0.35 13.835 10.6986 11.0509
8964 2954 6 0.7 13.7975 10.3935 9.93235
8965 2954 5 -0.35 13.76 10.0884 8.81382
8969 2956 5 -0.35 21.3755 5.43363 13.2561
8970 2956 6 0.7 21.7682 5.47901 12.1656
8971 2956 5 -0.35 22.1609 5.52439 11.075
8978 2959 5 -0.35 14.8126 1.38416 0.126793
8979 2959 6 0.7 24.264 6.40862 13.9535
8980 2959 5 -0.35 24.5825 6.16014 12.8661
8993 2964 5 -0.35 16.8965 5.00647 0.701482
8994 2964 6 0.7 17.2817 4.02399 0.219919
8995 2964 5 -0.35 26.8 8.31444 14.6525
9002 2967 5 -0.35 7.83036 4.75949 10.623
9003 2967 6 0.7 6.97097 4.03103 10.8994
9004 2967 5 -0.35 33.5106 19.1214 11.1758
9011 2970 5 -0.35 24.6107 11.1631 11.3072
9012 2970 6 0.7 23.8595 11.6544 10.5725
9013 2970 5 -0.35 23.1082 12.1457 9.83777
9023 2974 5 -0.35 32.331 19.0649 13.6676
9024 2974 6 0.7 32.0123 18.028 13.2566
9025 2974 5 -0.35 31.6936 16.9912 12.8456
9026 2975 5 -0.35 15.2536 14.5319 11.0223
9027 2975 6 0.7 14.7724 13.9675 10.1304
9028 2975 5 -0.35 14.2911 13.4031 9.23849
9029 2976 5 -0.35 13.7164 14.1779 5.94137
9030 2976 6 0.7 13.2296 13.1253 5.91529
9031 2976 5 -0.35 12.7427 12.0728 5.88921
9032 2977 5 -0.35 26.7542 16.1363 1.49358
9033 2977 6 0.7 27.4028 16.003 0.541158
9034 2977 5 -0.35 9.78549 5.3238 14.5029
9038 2979 5 -0.35 16.2167 9.89969 6.05375
9039 2979 6 0.7 16.1139 9.53938 4.95593
9040 2979 5 -0.35 16.0112 9.17906 3.8581
9044 2981 5 -0.35 19.6293 6.85315 7.91153
9045 2981 6 0.7 18.8308 6.28205 8.52942
9046 2981 5 -0.35 18.0322 5.71095 9.1473
9050 2983 5 -0.35 27.1532 13.7375 5.65009
9051 2983 6 0.7 26.7386 13.5335 4.58609
9052 2983 5 -0.35 26.3239 13.3295 3.5221
9059 2986 5 -0.35 16.9001 11.0542 10.3152
9060 2986 6 0.7 17.745 10.291 10.5373
9061 2986 5 -0.35 18.5899 9.52785 10.7594
9062 2987 5 -0.35 20.5764 9.39658 6.34735
9063 2987 6 0.7 20.5729 9.39998 5.18736
9064 2987 5 -0.35 20.5694 9.40339 4.02737
9068 2989 5 -0.35 18.1561 18.3346 8.83463
9069 2989 6 0.7 19.189 18.6022 9.28989
9070 2989 5 -0.35 20.2218 18.8697 9.74515
9071 2990 5 -0.35 21.6215 16.6323 13.5274
9072 2990 6 0.7 21.1013 17.1691 14.4145
9073 2990 5 -0.35 11.4482 12.4329 0.387476
9074 2991 5 -0.35 34.9998 18.8134 14.912
9075 2991 6 0.7 17.0904 17.8456 14.3811
9076 2991 5 -0.35 17.447 16.8777 13.8503
9077 2992 5 -0.35 18.798 13.6696 14.3003
9078 2992 6 0.7 18.3031 14.0438 13.3202
9079 2992 5 -0.35 17.8081 14.418 12.3401
9080 2993 5 -0.35 24.154 8.26788 10.0067
9081 2993 6 0.7 23.6606 7.72652 9.10725
9082 2993 5 -0.35 23.1671 7.18516 8.20779
9083 2994 5 -0.35 17.0553 15.3279 7.47952
9084 2994 6 0.7 17.6517 15.5097 6.50136
9085 2994 5 -0.35 18.2481 15.6916 5.52321
9086 2995 5 -0.35 23.7467 14.7417 2.75234
9087 2995 6 0.7 22.7851 14.5715 2.12612
9088 2995 5 -0.35 21.8236 14.4014 1.49989
9089 2996 5 -0.35 10.6252 9.77788 3.55189
9090 2996 6 0.7 11.7346 9.77531 3.8909
9091 2996 5 -0.35 12.8439 9.77274 4.22992
9095 2998 5 -0.35 23.3077 10.0613 4.86255
9096 2998 6 0.7 22.9793 11.0664 4.38554
9097 2998 5 -0.35 22.6509 12.0714 3.90852
9098 2999 5 -0.35 10.5768 9.0148 10.0276
9099 2999 6 0.7 9.88403 8.66271 10.8888
9100 2999 5 -0.35 27.4572 8.31062 11.75
ITEM: TIMESTEP
14000
ITEM: NUMBER OF ATOMS
199
ITEM: BOX BOUNDS xy xz yz pp pp pp
0.0000000000000000e+00 3.6531964750000000e+01 9.1329911900000003e+00
0.0000000000000000e+00 2.1091739680000000e+01 9.1329911900000003e+00
0.0000000000000000e+00 1.4914112149999999e+01 5.2729349200000000e+00
ITEM: ATOMS id mol type q x y z
1 1 1 1.10383 27.399 17.6496 10.5383
2 1 1 1.10383 9.13299 3.44217 4.3758
3 1 1 1.10383 27.399 15.8188 13.1274
4 1 1 1.10383 9.13299 5.27293 1.78671
5 1 1 1.10383 25.8135 14.9034 10.5383
6 1 1 1.10383 10.7185 6.18832 4.3758
7 1 1 1.10383 28.9845 14.9034 10.5383
8 1 1 1.10383 7.5475 6.18832 4.3758
9 1 2 0.115889 18.266 5.48596 12.6084
10 1 2 0.115889 18.266 15.6058 2.30572
11 1 2 0.115888 18.266 13.716 0.969417
12 1 2 0.115888 18.266 7.37578 13.9447
13 1 2 0.11589 25.3934 11.4908 8.12521
14 1 2 0.11589 11.1386 9.60096 6.7889
15 1 2 0.115888 11.1386 11.4908 8.12521
16 1 2 0.115888 25.3934 9.60096 6.7889
17 1 2 0.115889 15.5206 8.96083 0.969417
18 1 2 0.115889 21.0114 12.1309 13.9447
19 1 2 0.115888 22.648 13.0758 12.6084
20 1 2 0.115888 13.884 8.01592 2.30572
21 1 2 0.115889 21.0114 3.90092 8.12521
22 1 2 0.115889 15.5206 17.1908 6.7889
23 1 2 0.115887 13.884 16.2459 8.12521
24 1 2 0.115887 22.648 4.84583 6.7889
25 1 2 0.115889 22.648 16.2459 8.12521
26 1 2 0.115889 13.884 4.84583 6.7889
27 1 2 0.115887 15.5206 3.90092 8.12521
28 1 2 0.115887 21.0114 17.1908 6.7889
29 1 2 0.115889 21.0114 8.96083 0.969417
30 1 2 0.115889 15.5206 12.1309 13.9447
31 1 2 0.115887 13.884 13.0758 12.6084
32 1 2 0.115887 22.648 8.01592 2.30572
33 1 3 0.671939 27.399 18.7442 13.2542
34 1 3 0.671939 9.13299 2.34751 1.65994
35 1 3 0.671939 27.399 12.8934 9.117
36 1 3 0.671939 9.13299 8.19836 5.79712
37 1 3 0.67194 24.8655 14.3561 13.2542
38 1 3 0.67194 11.6665 6.73565 1.65994
39 1 3 0.67194 29.9325 17.2815 9.117
40 1 3 0.67194 6.5995 3.81022 5.79712
41 1 3 0.67194 24.8655 17.2815 9.117
42 1 3 0.67194 11.6665 3.81022 5.79712
43 1 3 0.67194 29.9325 14.3561 13.2542
44 1 3 0.67194 6.5995 6.73565 1.65994
45 1 3 -0.11508 27.399 19.957 14.1117
46 1 3 -0.11508 9.13299 1.13474 0.802379
47 1 3 -0.11508 27.399 11.6806 8.25944
48 1 3 -0.11508 9.13299 9.41113 6.65468
49 1 3 -0.11508 23.8152 13.7497 14.1117
50 1 3 -0.11508 12.7168 7.34203 0.802379
51 1 3 -0.11508 30.9828 17.8879 8.25944
52 1 3 -0.11508 5.54921 3.20384 6.65468
53 1 3 -0.11508 23.8152 17.8879 8.25944
54 1 3 -0.11508 12.7168 3.20384 6.65468
55 1 3 -0.11508 30.9828 13.7497 14.1117
56 1 3 -0.11508 5.54921 7.34203 0.802379
57 1 3 -0.0559 18.266 5.39949 13.5316
58 1 3 -0.0559 18.266 15.6923 1.38254
59 1 3 -0.055903 18.266 14.5575 0.580159
60 1 3 -0.055903 18.266 6.53422 14.334
61 1 3 -0.0559 26.1971 11.1132 7.85825
62 1 3 -0.0559 10.3349 9.9785 7.05587
63 1 3 -0.055903 10.3349 11.1132 7.85825
64 1 3 -0.055903 26.1971 9.9785 7.05587
65 1 3 -0.0559 14.7918 8.54005 0.580159
66 1 3 -0.0559 21.7402 12.5517 14.334
67 1 3 -0.055903 22.7229 13.1191 13.5316
68 1 3 -0.055903 13.8091 7.97268 1.38254
69 1 3 -0.0559 21.7402 3.39366 7.85825
70 1 3 -0.0559 14.7918 17.6981 7.05587
71 1 3 -0.055903 13.8091 17.1307 7.85825
72 1 3 -0.055903 22.7229 3.96103 7.05587
73 1 3 -0.055901 22.7229 17.1307 7.85825
74 1 3 -0.055901 13.8091 3.96103 7.05587
75 1 3 -0.055903 14.7918 3.39366 7.85825
76 1 3 -0.055903 21.7402 17.6981 7.05587
77 1 3 -0.0559 21.7402 8.54005 0.580159
78 1 3 -0.0559 14.7918 12.5517 14.334
79 1 3 -0.055903 13.8091 13.1191 13.5316
80 1 3 -0.055903 22.7229 7.97268 1.38254
81 1 4 -1.26215 27.399 15.8188 11.1856
82 1 4 -1.26215 9.13299 5.27293 3.72853
83 1 4 -0.60118 27.399 18.9383 11.9641
84 1 4 -0.60118 9.13299 2.15347 2.95001
85 1 4 -0.601179 27.399 17.5926 13.8671
86 1 4 -0.601179 9.13299 3.49912 1.04697
87 1 4 -0.601179 26.2336 13.3722 9.45555
88 1 4 -0.601179 10.2984 7.71958 5.45857
89 1 4 -0.60118 28.5643 13.3722 9.45555
90 1 4 -0.60118 7.96762 7.71958 5.45857
91 1 4 -0.60118 25.8628 14.9319 13.8671
92 1 4 -0.60118 10.6692 6.15984 1.04697
93 1 4 -0.601179 24.6974 14.2591 11.9641
94 1 4 -0.601179 11.8345 6.83267 2.95001
95 1 4 -0.60118 28.9351 18.0514 9.45555
96 1 4 -0.60118 7.59682 3.04037 5.45857
97 1 4 -0.601179 30.1005 16.0329 9.45555
98 1 4 -0.601179 6.43145 5.05885 5.45857
99 1 4 -0.601179 24.6974 16.0329 9.45555
100 1 4 -0.601179 11.8345 5.05885 5.45857
101 1 4 -0.60118 25.8628 18.0514 9.45555
102 1 4 -0.60118 10.6692 3.04037 5.45857
103 1 4 -0.60118 28.9351 14.9319 13.8671
104 1 4 -0.60118 7.59682 6.15984 1.04697
105 1 4 -0.60118 30.1005 14.2591 11.9641
106 1 4 -0.60118 6.43145 6.83267 2.95001
8546 2815 5 -0.35 14.8113 5.42892 3.68773
8547 2815 6 0.7 14.1776 4.54181 3.29132
8548 2815 5 -0.35 13.544 3.6547 2.89491
8591 2830 5 -0.35 18.6517 7.88354 2.2698
8592 2830 6 0.7 18.1737 7.57732 1.25822
8593 2830 5 -0.35 17.6956 7.27109 0.246636
8969 2956 5 -0.35 30.4022 19.7498 12.0387
8970 2956 6 0.7 20.6679 4.53066 11.2485
8971 2956 5 -0.35 20.0665 5.13029 10.4583
9089 2996 5 -0.35 11.8988 9.96591 3.59872
9090 2996 6 0.7 12.8207 10.6698 3.586
9091 2996 5 -0.35 13.7427 11.3737 3.57327
9128 3009 5 -0.35 14.9904 15.0927 11.6311
9129 3009 6 0.7 15.3977 15.9828 11.0087
9130 3009 5 -0.35 15.8051 16.873 10.3863
9134 3011 5 -0.35 21.365 15.375 4.56048
9135 3011 6 0.7 21.3752 15.2591 3.40633
9136 3011 5 -0.35 21.3854 15.1432 2.25218
9224 3041 5 -0.35 15.3467 13.6543 1.20184
9225 3041 6 0.7 14.8174 12.8155 0.600254
9226 3041 5 -0.35 23.421 17.2497 14.9128
9233 3044 5 -0.35 26.3357 10.3961 11.5533
9234 3044 6 0.7 26.8962 11.3321 11.9475
9235 3044 5 -0.35 27.4567 12.2681 12.3417
9263 3054 5 -0.35 21.0886 15.6811 11.0701
9264 3054 6 0.7 21.9395 16.3773 11.44
9265 3054 5 -0.35 22.7904 17.0735 11.8099
9335 3078 5 -0.35 7.04071 10.8747 0.715123
9336 3078 6 0.7 16.8885 15.6018 14.8967
9337 3078 5 -0.35 17.6034 15.0559 14.1641
9371 3090 5 -0.35 6.58039 3.663 2.74259
9372 3090 6 0.7 5.44584 3.431 2.675
9373 3090 5 -0.35 4.31129 3.19901 2.60742
9398 3099 5 -0.35 26.9649 15.739 1.79443
9399 3099 6 0.7 17.657 0.975224 1.3451
9400 3099 5 -0.35 17.4822 2.03027 0.89576
9410 3103 5 -0.35 22.8484 12.4778 0.96915
9411 3103 6 0.7 23.328 12.9287 0.0140004
9412 3103 5 -0.35 32.9406 18.6524 13.973
9422 3107 5 -0.35 22.6008 13.6838 9.34301
9423 3107 6 0.7 22.8092 12.5895 9.66676
9424 3107 5 -0.35 23.0176 11.4953 9.99051
9443 3114 5 -0.35 14.0874 13.5427 7.50162
9444 3114 6 0.7 13.8907 12.5683 6.90379
9445 3114 5 -0.35 13.694 11.5938 6.30596
9446 3115 5 -0.35 18.3189 17.2762 8.14552
9447 3115 6 0.7 18.5707 16.2952 7.57999
9448 3115 5 -0.35 18.8224 15.3141 7.01445
9449 3116 5 -0.35 8.44503 5.29933 10.354
9450 3116 6 0.7 8.50324 4.99903 9.23506
9451 3116 5 -0.35 8.56146 4.69873 8.11612
9452 3117 5 -0.35 22.6351 12.2024 6.64209
9453 3117 6 0.7 22.475 12.4975 5.53173
9454 3117 5 -0.35 22.3149 12.7927 4.42138
9458 3119 5 -0.35 20.0033 5.16199 4.39068
9459 3119 6 0.7 20.0087 5.20569 3.23152
9460 3119 5 -0.35 20.0141 5.24939 2.07235
9464 3121 5 -0.35 15.6246 4.94375 0.913476
9465 3121 6 0.7 24.5148 9.77899 14.7811
9466 3121 5 -0.35 24.2719 9.3413 13.7347
9467 3122 5 -0.35 14.204 8.20853 6.24254
9468 3122 6 0.7 15.1959 8.52395 5.73045
9469 3122 5 -0.35 16.1878 8.83937 5.21836
9470 3123 5 -0.35 8.34142 10.6807 3.56152
9471 3123 6 0.7 26.3013 11.5917 4.21119
9472 3123 5 -0.35 25.9951 12.5026 4.86087
9485 3128 5 -0.35 11.3347 13.6285 5.59857
9486 3128 6 0.7 10.7026 13.6814 4.62735
9487 3128 5 -0.35 10.0706 13.7343 3.65612
9491 3130 5 -0.35 16.3113 5.87476 10.4619
9492 3130 6 0.7 16.4657 6.52674 9.51496
9493 3130 5 -0.35 16.6202 7.17873 8.56805
9494 3131 5 -0.35 18.8539 11.6111 3.75006
9495 3131 6 0.7 18.0628 11.3845 2.93243
9496 3131 5 -0.35 17.2718 11.158 2.1148
9497 3132 5 -0.35 22.4988 7.84607 7.85652
9498 3132 6 0.7 22.6271 8.42925 6.86201
9499 3132 5 -0.35 22.7554 9.01243 5.86751
9500 3133 5 -0.35 13.8262 9.17884 14.707
9501 3133 6 0.7 14.3895 9.19112 13.6931
9502 3133 5 -0.35 14.9529 9.2034 12.6791
9503 3134 5 -0.35 14.1615 1.15078 1.00101
9504 3134 6 0.7 13.3938 1.58052 0.244967
9505 3134 5 -0.35 21.7592 7.28319 14.403
9512 3137 5 -0.35 24.4581 19.0301 12.4573
9513 3137 6 0.7 23.6924 19.6365 11.8315
9514 3137 5 -0.35 13.7937 4.4241 11.2057
9518 3139 5 -0.35 17.2596 14.0427 9.05161
9519 3139 6 0.7 18.2559 13.5056 9.3059
9520 3139 5 -0.35 19.2521 12.9685 9.56019
9521 3140 5 -0.35 22.0673 20.4054 14.5802
9522 3140 6 0.7 12.3884 5.4579 14.0432
9523 3140 5 -0.35 11.8426 6.32924 13.5062
ITEM: TIMESTEP
15000
ITEM: NUMBER OF ATOMS
166
ITEM: BOX BOUNDS xy xz yz pp pp pp
0.0000000000000000e+00 3.6531964750000000e+01 9.1329911900000003e+00
0.0000000000000000e+00 2.1091739680000000e+01 9.1329911900000003e+00
0.0000000000000000e+00 1.4914112149999999e+01 5.2729349200000000e+00
ITEM: ATOMS id mol type q x y z
1 1 1 1.10383 27.399 17.6496 10.5383
2 1 1 1.10383 9.13299 3.44217 4.3758
3 1 1 1.10383 27.399 15.8188 13.1274
4 1 1 1.10383 9.13299 5.27293 1.78671
5 1 1 1.10383 25.8135 14.9034 10.5383
6 1 1 1.10383 10.7185 6.18832 4.3758
7 1 1 1.10383 28.9845 14.9034 10.5383
8 1 1 1.10383 7.5475 6.18832 4.3758
9 1 2 0.115889 18.266 5.48596 12.6084
10 1 2 0.115889 18.266 15.6058 2.30572
11 1 2 0.115888 18.266 13.716 0.969417
12 1 2 0.115888 18.266 7.37578 13.9447
13 1 2 0.11589 25.3934 11.4908 8.12521
14 1 2 0.11589 11.1386 9.60096 6.7889
15 1 2 0.115888 11.1386 11.4908 8.12521
16 1 2 0.115888 25.3934 9.60096 6.7889
17 1 2 0.115889 15.5206 8.96083 0.969417
18 1 2 0.115889 21.0114 12.1309 13.9447
19 1 2 0.115888 22.648 13.0758 12.6084
20 1 2 0.115888 13.884 8.01592 2.30572
21 1 2 0.115889 21.0114 3.90092 8.12521
22 1 2 0.115889 15.5206 17.1908 6.7889
23 1 2 0.115887 13.884 16.2459 8.12521
24 1 2 0.115887 22.648 4.84583 6.7889
25 1 2 0.115889 22.648 16.2459 8.12521
26 1 2 0.115889 13.884 4.84583 6.7889
27 1 2 0.115887 15.5206 3.90092 8.12521
28 1 2 0.115887 21.0114 17.1908 6.7889
29 1 2 0.115889 21.0114 8.96083 0.969417
30 1 2 0.115889 15.5206 12.1309 13.9447
31 1 2 0.115887 13.884 13.0758 12.6084
32 1 2 0.115887 22.648 8.01592 2.30572
33 1 3 0.671939 27.399 18.7442 13.2542
34 1 3 0.671939 9.13299 2.34751 1.65994
35 1 3 0.671939 27.399 12.8934 9.117
36 1 3 0.671939 9.13299 8.19836 5.79712
37 1 3 0.67194 24.8655 14.3561 13.2542
38 1 3 0.67194 11.6665 6.73565 1.65994
39 1 3 0.67194 29.9325 17.2815 9.117
40 1 3 0.67194 6.5995 3.81022 5.79712
41 1 3 0.67194 24.8655 17.2815 9.117
42 1 3 0.67194 11.6665 3.81022 5.79712
43 1 3 0.67194 29.9325 14.3561 13.2542
44 1 3 0.67194 6.5995 6.73565 1.65994
45 1 3 -0.11508 27.399 19.957 14.1117
46 1 3 -0.11508 9.13299 1.13474 0.802379
47 1 3 -0.11508 27.399 11.6806 8.25944
48 1 3 -0.11508 9.13299 9.41113 6.65468
49 1 3 -0.11508 23.8152 13.7497 14.1117
50 1 3 -0.11508 12.7168 7.34203 0.802379
51 1 3 -0.11508 30.9828 17.8879 8.25944
52 1 3 -0.11508 5.54921 3.20384 6.65468
53 1 3 -0.11508 23.8152 17.8879 8.25944
54 1 3 -0.11508 12.7168 3.20384 6.65468
55 1 3 -0.11508 30.9828 13.7497 14.1117
56 1 3 -0.11508 5.54921 7.34203 0.802379
57 1 3 -0.0559 18.266 5.39949 13.5316
58 1 3 -0.0559 18.266 15.6923 1.38254
59 1 3 -0.055903 18.266 14.5575 0.580159
60 1 3 -0.055903 18.266 6.53422 14.334
61 1 3 -0.0559 26.1971 11.1132 7.85825
62 1 3 -0.0559 10.3349 9.9785 7.05587
63 1 3 -0.055903 10.3349 11.1132 7.85825
64 1 3 -0.055903 26.1971 9.9785 7.05587
65 1 3 -0.0559 14.7918 8.54005 0.580159
66 1 3 -0.0559 21.7402 12.5517 14.334
67 1 3 -0.055903 22.7229 13.1191 13.5316
68 1 3 -0.055903 13.8091 7.97268 1.38254
69 1 3 -0.0559 21.7402 3.39366 7.85825
70 1 3 -0.0559 14.7918 17.6981 7.05587
71 1 3 -0.055903 13.8091 17.1307 7.85825
72 1 3 -0.055903 22.7229 3.96103 7.05587
73 1 3 -0.055901 22.7229 17.1307 7.85825
74 1 3 -0.055901 13.8091 3.96103 7.05587
75 1 3 -0.055903 14.7918 3.39366 7.85825
76 1 3 -0.055903 21.7402 17.6981 7.05587
77 1 3 -0.0559 21.7402 8.54005 0.580159
78 1 3 -0.0559 14.7918 12.5517 14.334
79 1 3 -0.055903 13.8091 13.1191 13.5316
80 1 3 -0.055903 22.7229 7.97268 1.38254
81 1 4 -1.26215 27.399 15.8188 11.1856
82 1 4 -1.26215 9.13299 5.27293 3.72853
83 1 4 -0.60118 27.399 18.9383 11.9641
84 1 4 -0.60118 9.13299 2.15347 2.95001
85 1 4 -0.601179 27.399 17.5926 13.8671
86 1 4 -0.601179 9.13299 3.49912 1.04697
87 1 4 -0.601179 26.2336 13.3722 9.45555
88 1 4 -0.601179 10.2984 7.71958 5.45857
89 1 4 -0.60118 28.5643 13.3722 9.45555
90 1 4 -0.60118 7.96762 7.71958 5.45857
91 1 4 -0.60118 25.8628 14.9319 13.8671
92 1 4 -0.60118 10.6692 6.15984 1.04697
93 1 4 -0.601179 24.6974 14.2591 11.9641
94 1 4 -0.601179 11.8345 6.83267 2.95001
95 1 4 -0.60118 28.9351 18.0514 9.45555
96 1 4 -0.60118 7.59682 3.04037 5.45857
97 1 4 -0.601179 30.1005 16.0329 9.45555
98 1 4 -0.601179 6.43145 5.05885 5.45857
99 1 4 -0.601179 24.6974 16.0329 9.45555
100 1 4 -0.601179 11.8345 5.05885 5.45857
101 1 4 -0.60118 25.8628 18.0514 9.45555
102 1 4 -0.60118 10.6692 3.04037 5.45857
103 1 4 -0.60118 28.9351 14.9319 13.8671
104 1 4 -0.60118 7.59682 6.15984 1.04697
105 1 4 -0.60118 30.1005 14.2591 11.9641
106 1 4 -0.60118 6.43145 6.83267 2.95001
9602 3167 5 -0.35 27.2611 17.7694 6.45849
9603 3167 6 0.7 17.3302 2.1236 5.63448
9604 3167 5 -0.35 16.5323 2.29657 4.81048
9848 3249 5 -0.35 12.5373 2.07674 3.31217
9849 3249 6 0.7 13.4878 2.3659 2.71327
9850 3249 5 -0.35 14.4382 2.65507 2.11437
10082 3327 5 -0.35 18.8242 16.0929 5.41729
10083 3327 6 0.7 18.7449 16.2636 6.56192
10084 3327 5 -0.35 18.6655 16.4342 7.70656
10154 3351 5 -0.35 23.4341 13.1526 7.77038
10155 3351 6 0.7 24.0946 13.9033 7.18236
10156 3351 5 -0.35 24.7551 14.654 6.59435
10205 3368 5 -0.35 12.7549 16.041 4.35302
10206 3368 6 0.7 12.2737 17.0492 4.66528
10207 3368 5 -0.35 20.9256 2.23869 4.97754
10220 3373 5 -0.35 20.863 14.1492 5.66666
10221 3373 6 0.7 21.3252 14.4251 4.63908
10222 3373 5 -0.35 21.7873 14.7009 3.61151
10244 3381 5 -0.35 24.7242 10.6461 4.37344
10245 3381 6 0.7 25.4461 10.4455 3.48784
10246 3381 5 -0.35 7.90193 10.245 2.60224
10250 3383 5 -0.35 19.2152 7.11226 2.2779
10251 3383 6 0.7 18.7073 6.28556 2.91366
10252 3383 5 -0.35 18.1994 5.45886 3.54943
10277 3392 5 -0.35 12.3381 9.80991 14.5602
10278 3392 6 0.7 3.12805 4.46465 0.801241
10279 3392 5 -0.35 21.3169 4.39233 1.95641
10292 3397 5 -0.35 28.1292 15.0055 4.87159
10293 3397 6 0.7 27.7864 13.9007 4.78575
10294 3397 5 -0.35 27.4435 12.7958 4.69991
10322 3407 5 -0.35 17.5784 16.4163 10.7308
10323 3407 6 0.7 17.2392 17.4134 10.2446
10324 3407 5 -0.35 16.9 18.4105 9.75849
10349 3416 5 -0.35 27.4617 10.4002 13.9077
10350 3416 6 0.7 27.5177 10.2439 12.7596
10351 3416 5 -0.35 27.5737 10.0876 11.6116
10367 3422 5 -0.35 33.0269 17.2726 11.8554
10368 3422 6 0.7 32.6804 18.2945 12.281
10369 3422 5 -0.35 32.3339 19.3164 12.7066
10373 3424 5 -0.35 12.4017 11.2451 3.1459
10374 3424 6 0.7 12.0701 10.9039 2.08795
10375 3424 5 -0.35 11.7386 10.5626 1.03001
10382 3427 5 -0.35 5.44918 2.84113 0.604864
10383 3427 6 0.7 6.07235 3.17453 1.5247
10384 3427 5 -0.35 6.69552 3.50793 2.44454
10385 3428 5 -0.35 12.8653 5.67773 12.246
10386 3428 6 0.7 12.6546 5.47997 11.1225
10387 3428 5 -0.35 12.444 5.28221 9.99909
10388 3429 5 -0.35 12.928 0.490406 0.803378
10389 3429 6 0.7 21.6647 6.30243 14.7699
10390 3429 5 -0.35 21.2685 6.84152 13.8223
10394 3431 5 -0.35 20.5061 12.7534 10.3341
10395 3431 6 0.7 20.2687 12.4467 9.2409
10396 3431 5 -0.35 20.0312 12.14 8.14767
10397 3432 5 -0.35 2.23577 0.523756 0.938398
10398 3432 6 0.7 10.8711 5.47821 14.8543
10399 3432 5 -0.35 10.3734 5.15972 13.856
10403 3434 5 -0.35 21.0738 10.4188 5.28227
10404 3434 6 0.7 20.6887 9.49871 5.87451
10405 3434 5 -0.35 20.3037 8.57862 6.46675
ITEM: TIMESTEP
16000
ITEM: NUMBER OF ATOMS
166
ITEM: BOX BOUNDS xy xz yz pp pp pp
0.0000000000000000e+00 3.6531964750000000e+01 9.1329911900000003e+00
0.0000000000000000e+00 2.1091739680000000e+01 9.1329911900000003e+00
0.0000000000000000e+00 1.4914112149999999e+01 5.2729349200000000e+00
ITEM: ATOMS id mol type q x y z
1 1 1 1.10383 27.399 17.6496 10.5383
2 1 1 1.10383 9.13299 3.44217 4.3758
3 1 1 1.10383 27.399 15.8188 13.1274
4 1 1 1.10383 9.13299 5.27293 1.78671
5 1 1 1.10383 25.8135 14.9034 10.5383
6 1 1 1.10383 10.7185 6.18832 4.3758
7 1 1 1.10383 28.9845 14.9034 10.5383
8 1 1 1.10383 7.5475 6.18832 4.3758
9 1 2 0.115889 18.266 5.48596 12.6084
10 1 2 0.115889 18.266 15.6058 2.30572
11 1 2 0.115888 18.266 13.716 0.969417
12 1 2 0.115888 18.266 7.37578 13.9447
13 1 2 0.11589 25.3934 11.4908 8.12521
14 1 2 0.11589 11.1386 9.60096 6.7889
15 1 2 0.115888 11.1386 11.4908 8.12521
16 1 2 0.115888 25.3934 9.60096 6.7889
17 1 2 0.115889 15.5206 8.96083 0.969417
18 1 2 0.115889 21.0114 12.1309 13.9447
19 1 2 0.115888 22.648 13.0758 12.6084
20 1 2 0.115888 13.884 8.01592 2.30572
21 1 2 0.115889 21.0114 3.90092 8.12521
22 1 2 0.115889 15.5206 17.1908 6.7889
23 1 2 0.115887 13.884 16.2459 8.12521
24 1 2 0.115887 22.648 4.84583 6.7889
25 1 2 0.115889 22.648 16.2459 8.12521
26 1 2 0.115889 13.884 4.84583 6.7889
27 1 2 0.115887 15.5206 3.90092 8.12521
28 1 2 0.115887 21.0114 17.1908 6.7889
29 1 2 0.115889 21.0114 8.96083 0.969417
30 1 2 0.115889 15.5206 12.1309 13.9447
31 1 2 0.115887 13.884 13.0758 12.6084
32 1 2 0.115887 22.648 8.01592 2.30572
33 1 3 0.671939 27.399 18.7442 13.2542
34 1 3 0.671939 9.13299 2.34751 1.65994
35 1 3 0.671939 27.399 12.8934 9.117
36 1 3 0.671939 9.13299 8.19836 5.79712
37 1 3 0.67194 24.8655 14.3561 13.2542
38 1 3 0.67194 11.6665 6.73565 1.65994
39 1 3 0.67194 29.9325 17.2815 9.117
40 1 3 0.67194 6.5995 3.81022 5.79712
41 1 3 0.67194 24.8655 17.2815 9.117
42 1 3 0.67194 11.6665 3.81022 5.79712
43 1 3 0.67194 29.9325 14.3561 13.2542
44 1 3 0.67194 6.5995 6.73565 1.65994
45 1 3 -0.11508 27.399 19.957 14.1117
46 1 3 -0.11508 9.13299 1.13474 0.802379
47 1 3 -0.11508 27.399 11.6806 8.25944
48 1 3 -0.11508 9.13299 9.41113 6.65468
49 1 3 -0.11508 23.8152 13.7497 14.1117
50 1 3 -0.11508 12.7168 7.34203 0.802379
51 1 3 -0.11508 30.9828 17.8879 8.25944
52 1 3 -0.11508 5.54921 3.20384 6.65468
53 1 3 -0.11508 23.8152 17.8879 8.25944
54 1 3 -0.11508 12.7168 3.20384 6.65468
55 1 3 -0.11508 30.9828 13.7497 14.1117
56 1 3 -0.11508 5.54921 7.34203 0.802379
57 1 3 -0.0559 18.266 5.39949 13.5316
58 1 3 -0.0559 18.266 15.6923 1.38254
59 1 3 -0.055903 18.266 14.5575 0.580159
60 1 3 -0.055903 18.266 6.53422 14.334
61 1 3 -0.0559 26.1971 11.1132 7.85825
62 1 3 -0.0559 10.3349 9.9785 7.05587
63 1 3 -0.055903 10.3349 11.1132 7.85825
64 1 3 -0.055903 26.1971 9.9785 7.05587
65 1 3 -0.0559 14.7918 8.54005 0.580159
66 1 3 -0.0559 21.7402 12.5517 14.334
67 1 3 -0.055903 22.7229 13.1191 13.5316
68 1 3 -0.055903 13.8091 7.97268 1.38254
69 1 3 -0.0559 21.7402 3.39366 7.85825
70 1 3 -0.0559 14.7918 17.6981 7.05587
71 1 3 -0.055903 13.8091 17.1307 7.85825
72 1 3 -0.055903 22.7229 3.96103 7.05587
73 1 3 -0.055901 22.7229 17.1307 7.85825
74 1 3 -0.055901 13.8091 3.96103 7.05587
75 1 3 -0.055903 14.7918 3.39366 7.85825
76 1 3 -0.055903 21.7402 17.6981 7.05587
77 1 3 -0.0559 21.7402 8.54005 0.580159
78 1 3 -0.0559 14.7918 12.5517 14.334
79 1 3 -0.055903 13.8091 13.1191 13.5316
80 1 3 -0.055903 22.7229 7.97268 1.38254
81 1 4 -1.26215 27.399 15.8188 11.1856
82 1 4 -1.26215 9.13299 5.27293 3.72853
83 1 4 -0.60118 27.399 18.9383 11.9641
84 1 4 -0.60118 9.13299 2.15347 2.95001
85 1 4 -0.601179 27.399 17.5926 13.8671
86 1 4 -0.601179 9.13299 3.49912 1.04697
87 1 4 -0.601179 26.2336 13.3722 9.45555
88 1 4 -0.601179 10.2984 7.71958 5.45857
89 1 4 -0.60118 28.5643 13.3722 9.45555
90 1 4 -0.60118 7.96762 7.71958 5.45857
91 1 4 -0.60118 25.8628 14.9319 13.8671
92 1 4 -0.60118 10.6692 6.15984 1.04697
93 1 4 -0.601179 24.6974 14.2591 11.9641
94 1 4 -0.601179 11.8345 6.83267 2.95001
95 1 4 -0.60118 28.9351 18.0514 9.45555
96 1 4 -0.60118 7.59682 3.04037 5.45857
97 1 4 -0.601179 30.1005 16.0329 9.45555
98 1 4 -0.601179 6.43145 5.05885 5.45857
99 1 4 -0.601179 24.6974 16.0329 9.45555
100 1 4 -0.601179 11.8345 5.05885 5.45857
101 1 4 -0.60118 25.8628 18.0514 9.45555
102 1 4 -0.60118 10.6692 3.04037 5.45857
103 1 4 -0.60118 28.9351 14.9319 13.8671
104 1 4 -0.60118 7.59682 6.15984 1.04697
105 1 4 -0.60118 30.1005 14.2591 11.9641
106 1 4 -0.60118 6.43145 6.83267 2.95001
10154 3351 5 -0.35 23.9392 13.9911 7.08323
10155 3351 6 0.7 24.9791 14.495 6.98176
10156 3351 5 -0.35 26.019 14.9988 6.8803
10661 3520 5 -0.35 5.71125 3.48788 2.33828
10662 3520 6 0.7 5.6556 3.07786 1.25459
10663 3520 5 -0.35 5.59995 2.66784 0.170899
10829 3576 5 -0.35 16.5719 4.08645 5.09181
10830 3576 6 0.7 16.0045 3.11207 4.81925
10831 3576 5 -0.35 15.4372 2.13769 4.5467
10964 3621 5 -0.35 26.1392 11.3164 11.9533
10965 3621 6 0.7 25.738 11.1073 13.0215
10966 3621 5 -0.35 25.3368 10.8982 14.0896
11042 3647 5 -0.35 11.7094 10.1712 3.65633
11043 3647 6 0.7 10.7165 10.7144 3.40199
11044 3647 5 -0.35 9.72362 11.2576 3.14764
11057 3652 5 -0.35 18.2664 8.09508 3.71908
11058 3652 6 0.7 18.0062 7.55196 2.72767
11059 3652 5 -0.35 17.7459 7.00883 1.73626
11087 3662 5 -0.35 16.0734 12.4643 7.61444
11088 3662 6 0.7 14.9493 12.6528 7.39894
11089 3662 5 -0.35 13.8251 12.8413 7.18344
11099 3666 5 -0.35 10.8068 10.0911 11.6891
11100 3666 6 0.7 10.2311 9.39592 10.9604
11101 3666 5 -0.35 9.65553 8.70079 10.2316
11105 3668 5 -0.35 14.2665 9.5889 7.59785
11106 3668 6 0.7 13.4436 9.16859 8.29921
11107 3668 5 -0.35 12.6208 8.74828 9.00057
11111 3670 5 -0.35 20.5507 3.34748 1.51833
11112 3670 6 0.7 20.1626 3.07486 2.57695
11113 3670 5 -0.35 19.7745 2.80224 3.63557
11120 3673 5 -0.35 16.122 6.92724 6.13383
11121 3673 6 0.7 15.8496 6.84422 5.00935
11122 3673 5 -0.35 15.5771 6.7612 3.88486
11135 3678 5 -0.35 21.188 12.1073 2.00168
11136 3678 6 0.7 21.4075 11.9161 0.878796
11137 3678 5 -0.35 30.76 16.9979 14.67
11141 3680 5 -0.35 17.4075 14.9197 14.6891
11142 3680 6 0.7 17.8509 14.3346 13.791
11143 3680 5 -0.35 18.2942 13.7494 12.8928
11144 3681 5 -0.35 26.7376 7.58503 12.6894
11145 3681 6 0.7 26.3777 7.71096 13.785
11146 3681 5 -0.35 26.0178 7.8369 14.8805
11147 3682 5 -0.35 15.6782 11.4848 0.59653
11148 3682 6 0.7 24.1765 17.0018 14.5709
11149 3682 5 -0.35 23.5418 17.2459 13.6311
11150 3683 5 -0.35 19.8486 14.1823 6.74501
11151 3683 6 0.7 19.2362 13.9639 5.78437
11152 3683 5 -0.35 18.6237 13.7455 4.82374
11153 3684 5 -0.35 18.5806 17.194 7.96023
11154 3684 6 0.7 17.753 17.6943 8.60085
11155 3684 5 -0.35 16.9254 18.1946 9.24147
11156 3685 5 -0.35 28.3999 15.708 4.55905
11157 3685 6 0.7 28.3705 15.1426 3.54665
11158 3685 5 -0.35 10.075 14.5771 2.53424
11159 3686 5 -0.35 12.3345 1.48788 1.69653
11160 3686 6 0.7 12.7755 1.56556 0.626459
11161 3686 5 -0.35 22.3495 6.91618 14.4705
11165 3688 5 -0.35 20.7353 5.76691 4.34067
11166 3688 6 0.7 20.5715 6.37159 5.31696
11167 3688 5 -0.35 20.4077 6.97626 6.29325
ITEM: TIMESTEP
17000
ITEM: NUMBER OF ATOMS
163
ITEM: BOX BOUNDS xy xz yz pp pp pp
0.0000000000000000e+00 3.6531964750000000e+01 9.1329911900000003e+00
0.0000000000000000e+00 2.1091739680000000e+01 9.1329911900000003e+00
0.0000000000000000e+00 1.4914112149999999e+01 5.2729349200000000e+00
ITEM: ATOMS id mol type q x y z
1 1 1 1.10383 27.399 17.6496 10.5383
2 1 1 1.10383 9.13299 3.44217 4.3758
3 1 1 1.10383 27.399 15.8188 13.1274
4 1 1 1.10383 9.13299 5.27293 1.78671
5 1 1 1.10383 25.8135 14.9034 10.5383
6 1 1 1.10383 10.7185 6.18832 4.3758
7 1 1 1.10383 28.9845 14.9034 10.5383
8 1 1 1.10383 7.5475 6.18832 4.3758
9 1 2 0.115889 18.266 5.48596 12.6084
10 1 2 0.115889 18.266 15.6058 2.30572
11 1 2 0.115888 18.266 13.716 0.969417
12 1 2 0.115888 18.266 7.37578 13.9447
13 1 2 0.11589 25.3934 11.4908 8.12521
14 1 2 0.11589 11.1386 9.60096 6.7889
15 1 2 0.115888 11.1386 11.4908 8.12521
16 1 2 0.115888 25.3934 9.60096 6.7889
17 1 2 0.115889 15.5206 8.96083 0.969417
18 1 2 0.115889 21.0114 12.1309 13.9447
19 1 2 0.115888 22.648 13.0758 12.6084
20 1 2 0.115888 13.884 8.01592 2.30572
21 1 2 0.115889 21.0114 3.90092 8.12521
22 1 2 0.115889 15.5206 17.1908 6.7889
23 1 2 0.115887 13.884 16.2459 8.12521
24 1 2 0.115887 22.648 4.84583 6.7889
25 1 2 0.115889 22.648 16.2459 8.12521
26 1 2 0.115889 13.884 4.84583 6.7889
27 1 2 0.115887 15.5206 3.90092 8.12521
28 1 2 0.115887 21.0114 17.1908 6.7889
29 1 2 0.115889 21.0114 8.96083 0.969417
30 1 2 0.115889 15.5206 12.1309 13.9447
31 1 2 0.115887 13.884 13.0758 12.6084
32 1 2 0.115887 22.648 8.01592 2.30572
33 1 3 0.671939 27.399 18.7442 13.2542
34 1 3 0.671939 9.13299 2.34751 1.65994
35 1 3 0.671939 27.399 12.8934 9.117
36 1 3 0.671939 9.13299 8.19836 5.79712
37 1 3 0.67194 24.8655 14.3561 13.2542
38 1 3 0.67194 11.6665 6.73565 1.65994
39 1 3 0.67194 29.9325 17.2815 9.117
40 1 3 0.67194 6.5995 3.81022 5.79712
41 1 3 0.67194 24.8655 17.2815 9.117
42 1 3 0.67194 11.6665 3.81022 5.79712
43 1 3 0.67194 29.9325 14.3561 13.2542
44 1 3 0.67194 6.5995 6.73565 1.65994
45 1 3 -0.11508 27.399 19.957 14.1117
46 1 3 -0.11508 9.13299 1.13474 0.802379
47 1 3 -0.11508 27.399 11.6806 8.25944
48 1 3 -0.11508 9.13299 9.41113 6.65468
49 1 3 -0.11508 23.8152 13.7497 14.1117
50 1 3 -0.11508 12.7168 7.34203 0.802379
51 1 3 -0.11508 30.9828 17.8879 8.25944
52 1 3 -0.11508 5.54921 3.20384 6.65468
53 1 3 -0.11508 23.8152 17.8879 8.25944
54 1 3 -0.11508 12.7168 3.20384 6.65468
55 1 3 -0.11508 30.9828 13.7497 14.1117
56 1 3 -0.11508 5.54921 7.34203 0.802379
57 1 3 -0.0559 18.266 5.39949 13.5316
58 1 3 -0.0559 18.266 15.6923 1.38254
59 1 3 -0.055903 18.266 14.5575 0.580159
60 1 3 -0.055903 18.266 6.53422 14.334
61 1 3 -0.0559 26.1971 11.1132 7.85825
62 1 3 -0.0559 10.3349 9.9785 7.05587
63 1 3 -0.055903 10.3349 11.1132 7.85825
64 1 3 -0.055903 26.1971 9.9785 7.05587
65 1 3 -0.0559 14.7918 8.54005 0.580159
66 1 3 -0.0559 21.7402 12.5517 14.334
67 1 3 -0.055903 22.7229 13.1191 13.5316
68 1 3 -0.055903 13.8091 7.97268 1.38254
69 1 3 -0.0559 21.7402 3.39366 7.85825
70 1 3 -0.0559 14.7918 17.6981 7.05587
71 1 3 -0.055903 13.8091 17.1307 7.85825
72 1 3 -0.055903 22.7229 3.96103 7.05587
73 1 3 -0.055901 22.7229 17.1307 7.85825
74 1 3 -0.055901 13.8091 3.96103 7.05587
75 1 3 -0.055903 14.7918 3.39366 7.85825
76 1 3 -0.055903 21.7402 17.6981 7.05587
77 1 3 -0.0559 21.7402 8.54005 0.580159
78 1 3 -0.0559 14.7918 12.5517 14.334
79 1 3 -0.055903 13.8091 13.1191 13.5316
80 1 3 -0.055903 22.7229 7.97268 1.38254
81 1 4 -1.26215 27.399 15.8188 11.1856
82 1 4 -1.26215 9.13299 5.27293 3.72853
83 1 4 -0.60118 27.399 18.9383 11.9641
84 1 4 -0.60118 9.13299 2.15347 2.95001
85 1 4 -0.601179 27.399 17.5926 13.8671
86 1 4 -0.601179 9.13299 3.49912 1.04697
87 1 4 -0.601179 26.2336 13.3722 9.45555
88 1 4 -0.601179 10.2984 7.71958 5.45857
89 1 4 -0.60118 28.5643 13.3722 9.45555
90 1 4 -0.60118 7.96762 7.71958 5.45857
91 1 4 -0.60118 25.8628 14.9319 13.8671
92 1 4 -0.60118 10.6692 6.15984 1.04697
93 1 4 -0.601179 24.6974 14.2591 11.9641
94 1 4 -0.601179 11.8345 6.83267 2.95001
95 1 4 -0.60118 28.9351 18.0514 9.45555
96 1 4 -0.60118 7.59682 3.04037 5.45857
97 1 4 -0.601179 30.1005 16.0329 9.45555
98 1 4 -0.601179 6.43145 5.05885 5.45857
99 1 4 -0.601179 24.6974 16.0329 9.45555
100 1 4 -0.601179 11.8345 5.05885 5.45857
101 1 4 -0.60118 25.8628 18.0514 9.45555
102 1 4 -0.60118 10.6692 3.04037 5.45857
103 1 4 -0.60118 28.9351 14.9319 13.8671
104 1 4 -0.60118 7.59682 6.15984 1.04697
105 1 4 -0.60118 30.1005 14.2591 11.9641
106 1 4 -0.60118 6.43145 6.83267 2.95001
11627 3842 5 -0.35 26.5028 11.4374 12.0402
11628 3842 6 0.7 25.7763 10.6887 11.5331
11629 3842 5 -0.35 25.0498 9.93988 11.026
11630 3843 5 -0.35 24.07 17.4964 12.9848
11631 3843 6 0.7 23.4274 17.8707 12.0946
11632 3843 5 -0.35 22.7848 18.245 11.2043
11642 3847 5 -0.35 27.9685 15.6222 5.60106
11643 3847 6 0.7 29.0943 15.582 5.32443
11644 3847 5 -0.35 11.9541 15.5418 5.0478
11786 3895 5 -0.35 11.7643 3.34546 2.75063
11787 3895 6 0.7 12.3775 2.3925 2.99846
11788 3895 5 -0.35 12.9907 1.43953 3.24629
11804 3901 5 -0.35 11.5971 10.1042 3.46876
11805 3901 6 0.7 10.5972 9.65972 3.08376
11806 3901 5 -0.35 9.59724 9.21529 2.69876
11810 3903 5 -0.35 24.3088 10.544 2.06459
11811 3903 6 0.7 24.9506 10.7837 3.00067
11812 3903 5 -0.35 25.5923 11.0235 3.93674
11816 3905 5 -0.35 16.8209 17.1062 9.57834
11817 3905 6 0.7 17.4782 18.0602 9.63688
11818 3905 5 -0.35 18.1354 19.0142 9.69543
11822 3907 5 -0.35 15.771 14.3365 10.0029
11823 3907 6 0.7 16.1943 14.3353 8.92294
11824 3907 5 -0.35 16.6176 14.3341 7.84294
11888 3929 5 -0.35 20.5062 3.15527 4.54277
11889 3929 6 0.7 21.0889 3.13608 3.53989
11890 3929 5 -0.35 3.40552 3.1169 2.53702
11897 3932 5 -0.35 18.9489 16.3015 14.3175
11898 3932 6 0.7 18.7175 16.4623 13.1922
11899 3932 5 -0.35 18.4862 16.623 12.0669
11924 3941 5 -0.35 32.1366 16.701 13.8384
11925 3941 6 0.7 32.0655 17.6723 13.2082
11926 3941 5 -0.35 31.9945 18.6436 12.578
11966 3955 5 -0.35 24.6908 5.78719 11.0204
11967 3955 6 0.7 25.1944 6.18541 10.0543
11968 3955 5 -0.35 25.698 6.58363 9.08813
11969 3956 5 -0.35 21.5105 5.83775 12.7189
11970 3956 6 0.7 21.4848 5.71465 11.5657
11971 3956 5 -0.35 21.4592 5.59155 10.4125
11987 3962 5 -0.35 19.9397 14.5947 8.05936
11988 3962 6 0.7 20.6206 14.454 7.13081
11989 3962 5 -0.35 21.3015 14.3133 6.20227
11993 3964 5 -0.35 13.1645 10.5076 11.9214
11994 3964 6 0.7 13.2317 11.2054 10.9972
11995 3964 5 -0.35 13.2988 11.9032 10.073
11996 3965 5 -0.35 14.5151 6.40337 9.85956
11997 3965 6 0.7 14.0991 7.37173 9.37495
11998 3965 5 -0.35 13.6832 8.34008 8.89035
11999 3966 5 -0.35 18.4559 11.8346 4.02844
12000 3966 6 0.7 19.0717 11.7223 3.05184
12001 3966 5 -0.35 19.6875 11.61 2.07524
12002 3967 5 -0.35 14.0572 14.8065 2.39776
12003 3967 6 0.7 13.9303 14.5741 1.26838
12004 3967 5 -0.35 13.8034 14.3417 0.139002
12005 3968 5 -0.35 16.2827 10.431 9.42407
12006 3968 6 0.7 17.125 10.2988 8.63755
12007 3968 5 -0.35 17.9673 10.1667 7.85103
ITEM: TIMESTEP
18000
ITEM: NUMBER OF ATOMS
178
ITEM: BOX BOUNDS xy xz yz pp pp pp
0.0000000000000000e+00 3.6531964750000000e+01 9.1329911900000003e+00
0.0000000000000000e+00 2.1091739680000000e+01 9.1329911900000003e+00
0.0000000000000000e+00 1.4914112149999999e+01 5.2729349200000000e+00
ITEM: ATOMS id mol type q x y z
1 1 1 1.10383 27.399 17.6496 10.5383
2 1 1 1.10383 9.13299 3.44217 4.3758
3 1 1 1.10383 27.399 15.8188 13.1274
4 1 1 1.10383 9.13299 5.27293 1.78671
5 1 1 1.10383 25.8135 14.9034 10.5383
6 1 1 1.10383 10.7185 6.18832 4.3758
7 1 1 1.10383 28.9845 14.9034 10.5383
8 1 1 1.10383 7.5475 6.18832 4.3758
9 1 2 0.115889 18.266 5.48596 12.6084
10 1 2 0.115889 18.266 15.6058 2.30572
11 1 2 0.115888 18.266 13.716 0.969417
12 1 2 0.115888 18.266 7.37578 13.9447
13 1 2 0.11589 25.3934 11.4908 8.12521
14 1 2 0.11589 11.1386 9.60096 6.7889
15 1 2 0.115888 11.1386 11.4908 8.12521
16 1 2 0.115888 25.3934 9.60096 6.7889
17 1 2 0.115889 15.5206 8.96083 0.969417
18 1 2 0.115889 21.0114 12.1309 13.9447
19 1 2 0.115888 22.648 13.0758 12.6084
20 1 2 0.115888 13.884 8.01592 2.30572
21 1 2 0.115889 21.0114 3.90092 8.12521
22 1 2 0.115889 15.5206 17.1908 6.7889
23 1 2 0.115887 13.884 16.2459 8.12521
24 1 2 0.115887 22.648 4.84583 6.7889
25 1 2 0.115889 22.648 16.2459 8.12521
26 1 2 0.115889 13.884 4.84583 6.7889
27 1 2 0.115887 15.5206 3.90092 8.12521
28 1 2 0.115887 21.0114 17.1908 6.7889
29 1 2 0.115889 21.0114 8.96083 0.969417
30 1 2 0.115889 15.5206 12.1309 13.9447
31 1 2 0.115887 13.884 13.0758 12.6084
32 1 2 0.115887 22.648 8.01592 2.30572
33 1 3 0.671939 27.399 18.7442 13.2542
34 1 3 0.671939 9.13299 2.34751 1.65994
35 1 3 0.671939 27.399 12.8934 9.117
36 1 3 0.671939 9.13299 8.19836 5.79712
37 1 3 0.67194 24.8655 14.3561 13.2542
38 1 3 0.67194 11.6665 6.73565 1.65994
39 1 3 0.67194 29.9325 17.2815 9.117
40 1 3 0.67194 6.5995 3.81022 5.79712
41 1 3 0.67194 24.8655 17.2815 9.117
42 1 3 0.67194 11.6665 3.81022 5.79712
43 1 3 0.67194 29.9325 14.3561 13.2542
44 1 3 0.67194 6.5995 6.73565 1.65994
45 1 3 -0.11508 27.399 19.957 14.1117
46 1 3 -0.11508 9.13299 1.13474 0.802379
47 1 3 -0.11508 27.399 11.6806 8.25944
48 1 3 -0.11508 9.13299 9.41113 6.65468
49 1 3 -0.11508 23.8152 13.7497 14.1117
50 1 3 -0.11508 12.7168 7.34203 0.802379
51 1 3 -0.11508 30.9828 17.8879 8.25944
52 1 3 -0.11508 5.54921 3.20384 6.65468
53 1 3 -0.11508 23.8152 17.8879 8.25944
54 1 3 -0.11508 12.7168 3.20384 6.65468
55 1 3 -0.11508 30.9828 13.7497 14.1117
56 1 3 -0.11508 5.54921 7.34203 0.802379
57 1 3 -0.0559 18.266 5.39949 13.5316
58 1 3 -0.0559 18.266 15.6923 1.38254
59 1 3 -0.055903 18.266 14.5575 0.580159
60 1 3 -0.055903 18.266 6.53422 14.334
61 1 3 -0.0559 26.1971 11.1132 7.85825
62 1 3 -0.0559 10.3349 9.9785 7.05587
63 1 3 -0.055903 10.3349 11.1132 7.85825
64 1 3 -0.055903 26.1971 9.9785 7.05587
65 1 3 -0.0559 14.7918 8.54005 0.580159
66 1 3 -0.0559 21.7402 12.5517 14.334
67 1 3 -0.055903 22.7229 13.1191 13.5316
68 1 3 -0.055903 13.8091 7.97268 1.38254
69 1 3 -0.0559 21.7402 3.39366 7.85825
70 1 3 -0.0559 14.7918 17.6981 7.05587
71 1 3 -0.055903 13.8091 17.1307 7.85825
72 1 3 -0.055903 22.7229 3.96103 7.05587
73 1 3 -0.055901 22.7229 17.1307 7.85825
74 1 3 -0.055901 13.8091 3.96103 7.05587
75 1 3 -0.055903 14.7918 3.39366 7.85825
76 1 3 -0.055903 21.7402 17.6981 7.05587
77 1 3 -0.0559 21.7402 8.54005 0.580159
78 1 3 -0.0559 14.7918 12.5517 14.334
79 1 3 -0.055903 13.8091 13.1191 13.5316
80 1 3 -0.055903 22.7229 7.97268 1.38254
81 1 4 -1.26215 27.399 15.8188 11.1856
82 1 4 -1.26215 9.13299 5.27293 3.72853
83 1 4 -0.60118 27.399 18.9383 11.9641
84 1 4 -0.60118 9.13299 2.15347 2.95001
85 1 4 -0.601179 27.399 17.5926 13.8671
86 1 4 -0.601179 9.13299 3.49912 1.04697
87 1 4 -0.601179 26.2336 13.3722 9.45555
88 1 4 -0.601179 10.2984 7.71958 5.45857
89 1 4 -0.60118 28.5643 13.3722 9.45555
90 1 4 -0.60118 7.96762 7.71958 5.45857
91 1 4 -0.60118 25.8628 14.9319 13.8671
92 1 4 -0.60118 10.6692 6.15984 1.04697
93 1 4 -0.601179 24.6974 14.2591 11.9641
94 1 4 -0.601179 11.8345 6.83267 2.95001
95 1 4 -0.60118 28.9351 18.0514 9.45555
96 1 4 -0.60118 7.59682 3.04037 5.45857
97 1 4 -0.601179 30.1005 16.0329 9.45555
98 1 4 -0.601179 6.43145 5.05885 5.45857
99 1 4 -0.601179 24.6974 16.0329 9.45555
100 1 4 -0.601179 11.8345 5.05885 5.45857
101 1 4 -0.60118 25.8628 18.0514 9.45555
102 1 4 -0.60118 10.6692 3.04037 5.45857
103 1 4 -0.60118 28.9351 14.9319 13.8671
104 1 4 -0.60118 7.59682 6.15984 1.04697
105 1 4 -0.60118 30.1005 14.2591 11.9641
106 1 4 -0.60118 6.43145 6.83267 2.95001
12401 4100 5 -0.35 5.66403 1.17136 1.35499
12402 4100 6 0.7 5.73639 1.29306 0.203667
12403 4100 5 -0.35 14.9417 6.6877 13.9665
12650 4183 5 -0.35 24.23 10.1952 4.85533
12651 4183 6 0.7 24.9558 9.9598 3.9816
12652 4183 5 -0.35 7.41559 9.72446 3.10786
12767 4222 5 -0.35 18.3494 5.86893 9.41008
12768 4222 6 0.7 19.3008 5.43886 9.91561
12769 4222 5 -0.35 20.2522 5.00878 10.4211
12785 4228 5 -0.35 8.05765 4.50245 9.9933
12786 4228 6 0.7 7.13497 3.80028 10.0282
12787 4228 5 -0.35 15.3453 18.9169 10.0631
12791 4230 5 -0.35 28.0566 15.2279 6.88627
12792 4230 6 0.7 28.6826 14.6022 6.13659
12793 4230 5 -0.35 11.0427 13.9764 5.3869
12794 4231 5 -0.35 24.3769 11.453 0.817244
12795 4231 6 0.7 33.3444 16.5319 14.5997
12796 4231 5 -0.35 33.1789 16.3378 13.4681
12806 4235 5 -0.35 23.6896 13.5186 7.74497
12807 4235 6 0.7 24.6208 13.6638 7.0686
12808 4235 5 -0.35 25.5519 13.8089 6.39222
12815 4238 5 -0.35 24.5018 17.7168 12.5989
12816 4238 6 0.7 23.4892 17.4667 12.0913
12817 4238 5 -0.35 22.4765 17.2166 11.5837
12857 4252 5 -0.35 14.6651 9.12303 5.40612
12858 4252 6 0.7 14.7652 9.74131 4.42975
12859 4252 5 -0.35 14.8653 10.3596 3.45337
12872 4257 5 -0.35 18.8863 7.89823 1.36421
12873 4257 6 0.7 18.4855 7.52062 0.343234
12874 4257 5 -0.35 27.2178 12.416 14.2364
12881 4260 5 -0.35 21.4483 14.6945 1.89504
12882 4260 6 0.7 21.8498 14.5375 0.818111
12883 4260 5 -0.35 31.3842 19.6534 14.6553
12893 4264 5 -0.35 16.3368 13.4749 8.17852
12894 4264 6 0.7 15.8705 13.3426 7.12464
12895 4264 5 -0.35 15.4042 13.2103 6.07076
12905 4268 5 -0.35 13.0143 16.5444 4.40157
12906 4268 6 0.7 14.1475 16.2965 4.41232
12907 4268 5 -0.35 15.2806 16.0486 4.42307
12923 4274 5 -0.35 21.4805 13.6201 4.932
12924 4274 6 0.7 20.3674 13.9014 4.76655
12925 4274 5 -0.35 19.2542 14.1827 4.6011
12938 4279 5 -0.35 20.1259 3.94668 3.70723
12939 4279 6 0.7 21.0275 4.67205 3.62565
12940 4279 5 -0.35 21.929 5.39742 3.54407
12947 4282 5 -0.35 3.073 3.30939 0.649507
12948 4282 6 0.7 2.10791 3.31136 0.00591938
12949 4282 5 -0.35 28.5418 8.58628 14.2764
12953 4284 5 -0.35 14.8176 8.99085 8.71318
12954 4284 6 0.7 14.459 7.92457 8.99616
12955 4284 5 -0.35 14.1004 6.85829 9.27914
12956 4285 5 -0.35 21.2908 20.0327 12.1617
12957 4285 6 0.7 12.0662 4.01801 11.0221
12958 4285 5 -0.35 11.9746 3.8221 9.88242
12959 4286 5 -0.35 24.3441 16.3551 5.17633
12960 4286 6 0.7 25.0151 16.5234 4.24519
12961 4286 5 -0.35 25.6862 16.6917 3.31406
12962 4287 5 -0.35 20.5706 15.125 9.98831
12963 4287 6 0.7 19.9623 14.7955 9.05711
12964 4287 5 -0.35 19.3541 14.4661 8.1259
12965 4288 5 -0.35 20.0607 8.77839 5.63883
12966 4288 6 0.7 20.749 9.12443 4.77163
12967 4288 5 -0.35 21.4374 9.47047 3.90442
12968 4289 5 -0.35 11.0365 7.0487 11.3515
12969 4289 6 0.7 10.8623 7.33333 10.2405
12970 4289 5 -0.35 10.6882 7.61796 9.12957
12971 4290 5 -0.35 18.676 10.5168 12.5166
12972 4290 6 0.7 18.2911 11.329 11.7832
12973 4290 5 -0.35 17.9062 12.1412 11.0499
12974 4291 5 -0.35 20.7108 11.4725 9.20235
12975 4291 6 0.7 20.4511 11.6154 8.08086
12976 4291 5 -0.35 20.1914 11.7584 6.95937
ITEM: TIMESTEP
19000
ITEM: NUMBER OF ATOMS
190
ITEM: BOX BOUNDS xy xz yz pp pp pp
0.0000000000000000e+00 3.6531964750000000e+01 9.1329911900000003e+00
0.0000000000000000e+00 2.1091739680000000e+01 9.1329911900000003e+00
0.0000000000000000e+00 1.4914112149999999e+01 5.2729349200000000e+00
ITEM: ATOMS id mol type q x y z
1 1 1 1.10383 27.399 17.6496 10.5383
2 1 1 1.10383 9.13299 3.44217 4.3758
3 1 1 1.10383 27.399 15.8188 13.1274
4 1 1 1.10383 9.13299 5.27293 1.78671
5 1 1 1.10383 25.8135 14.9034 10.5383
6 1 1 1.10383 10.7185 6.18832 4.3758
7 1 1 1.10383 28.9845 14.9034 10.5383
8 1 1 1.10383 7.5475 6.18832 4.3758
9 1 2 0.115889 18.266 5.48596 12.6084
10 1 2 0.115889 18.266 15.6058 2.30572
11 1 2 0.115888 18.266 13.716 0.969417
12 1 2 0.115888 18.266 7.37578 13.9447
13 1 2 0.11589 25.3934 11.4908 8.12521
14 1 2 0.11589 11.1386 9.60096 6.7889
15 1 2 0.115888 11.1386 11.4908 8.12521
16 1 2 0.115888 25.3934 9.60096 6.7889
17 1 2 0.115889 15.5206 8.96083 0.969417
18 1 2 0.115889 21.0114 12.1309 13.9447
19 1 2 0.115888 22.648 13.0758 12.6084
20 1 2 0.115888 13.884 8.01592 2.30572
21 1 2 0.115889 21.0114 3.90092 8.12521
22 1 2 0.115889 15.5206 17.1908 6.7889
23 1 2 0.115887 13.884 16.2459 8.12521
24 1 2 0.115887 22.648 4.84583 6.7889
25 1 2 0.115889 22.648 16.2459 8.12521
26 1 2 0.115889 13.884 4.84583 6.7889
27 1 2 0.115887 15.5206 3.90092 8.12521
28 1 2 0.115887 21.0114 17.1908 6.7889
29 1 2 0.115889 21.0114 8.96083 0.969417
30 1 2 0.115889 15.5206 12.1309 13.9447
31 1 2 0.115887 13.884 13.0758 12.6084
32 1 2 0.115887 22.648 8.01592 2.30572
33 1 3 0.671939 27.399 18.7442 13.2542
34 1 3 0.671939 9.13299 2.34751 1.65994
35 1 3 0.671939 27.399 12.8934 9.117
36 1 3 0.671939 9.13299 8.19836 5.79712
37 1 3 0.67194 24.8655 14.3561 13.2542
38 1 3 0.67194 11.6665 6.73565 1.65994
39 1 3 0.67194 29.9325 17.2815 9.117
40 1 3 0.67194 6.5995 3.81022 5.79712
41 1 3 0.67194 24.8655 17.2815 9.117
42 1 3 0.67194 11.6665 3.81022 5.79712
43 1 3 0.67194 29.9325 14.3561 13.2542
44 1 3 0.67194 6.5995 6.73565 1.65994
45 1 3 -0.11508 27.399 19.957 14.1117
46 1 3 -0.11508 9.13299 1.13474 0.802379
47 1 3 -0.11508 27.399 11.6806 8.25944
48 1 3 -0.11508 9.13299 9.41113 6.65468
49 1 3 -0.11508 23.8152 13.7497 14.1117
50 1 3 -0.11508 12.7168 7.34203 0.802379
51 1 3 -0.11508 30.9828 17.8879 8.25944
52 1 3 -0.11508 5.54921 3.20384 6.65468
53 1 3 -0.11508 23.8152 17.8879 8.25944
54 1 3 -0.11508 12.7168 3.20384 6.65468
55 1 3 -0.11508 30.9828 13.7497 14.1117
56 1 3 -0.11508 5.54921 7.34203 0.802379
57 1 3 -0.0559 18.266 5.39949 13.5316
58 1 3 -0.0559 18.266 15.6923 1.38254
59 1 3 -0.055903 18.266 14.5575 0.580159
60 1 3 -0.055903 18.266 6.53422 14.334
61 1 3 -0.0559 26.1971 11.1132 7.85825
62 1 3 -0.0559 10.3349 9.9785 7.05587
63 1 3 -0.055903 10.3349 11.1132 7.85825
64 1 3 -0.055903 26.1971 9.9785 7.05587
65 1 3 -0.0559 14.7918 8.54005 0.580159
66 1 3 -0.0559 21.7402 12.5517 14.334
67 1 3 -0.055903 22.7229 13.1191 13.5316
68 1 3 -0.055903 13.8091 7.97268 1.38254
69 1 3 -0.0559 21.7402 3.39366 7.85825
70 1 3 -0.0559 14.7918 17.6981 7.05587
71 1 3 -0.055903 13.8091 17.1307 7.85825
72 1 3 -0.055903 22.7229 3.96103 7.05587
73 1 3 -0.055901 22.7229 17.1307 7.85825
74 1 3 -0.055901 13.8091 3.96103 7.05587
75 1 3 -0.055903 14.7918 3.39366 7.85825
76 1 3 -0.055903 21.7402 17.6981 7.05587
77 1 3 -0.0559 21.7402 8.54005 0.580159
78 1 3 -0.0559 14.7918 12.5517 14.334
79 1 3 -0.055903 13.8091 13.1191 13.5316
80 1 3 -0.055903 22.7229 7.97268 1.38254
81 1 4 -1.26215 27.399 15.8188 11.1856
82 1 4 -1.26215 9.13299 5.27293 3.72853
83 1 4 -0.60118 27.399 18.9383 11.9641
84 1 4 -0.60118 9.13299 2.15347 2.95001
85 1 4 -0.601179 27.399 17.5926 13.8671
86 1 4 -0.601179 9.13299 3.49912 1.04697
87 1 4 -0.601179 26.2336 13.3722 9.45555
88 1 4 -0.601179 10.2984 7.71958 5.45857
89 1 4 -0.60118 28.5643 13.3722 9.45555
90 1 4 -0.60118 7.96762 7.71958 5.45857
91 1 4 -0.60118 25.8628 14.9319 13.8671
92 1 4 -0.60118 10.6692 6.15984 1.04697
93 1 4 -0.601179 24.6974 14.2591 11.9641
94 1 4 -0.601179 11.8345 6.83267 2.95001
95 1 4 -0.60118 28.9351 18.0514 9.45555
96 1 4 -0.60118 7.59682 3.04037 5.45857
97 1 4 -0.601179 30.1005 16.0329 9.45555
98 1 4 -0.601179 6.43145 5.05885 5.45857
99 1 4 -0.601179 24.6974 16.0329 9.45555
100 1 4 -0.601179 11.8345 5.05885 5.45857
101 1 4 -0.60118 25.8628 18.0514 9.45555
102 1 4 -0.60118 10.6692 3.04037 5.45857
103 1 4 -0.60118 28.9351 14.9319 13.8671
104 1 4 -0.60118 7.59682 6.15984 1.04697
105 1 4 -0.60118 30.1005 14.2591 11.9641
106 1 4 -0.60118 6.43145 6.83267 2.95001
12815 4238 5 -0.35 21.1593 17.592 10.8383
12816 4238 6 0.7 20.732 16.5405 10.599
12817 4238 5 -0.35 20.3048 15.4889 10.3598
12872 4257 5 -0.35 19.6731 6.31809 1.14371
12873 4257 6 0.7 19.2823 5.87285 0.146394
12874 4257 5 -0.35 28.0245 10.7005 14.0632
12977 4292 5 -0.35 25.0611 9.66048 12.9647
12978 4292 6 0.7 25.678 10.284 12.2056
12979 4292 5 -0.35 26.2949 10.9074 11.4464
12995 4298 5 -0.35 31.3456 19.5358 12.7932
12996 4298 6 0.7 21.5829 4.50757 12.224
12997 4298 5 -0.35 20.9531 5.29818 11.6548
13013 4304 5 -0.35 18.5656 3.20537 5.74948
13014 4304 6 0.7 17.466 2.90508 5.53412
13015 4304 5 -0.35 16.3664 2.6048 5.31875
13073 4324 5 -0.35 16.8918 4.52451 2.43651
13074 4324 6 0.7 16.197 5.056 3.19834
13075 4324 5 -0.35 15.5022 5.58749 3.96017
13112 4337 5 -0.35 22.2681 15.6132 5.18605
13113 4337 6 0.7 22.4463 16.4765 4.432
13114 4337 5 -0.35 13.4914 1.52102 3.67795
13151 4350 5 -0.35 22.6239 12.6052 7.47785
13152 4350 6 0.7 22.6022 13.1794 8.48553
13153 4350 5 -0.35 22.5805 13.7536 9.49321
13154 4351 5 -0.35 13.8244 3.66907 0.458882
13155 4351 6 0.7 13.9918 2.54043 0.249717
13156 4351 5 -0.35 14.1592 1.41179 0.0405523
13169 4356 5 -0.35 11.5542 14.7086 6.75277
13170 4356 6 0.7 28.7879 15.0605 7.14806
13171 4356 5 -0.35 27.7557 15.4124 7.54335
13181 4360 5 -0.35 16.9163 18.2537 9.24019
13182 4360 6 0.7 17.4461 17.3148 8.81209
13183 4360 5 -0.35 17.9759 16.3758 8.38399
13235 4378 5 -0.35 20.238 11.2035 10.777
13236 4378 6 0.7 19.8136 10.5871 11.6633
13237 4378 5 -0.35 19.3893 9.97072 12.5497
13250 4383 5 -0.35 9.55648 12.9902 4.98675
13251 4383 6 0.7 9.5397 12.3928 3.99254
13252 4383 5 -0.35 9.52291 11.7954 2.99834
13280 4393 5 -0.35 23.9235 18.9272 11.6209
13281 4393 6 0.7 23.1806 19.7853 11.3816
13282 4393 5 -0.35 13.3047 4.82461 11.1422
13286 4395 5 -0.35 15.3241 15.7469 12.8823
13287 4395 6 0.7 14.8521 16.5118 12.149
13288 4395 5 -0.35 32.6461 17.2767 11.4157
13310 4403 5 -0.35 18.7386 12.1751 6.61265
13311 4403 6 0.7 18.8923 13.1196 5.95691
13312 4403 5 -0.35 19.046 14.064 5.30118
13343 4414 5 -0.35 18.1193 12.655 13.2472
13344 4414 6 0.7 17.9471 13.6498 12.676
13345 4414 5 -0.35 17.7748 14.6447 12.1049
13355 4418 5 -0.35 11.0585 4.89685 8.93949
13356 4418 6 0.7 10.2937 5.52175 9.54787
13357 4418 5 -0.35 9.52883 6.14664 10.1563
13358 4419 5 -0.35 10.7787 9.90205 0.0568399
13359 4419 6 0.7 11.6817 10.6177 0.191462
13360 4419 5 -0.35 12.5847 11.3333 0.326085
13361 4420 5 -0.35 22.345 12.5319 2.68086
13362 4420 6 0.7 21.8148 12.3619 1.66323
13363 4420 5 -0.35 21.2846 12.1918 0.6456
13364 4421 5 -0.35 16.5098 6.72998 10.1941
13365 4421 6 0.7 16.6377 6.4953 9.06533
13366 4421 5 -0.35 16.7656 6.26061 7.93654
13385 4428 5 -0.35 11.1673 8.35392 11.0301
13386 4428 6 0.7 11.594 9.4224 11.178
13387 4428 5 -0.35 12.0208 10.4909 11.3258
13391 4430 5 -0.35 15.3971 14.1826 6.7689
13392 4430 6 0.7 14.9113 13.5458 5.92986
13393 4430 5 -0.35 14.4254 12.909 5.09081
13394 4431 5 -0.35 15.3484 9.57129 11.13
13395 4431 6 0.7 14.7205 8.79716 10.5367
13396 4431 5 -0.35 14.0925 8.02303 9.94344
13397 4432 5 -0.35 25.8233 14.2388 1.81408
13398 4432 6 0.7 26.8783 13.9446 1.43185
13399 4432 5 -0.35 9.66729 13.6505 1.04963
13400 4433 5 -0.35 18.2756 2.04316 2.39498
13401 4433 6 0.7 18.0589 2.19411 1.26542
13402 4433 5 -0.35 17.8423 2.34505 0.135873
13403 4434 5 -0.35 20.0137 8.1188 3.20352
13404 4434 6 0.7 19.5055 7.19729 3.69146
13405 4434 5 -0.35 18.9972 6.27578 4.17939
13406 4435 5 -0.35 13.768 14.9583 0.0996043
13407 4435 6 0.7 13.8452 5.55833 14.8508
13408 4435 5 -0.35 13.9225 6.70423 14.6879
ITEM: TIMESTEP
20000
ITEM: NUMBER OF ATOMS
202
ITEM: BOX BOUNDS xy xz yz pp pp pp
0.0000000000000000e+00 3.6531964750000000e+01 9.1329911900000003e+00
0.0000000000000000e+00 2.1091739680000000e+01 9.1329911900000003e+00
0.0000000000000000e+00 1.4914112149999999e+01 5.2729349200000000e+00
ITEM: ATOMS id mol type q x y z
1 1 1 1.10383 27.399 17.6496 10.5383
2 1 1 1.10383 9.13299 3.44217 4.3758
3 1 1 1.10383 27.399 15.8188 13.1274
4 1 1 1.10383 9.13299 5.27293 1.78671
5 1 1 1.10383 25.8135 14.9034 10.5383
6 1 1 1.10383 10.7185 6.18832 4.3758
7 1 1 1.10383 28.9845 14.9034 10.5383
8 1 1 1.10383 7.5475 6.18832 4.3758
9 1 2 0.115889 18.266 5.48596 12.6084
10 1 2 0.115889 18.266 15.6058 2.30572
11 1 2 0.115888 18.266 13.716 0.969417
12 1 2 0.115888 18.266 7.37578 13.9447
13 1 2 0.11589 25.3934 11.4908 8.12521
14 1 2 0.11589 11.1386 9.60096 6.7889
15 1 2 0.115888 11.1386 11.4908 8.12521
16 1 2 0.115888 25.3934 9.60096 6.7889
17 1 2 0.115889 15.5206 8.96083 0.969417
18 1 2 0.115889 21.0114 12.1309 13.9447
19 1 2 0.115888 22.648 13.0758 12.6084
20 1 2 0.115888 13.884 8.01592 2.30572
21 1 2 0.115889 21.0114 3.90092 8.12521
22 1 2 0.115889 15.5206 17.1908 6.7889
23 1 2 0.115887 13.884 16.2459 8.12521
24 1 2 0.115887 22.648 4.84583 6.7889
25 1 2 0.115889 22.648 16.2459 8.12521
26 1 2 0.115889 13.884 4.84583 6.7889
27 1 2 0.115887 15.5206 3.90092 8.12521
28 1 2 0.115887 21.0114 17.1908 6.7889
29 1 2 0.115889 21.0114 8.96083 0.969417
30 1 2 0.115889 15.5206 12.1309 13.9447
31 1 2 0.115887 13.884 13.0758 12.6084
32 1 2 0.115887 22.648 8.01592 2.30572
33 1 3 0.671939 27.399 18.7442 13.2542
34 1 3 0.671939 9.13299 2.34751 1.65994
35 1 3 0.671939 27.399 12.8934 9.117
36 1 3 0.671939 9.13299 8.19836 5.79712
37 1 3 0.67194 24.8655 14.3561 13.2542
38 1 3 0.67194 11.6665 6.73565 1.65994
39 1 3 0.67194 29.9325 17.2815 9.117
40 1 3 0.67194 6.5995 3.81022 5.79712
41 1 3 0.67194 24.8655 17.2815 9.117
42 1 3 0.67194 11.6665 3.81022 5.79712
43 1 3 0.67194 29.9325 14.3561 13.2542
44 1 3 0.67194 6.5995 6.73565 1.65994
45 1 3 -0.11508 27.399 19.957 14.1117
46 1 3 -0.11508 9.13299 1.13474 0.802379
47 1 3 -0.11508 27.399 11.6806 8.25944
48 1 3 -0.11508 9.13299 9.41113 6.65468
49 1 3 -0.11508 23.8152 13.7497 14.1117
50 1 3 -0.11508 12.7168 7.34203 0.802379
51 1 3 -0.11508 30.9828 17.8879 8.25944
52 1 3 -0.11508 5.54921 3.20384 6.65468
53 1 3 -0.11508 23.8152 17.8879 8.25944
54 1 3 -0.11508 12.7168 3.20384 6.65468
55 1 3 -0.11508 30.9828 13.7497 14.1117
56 1 3 -0.11508 5.54921 7.34203 0.802379
57 1 3 -0.0559 18.266 5.39949 13.5316
58 1 3 -0.0559 18.266 15.6923 1.38254
59 1 3 -0.055903 18.266 14.5575 0.580159
60 1 3 -0.055903 18.266 6.53422 14.334
61 1 3 -0.0559 26.1971 11.1132 7.85825
62 1 3 -0.0559 10.3349 9.9785 7.05587
63 1 3 -0.055903 10.3349 11.1132 7.85825
64 1 3 -0.055903 26.1971 9.9785 7.05587
65 1 3 -0.0559 14.7918 8.54005 0.580159
66 1 3 -0.0559 21.7402 12.5517 14.334
67 1 3 -0.055903 22.7229 13.1191 13.5316
68 1 3 -0.055903 13.8091 7.97268 1.38254
69 1 3 -0.0559 21.7402 3.39366 7.85825
70 1 3 -0.0559 14.7918 17.6981 7.05587
71 1 3 -0.055903 13.8091 17.1307 7.85825
72 1 3 -0.055903 22.7229 3.96103 7.05587
73 1 3 -0.055901 22.7229 17.1307 7.85825
74 1 3 -0.055901 13.8091 3.96103 7.05587
75 1 3 -0.055903 14.7918 3.39366 7.85825
76 1 3 -0.055903 21.7402 17.6981 7.05587
77 1 3 -0.0559 21.7402 8.54005 0.580159
78 1 3 -0.0559 14.7918 12.5517 14.334
79 1 3 -0.055903 13.8091 13.1191 13.5316
80 1 3 -0.055903 22.7229 7.97268 1.38254
81 1 4 -1.26215 27.399 15.8188 11.1856
82 1 4 -1.26215 9.13299 5.27293 3.72853
83 1 4 -0.60118 27.399 18.9383 11.9641
84 1 4 -0.60118 9.13299 2.15347 2.95001
85 1 4 -0.601179 27.399 17.5926 13.8671
86 1 4 -0.601179 9.13299 3.49912 1.04697
87 1 4 -0.601179 26.2336 13.3722 9.45555
88 1 4 -0.601179 10.2984 7.71958 5.45857
89 1 4 -0.60118 28.5643 13.3722 9.45555
90 1 4 -0.60118 7.96762 7.71958 5.45857
91 1 4 -0.60118 25.8628 14.9319 13.8671
92 1 4 -0.60118 10.6692 6.15984 1.04697
93 1 4 -0.601179 24.6974 14.2591 11.9641
94 1 4 -0.601179 11.8345 6.83267 2.95001
95 1 4 -0.60118 28.9351 18.0514 9.45555
96 1 4 -0.60118 7.59682 3.04037 5.45857
97 1 4 -0.601179 30.1005 16.0329 9.45555
98 1 4 -0.601179 6.43145 5.05885 5.45857
99 1 4 -0.601179 24.6974 16.0329 9.45555
100 1 4 -0.601179 11.8345 5.05885 5.45857
101 1 4 -0.60118 25.8628 18.0514 9.45555
102 1 4 -0.60118 10.6692 3.04037 5.45857
103 1 4 -0.60118 28.9351 14.9319 13.8671
104 1 4 -0.60118 7.59682 6.15984 1.04697
105 1 4 -0.60118 30.1005 14.2591 11.9641
106 1 4 -0.60118 6.43145 6.83267 2.95001
13835 4578 5 -0.35 15.0065 4.73775 1.02517
13836 4578 6 0.7 15.7028 4.96759 1.92405
13837 4578 5 -0.35 16.3991 5.19744 2.82293
13838 4579 5 -0.35 17.9747 7.88472 1.84384
13839 4579 6 0.7 18.4413 7.29061 0.963513
13840 4579 5 -0.35 18.9078 6.6965 0.083187
13874 4591 5 -0.35 21.0124 12.5177 0.472319
13875 4591 6 0.7 30.3933 17.4625 14.3018
13876 4591 5 -0.35 30.6413 17.1343 13.2172
13919 4606 5 -0.35 22.8672 14.5283 2.8506
13920 4606 6 0.7 23.3116 14.5002 1.77948
13921 4606 5 -0.35 23.756 14.4722 0.70835
13925 4608 5 -0.35 15.4642 2.88349 4.17059
13926 4608 6 0.7 16.1296 2.45786 5.02014
13927 4608 5 -0.35 25.928 17.851 5.86968
13937 4612 5 -0.35 26.0138 6.58918 14.4651
13938 4612 6 0.7 25.7677 7.31466 13.594
13939 4612 5 -0.35 25.5215 8.04014 12.723
13949 4616 5 -0.35 26.0287 11.5646 11.6521
13950 4616 6 0.7 24.9855 11.379 11.1799
13951 4616 5 -0.35 23.9424 11.1934 10.7078
14027 4642 5 -0.35 20.8236 19.9427 12.0095
14028 4642 6 0.7 20.1912 19.4609 11.1648
14029 4642 5 -0.35 19.5588 18.9791 10.3201
14039 4646 5 -0.35 9.71974 14.3668 2.14689
14040 4646 6 0.7 27.6066 15.4456 2.34203
14041 4646 5 -0.35 27.2274 16.5244 2.53717
14075 4658 5 -0.35 25.0994 12.2322 3.0725
14076 4658 6 0.7 25.0215 11.098 2.84193
14077 4658 5 -0.35 24.9436 9.96383 2.61136
14078 4659 5 -0.35 9.08056 5.8389 7.70919
14079 4659 6 0.7 9.94501 6.05578 8.45167
14080 4659 5 -0.35 10.8095 6.27267 9.19415
14081 4660 5 -0.35 15.5864 12.5496 1.14786
14082 4660 6 0.7 14.9826 13.5045 1.41081
14083 4660 5 -0.35 14.3788 14.4594 1.67376
14084 4661 5 -0.35 19.1021 10.7643 1.60359
14085 4661 6 0.7 18.0904 10.8235 2.16798
14086 4661 5 -0.35 17.0787 10.8828 2.73236
14090 4663 5 -0.35 11.2835 8.75843 12.6908
14091 4663 6 0.7 11.1573 9.11249 11.5933
14092 4663 5 -0.35 11.0311 9.46654 10.4959
14096 4665 5 -0.35 23.8224 20.1516 13.3797
14097 4665 6 0.7 23.6529 19.7002 12.3246
14098 4665 5 -0.35 23.4835 19.2489 11.2696
14120 4673 5 -0.35 14.3597 7.87555 5.59728
14121 4673 6 0.7 13.9814 8.95935 5.43022
14122 4673 5 -0.35 13.6032 10.0432 5.26316
14126 4675 5 -0.35 18.288 3.80553 0.533725
14127 4675 6 0.7 19.319 3.40445 0.882435
14128 4675 5 -0.35 20.3501 3.00336 1.23115
14132 4677 5 -0.35 22.5064 13.0163 7.26481
14133 4677 6 0.7 23.5236 13.4254 6.8859
14134 4677 5 -0.35 24.5408 13.8345 6.50699
14138 4679 5 -0.35 11.9111 16.9317 5.00107
14139 4679 6 0.7 20.7108 2.20303 4.78646
14140 4679 5 -0.35 20.3774 3.29318 4.57184
14141 4680 5 -0.35 13.9007 8.92215 8.62664
14142 4680 6 0.7 14.0587 8.3781 9.63888
14143 4680 5 -0.35 14.2167 7.83404 10.6511
14162 4687 5 -0.35 21.118 14.9009 10.0349
14163 4687 6 0.7 21.3552 15.4702 11.0174
14164 4687 5 -0.35 21.5923 16.0395 11.9998
14168 4689 5 -0.35 12.5776 13.9426 6.23265
14169 4689 6 0.7 13.5563 13.9866 5.61144
14170 4689 5 -0.35 14.5349 14.0307 4.99024
14174 4691 5 -0.35 16.1345 18.967 10.133
14175 4691 6 0.7 7.43554 4.21811 10.2447
14176 4691 5 -0.35 7.86959 5.28803 10.3564
14177 4692 5 -0.35 16.0008 15.7714 14.1711
14178 4692 6 0.7 15.9602 15.4775 13.0497
14179 4692 5 -0.35 15.9197 15.1835 11.9283
14180 4693 5 -0.35 12.8806 11.2894 2.51149
14181 4693 6 0.7 11.8598 10.9627 2.0679
14182 4693 5 -0.35 10.839 10.6359 1.62431
14183 4694 5 -0.35 15.5549 11.8682 8.72417
14184 4694 6 0.7 15.3187 12.9127 8.27815
14185 4694 5 -0.35 15.0826 13.9571 7.83213
14186 4695 5 -0.35 23.2417 5.99838 9.75079
14187 4695 6 0.7 23.6792 6.48428 8.79261
14188 4695 5 -0.35 24.1167 6.97017 7.83443
14189 4696 5 -0.35 19.641 9.58952 10.6407
14190 4696 6 0.7 19.4945 9.05908 9.61953
14191 4696 5 -0.35 19.3479 8.52864 8.59837
14192 4697 5 -0.35 21.7903 5.72732 13.432
14193 4697 6 0.7 21.4657 5.17087 12.4673
14194 4697 5 -0.35 21.1411 4.61441 11.5027
14195 4698 5 -0.35 18.6385 13.8091 11.1481
14196 4698 6 0.7 18.3876 13.5952 10.036
14197 4698 5 -0.35 18.1366 13.3813 8.92384
14198 4699 5 -0.35 20.6001 9.23392 3.82134
14199 4699 6 0.7 20.7033 8.14612 4.21074
14200 4699 5 -0.35 20.8065 7.05832 4.60014
14201 4700 5 -0.35 16.363 6.91437 7.61979
14202 4700 6 0.7 16.9177 6.06715 7.05401
14203 4700 5 -0.35 17.4725 5.21993 6.48823
ITEM: TIMESTEP
21000
ITEM: NUMBER OF ATOMS
160
ITEM: BOX BOUNDS xy xz yz pp pp pp
0.0000000000000000e+00 3.6531964750000000e+01 9.1329911900000003e+00
0.0000000000000000e+00 2.1091739680000000e+01 9.1329911900000003e+00
0.0000000000000000e+00 1.4914112149999999e+01 5.2729349200000000e+00
ITEM: ATOMS id mol type q x y z
1 1 1 1.10383 27.399 17.6496 10.5383
2 1 1 1.10383 9.13299 3.44217 4.3758
3 1 1 1.10383 27.399 15.8188 13.1274
4 1 1 1.10383 9.13299 5.27293 1.78671
5 1 1 1.10383 25.8135 14.9034 10.5383
6 1 1 1.10383 10.7185 6.18832 4.3758
7 1 1 1.10383 28.9845 14.9034 10.5383
8 1 1 1.10383 7.5475 6.18832 4.3758
9 1 2 0.115889 18.266 5.48596 12.6084
10 1 2 0.115889 18.266 15.6058 2.30572
11 1 2 0.115888 18.266 13.716 0.969417
12 1 2 0.115888 18.266 7.37578 13.9447
13 1 2 0.11589 25.3934 11.4908 8.12521
14 1 2 0.11589 11.1386 9.60096 6.7889
15 1 2 0.115888 11.1386 11.4908 8.12521
16 1 2 0.115888 25.3934 9.60096 6.7889
17 1 2 0.115889 15.5206 8.96083 0.969417
18 1 2 0.115889 21.0114 12.1309 13.9447
19 1 2 0.115888 22.648 13.0758 12.6084
20 1 2 0.115888 13.884 8.01592 2.30572
21 1 2 0.115889 21.0114 3.90092 8.12521
22 1 2 0.115889 15.5206 17.1908 6.7889
23 1 2 0.115887 13.884 16.2459 8.12521
24 1 2 0.115887 22.648 4.84583 6.7889
25 1 2 0.115889 22.648 16.2459 8.12521
26 1 2 0.115889 13.884 4.84583 6.7889
27 1 2 0.115887 15.5206 3.90092 8.12521
28 1 2 0.115887 21.0114 17.1908 6.7889
29 1 2 0.115889 21.0114 8.96083 0.969417
30 1 2 0.115889 15.5206 12.1309 13.9447
31 1 2 0.115887 13.884 13.0758 12.6084
32 1 2 0.115887 22.648 8.01592 2.30572
33 1 3 0.671939 27.399 18.7442 13.2542
34 1 3 0.671939 9.13299 2.34751 1.65994
35 1 3 0.671939 27.399 12.8934 9.117
36 1 3 0.671939 9.13299 8.19836 5.79712
37 1 3 0.67194 24.8655 14.3561 13.2542
38 1 3 0.67194 11.6665 6.73565 1.65994
39 1 3 0.67194 29.9325 17.2815 9.117
40 1 3 0.67194 6.5995 3.81022 5.79712
41 1 3 0.67194 24.8655 17.2815 9.117
42 1 3 0.67194 11.6665 3.81022 5.79712
43 1 3 0.67194 29.9325 14.3561 13.2542
44 1 3 0.67194 6.5995 6.73565 1.65994
45 1 3 -0.11508 27.399 19.957 14.1117
46 1 3 -0.11508 9.13299 1.13474 0.802379
47 1 3 -0.11508 27.399 11.6806 8.25944
48 1 3 -0.11508 9.13299 9.41113 6.65468
49 1 3 -0.11508 23.8152 13.7497 14.1117
50 1 3 -0.11508 12.7168 7.34203 0.802379
51 1 3 -0.11508 30.9828 17.8879 8.25944
52 1 3 -0.11508 5.54921 3.20384 6.65468
53 1 3 -0.11508 23.8152 17.8879 8.25944
54 1 3 -0.11508 12.7168 3.20384 6.65468
55 1 3 -0.11508 30.9828 13.7497 14.1117
56 1 3 -0.11508 5.54921 7.34203 0.802379
57 1 3 -0.0559 18.266 5.39949 13.5316
58 1 3 -0.0559 18.266 15.6923 1.38254
59 1 3 -0.055903 18.266 14.5575 0.580159
60 1 3 -0.055903 18.266 6.53422 14.334
61 1 3 -0.0559 26.1971 11.1132 7.85825
62 1 3 -0.0559 10.3349 9.9785 7.05587
63 1 3 -0.055903 10.3349 11.1132 7.85825
64 1 3 -0.055903 26.1971 9.9785 7.05587
65 1 3 -0.0559 14.7918 8.54005 0.580159
66 1 3 -0.0559 21.7402 12.5517 14.334
67 1 3 -0.055903 22.7229 13.1191 13.5316
68 1 3 -0.055903 13.8091 7.97268 1.38254
69 1 3 -0.0559 21.7402 3.39366 7.85825
70 1 3 -0.0559 14.7918 17.6981 7.05587
71 1 3 -0.055903 13.8091 17.1307 7.85825
72 1 3 -0.055903 22.7229 3.96103 7.05587
73 1 3 -0.055901 22.7229 17.1307 7.85825
74 1 3 -0.055901 13.8091 3.96103 7.05587
75 1 3 -0.055903 14.7918 3.39366 7.85825
76 1 3 -0.055903 21.7402 17.6981 7.05587
77 1 3 -0.0559 21.7402 8.54005 0.580159
78 1 3 -0.0559 14.7918 12.5517 14.334
79 1 3 -0.055903 13.8091 13.1191 13.5316
80 1 3 -0.055903 22.7229 7.97268 1.38254
81 1 4 -1.26215 27.399 15.8188 11.1856
82 1 4 -1.26215 9.13299 5.27293 3.72853
83 1 4 -0.60118 27.399 18.9383 11.9641
84 1 4 -0.60118 9.13299 2.15347 2.95001
85 1 4 -0.601179 27.399 17.5926 13.8671
86 1 4 -0.601179 9.13299 3.49912 1.04697
87 1 4 -0.601179 26.2336 13.3722 9.45555
88 1 4 -0.601179 10.2984 7.71958 5.45857
89 1 4 -0.60118 28.5643 13.3722 9.45555
90 1 4 -0.60118 7.96762 7.71958 5.45857
91 1 4 -0.60118 25.8628 14.9319 13.8671
92 1 4 -0.60118 10.6692 6.15984 1.04697
93 1 4 -0.601179 24.6974 14.2591 11.9641
94 1 4 -0.601179 11.8345 6.83267 2.95001
95 1 4 -0.60118 28.9351 18.0514 9.45555
96 1 4 -0.60118 7.59682 3.04037 5.45857
97 1 4 -0.601179 30.1005 16.0329 9.45555
98 1 4 -0.601179 6.43145 5.05885 5.45857
99 1 4 -0.601179 24.6974 16.0329 9.45555
100 1 4 -0.601179 11.8345 5.05885 5.45857
101 1 4 -0.60118 25.8628 18.0514 9.45555
102 1 4 -0.60118 10.6692 3.04037 5.45857
103 1 4 -0.60118 28.9351 14.9319 13.8671
104 1 4 -0.60118 7.59682 6.15984 1.04697
105 1 4 -0.60118 30.1005 14.2591 11.9641
106 1 4 -0.60118 6.43145 6.83267 2.95001
14282 4727 5 -0.35 12.1508 2.20132 1.35657
14283 4727 6 0.7 11.9924 2.77061 0.358352
14284 4727 5 -0.35 20.9671 8.61283 14.2742
14297 4732 5 -0.35 27.0447 17.3814 5.40855
14298 4732 6 0.7 26.6152 16.4585 4.85228
14299 4732 5 -0.35 26.1856 15.5357 4.29602
14459 4786 5 -0.35 24.963 14.2026 6.40124
14460 4786 6 0.7 24.008 13.7008 5.97497
14461 4786 5 -0.35 23.0529 13.199 5.5487
14588 4829 5 -0.35 17.6331 6.74056 2.95862
14589 4829 6 0.7 18.728 6.38687 2.81165
14590 4829 5 -0.35 19.823 6.03319 2.66468
14591 4830 5 -0.35 11.6483 10.7309 4.21932
14592 4830 6 0.7 10.6578 11.3304 4.29188
14593 4830 5 -0.35 9.66733 11.9298 4.36445
14639 4846 5 -0.35 21.8907 11.5839 0.403308
14640 4846 6 0.7 30.7766 17.1071 14.212
14641 4846 5 -0.35 30.5295 17.3573 13.1066
14666 4855 5 -0.35 18.0077 15.9859 13.579
14667 4855 6 0.7 18.5371 16.0087 14.6109
14668 4855 5 -0.35 9.93347 10.7585 0.728693
14684 4861 5 -0.35 25.4191 11.8761 1.55194
14685 4861 6 0.7 24.8737 12.8985 1.60486
14686 4861 5 -0.35 24.3282 13.9209 1.65777
14690 4863 5 -0.35 22.3934 7.29645 7.2835
14691 4863 6 0.7 21.7821 7.67343 6.37259
14692 4863 5 -0.35 21.1708 8.05042 5.46168
14702 4867 5 -0.35 21.2785 15.363 4.05318
14703 4867 6 0.7 20.2953 14.9941 4.54587
14704 4867 5 -0.35 19.312 14.6252 5.03856
14741 4880 5 -0.35 15.0763 16.2467 12.5728
14742 4880 6 0.7 15.1743 15.7226 11.5426
14743 4880 5 -0.35 15.2723 15.1985 10.5124
14750 4883 5 -0.35 6.05369 1.08215 0.661124
14751 4883 6 0.7 15.1788 7.19759 14.7779
14752 4883 5 -0.35 15.171 8.04009 13.9806
14756 4885 5 -0.35 28.3765 11.979 14.4638
14757 4885 6 0.7 27.8865 12.3943 13.4979
14758 4885 5 -0.35 27.3966 12.8096 12.5319
14771 4890 5 -0.35 11.1737 15.9593 3.72742
14772 4890 6 0.7 12.2849 16.067 4.04222
14773 4890 5 -0.35 13.3962 16.1747 4.35702
14774 4891 5 -0.35 13.6878 13.4111 0.376014
14775 4891 6 0.7 14.0115 12.4652 0.964303
14776 4891 5 -0.35 14.3351 11.5193 1.55259
14777 4892 5 -0.35 12.6273 8.61948 9.70025
14778 4892 6 0.7 12.4533 9.22816 10.6723
14779 4892 5 -0.35 12.2793 9.83685 11.6443
14780 4893 5 -0.35 16.1414 6.20103 9.82342
14781 4893 6 0.7 17.0869 6.87301 9.82245
14782 4893 5 -0.35 18.0324 7.54498 9.82148
14783 4894 5 -0.35 16.6891 3.78297 4.06424
14784 4894 6 0.7 17.6338 4.10393 4.65603
14785 4894 5 -0.35 18.5784 4.42489 5.24781
ITEM: TIMESTEP
22000
ITEM: NUMBER OF ATOMS
169
ITEM: BOX BOUNDS xy xz yz pp pp pp
0.0000000000000000e+00 3.6531964750000000e+01 9.1329911900000003e+00
0.0000000000000000e+00 2.1091739680000000e+01 9.1329911900000003e+00
0.0000000000000000e+00 1.4914112149999999e+01 5.2729349200000000e+00
ITEM: ATOMS id mol type q x y z
1 1 1 1.10383 27.399 17.6496 10.5383
2 1 1 1.10383 9.13299 3.44217 4.3758
3 1 1 1.10383 27.399 15.8188 13.1274
4 1 1 1.10383 9.13299 5.27293 1.78671
5 1 1 1.10383 25.8135 14.9034 10.5383
6 1 1 1.10383 10.7185 6.18832 4.3758
7 1 1 1.10383 28.9845 14.9034 10.5383
8 1 1 1.10383 7.5475 6.18832 4.3758
9 1 2 0.115889 18.266 5.48596 12.6084
10 1 2 0.115889 18.266 15.6058 2.30572
11 1 2 0.115888 18.266 13.716 0.969417
12 1 2 0.115888 18.266 7.37578 13.9447
13 1 2 0.11589 25.3934 11.4908 8.12521
14 1 2 0.11589 11.1386 9.60096 6.7889
15 1 2 0.115888 11.1386 11.4908 8.12521
16 1 2 0.115888 25.3934 9.60096 6.7889
17 1 2 0.115889 15.5206 8.96083 0.969417
18 1 2 0.115889 21.0114 12.1309 13.9447
19 1 2 0.115888 22.648 13.0758 12.6084
20 1 2 0.115888 13.884 8.01592 2.30572
21 1 2 0.115889 21.0114 3.90092 8.12521
22 1 2 0.115889 15.5206 17.1908 6.7889
23 1 2 0.115887 13.884 16.2459 8.12521
24 1 2 0.115887 22.648 4.84583 6.7889
25 1 2 0.115889 22.648 16.2459 8.12521
26 1 2 0.115889 13.884 4.84583 6.7889
27 1 2 0.115887 15.5206 3.90092 8.12521
28 1 2 0.115887 21.0114 17.1908 6.7889
29 1 2 0.115889 21.0114 8.96083 0.969417
30 1 2 0.115889 15.5206 12.1309 13.9447
31 1 2 0.115887 13.884 13.0758 12.6084
32 1 2 0.115887 22.648 8.01592 2.30572
33 1 3 0.671939 27.399 18.7442 13.2542
34 1 3 0.671939 9.13299 2.34751 1.65994
35 1 3 0.671939 27.399 12.8934 9.117
36 1 3 0.671939 9.13299 8.19836 5.79712
37 1 3 0.67194 24.8655 14.3561 13.2542
38 1 3 0.67194 11.6665 6.73565 1.65994
39 1 3 0.67194 29.9325 17.2815 9.117
40 1 3 0.67194 6.5995 3.81022 5.79712
41 1 3 0.67194 24.8655 17.2815 9.117
42 1 3 0.67194 11.6665 3.81022 5.79712
43 1 3 0.67194 29.9325 14.3561 13.2542
44 1 3 0.67194 6.5995 6.73565 1.65994
45 1 3 -0.11508 27.399 19.957 14.1117
46 1 3 -0.11508 9.13299 1.13474 0.802379
47 1 3 -0.11508 27.399 11.6806 8.25944
48 1 3 -0.11508 9.13299 9.41113 6.65468
49 1 3 -0.11508 23.8152 13.7497 14.1117
50 1 3 -0.11508 12.7168 7.34203 0.802379
51 1 3 -0.11508 30.9828 17.8879 8.25944
52 1 3 -0.11508 5.54921 3.20384 6.65468
53 1 3 -0.11508 23.8152 17.8879 8.25944
54 1 3 -0.11508 12.7168 3.20384 6.65468
55 1 3 -0.11508 30.9828 13.7497 14.1117
56 1 3 -0.11508 5.54921 7.34203 0.802379
57 1 3 -0.0559 18.266 5.39949 13.5316
58 1 3 -0.0559 18.266 15.6923 1.38254
59 1 3 -0.055903 18.266 14.5575 0.580159
60 1 3 -0.055903 18.266 6.53422 14.334
61 1 3 -0.0559 26.1971 11.1132 7.85825
62 1 3 -0.0559 10.3349 9.9785 7.05587
63 1 3 -0.055903 10.3349 11.1132 7.85825
64 1 3 -0.055903 26.1971 9.9785 7.05587
65 1 3 -0.0559 14.7918 8.54005 0.580159
66 1 3 -0.0559 21.7402 12.5517 14.334
67 1 3 -0.055903 22.7229 13.1191 13.5316
68 1 3 -0.055903 13.8091 7.97268 1.38254
69 1 3 -0.0559 21.7402 3.39366 7.85825
70 1 3 -0.0559 14.7918 17.6981 7.05587
71 1 3 -0.055903 13.8091 17.1307 7.85825
72 1 3 -0.055903 22.7229 3.96103 7.05587
73 1 3 -0.055901 22.7229 17.1307 7.85825
74 1 3 -0.055901 13.8091 3.96103 7.05587
75 1 3 -0.055903 14.7918 3.39366 7.85825
76 1 3 -0.055903 21.7402 17.6981 7.05587
77 1 3 -0.0559 21.7402 8.54005 0.580159
78 1 3 -0.0559 14.7918 12.5517 14.334
79 1 3 -0.055903 13.8091 13.1191 13.5316
80 1 3 -0.055903 22.7229 7.97268 1.38254
81 1 4 -1.26215 27.399 15.8188 11.1856
82 1 4 -1.26215 9.13299 5.27293 3.72853
83 1 4 -0.60118 27.399 18.9383 11.9641
84 1 4 -0.60118 9.13299 2.15347 2.95001
85 1 4 -0.601179 27.399 17.5926 13.8671
86 1 4 -0.601179 9.13299 3.49912 1.04697
87 1 4 -0.601179 26.2336 13.3722 9.45555
88 1 4 -0.601179 10.2984 7.71958 5.45857
89 1 4 -0.60118 28.5643 13.3722 9.45555
90 1 4 -0.60118 7.96762 7.71958 5.45857
91 1 4 -0.60118 25.8628 14.9319 13.8671
92 1 4 -0.60118 10.6692 6.15984 1.04697
93 1 4 -0.601179 24.6974 14.2591 11.9641
94 1 4 -0.601179 11.8345 6.83267 2.95001
95 1 4 -0.60118 28.9351 18.0514 9.45555
96 1 4 -0.60118 7.59682 3.04037 5.45857
97 1 4 -0.601179 30.1005 16.0329 9.45555
98 1 4 -0.601179 6.43145 5.05885 5.45857
99 1 4 -0.601179 24.6974 16.0329 9.45555
100 1 4 -0.601179 11.8345 5.05885 5.45857
101 1 4 -0.60118 25.8628 18.0514 9.45555
102 1 4 -0.60118 10.6692 3.04037 5.45857
103 1 4 -0.60118 28.9351 14.9319 13.8671
104 1 4 -0.60118 7.59682 6.15984 1.04697
105 1 4 -0.60118 30.1005 14.2591 11.9641
106 1 4 -0.60118 6.43145 6.83267 2.95001
14849 4916 5 -0.35 21.4814 19.3613 12.7651
14850 4916 6 0.7 12.6864 4.56786 12.3408
14851 4916 5 -0.35 13.0245 5.5932 11.9166
15095 4998 5 -0.35 6.19551 3.19005 0.429531
15096 4998 6 0.7 15.1104 7.49566 14.7417
15097 4998 5 -0.35 14.8922 6.52833 14.1398
15308 5069 5 -0.35 18.1682 2.70869 5.91141
15309 5069 6 0.7 18.9523 2.22909 5.20375
15310 5069 5 -0.35 19.7364 1.74948 4.49609
15506 5135 5 -0.35 21.5349 5.12317 1.13959
15507 5135 6 0.7 20.5696 5.41251 0.565026
15508 5135 5 -0.35 28.7374 10.9748 14.9046
15530 5143 5 -0.35 26.2471 10.4659 11.2941
15531 5143 6 0.7 26.6108 11.304 12.0088
15532 5143 5 -0.35 26.9745 12.1422 12.7235
15566 5155 5 -0.35 11.2675 10.3831 0.593124
15567 5155 6 0.7 21.2066 16.025 14.7591
15568 5155 5 -0.35 22.0127 16.3939 14.0109
15569 5156 5 -0.35 12.0854 0.625797 1.26722
15570 5156 6 0.7 21.4147 15.7484 0.360353
15571 5156 5 -0.35 30.744 20.3252 14.3676
15581 5160 5 -0.35 27.7845 15.741 7.13101
15582 5160 6 0.7 27.7735 15.0636 6.18939
15583 5160 5 -0.35 27.7625 14.3862 5.24777
15584 5161 5 -0.35 24.4726 17.5163 12.738
15585 5161 6 0.7 24.3618 18.2869 13.598
15586 5161 5 -0.35 24.2511 19.0575 14.4579
15587 5162 5 -0.35 16.9476 5.80059 2.34189
15588 5162 6 0.7 17.6153 4.85878 2.22855
15589 5162 5 -0.35 18.2829 3.91696 2.11521
15629 5176 5 -0.35 9.60452 5.13684 13.1487
15630 5176 6 0.7 9.03642 5.34683 14.138
15631 5176 5 -0.35 17.6013 0.283883 0.213227
15635 5178 5 -0.35 13.3947 15.4032 3.8234
15636 5178 6 0.7 13.0533 15.9532 2.86083
15637 5178 5 -0.35 3.5789 0.684344 1.89825
15650 5183 5 -0.35 27.767 8.12968 12.4932
15651 5183 6 0.7 9.43157 7.9551 11.3486
15652 5183 5 -0.35 9.3621 7.78052 10.2039
15665 5188 5 -0.35 24.4484 9.93588 13.8814
15666 5188 6 0.7 24.6382 8.81624 13.6448
15667 5188 5 -0.35 24.828 7.6966 13.4082
15668 5189 5 -0.35 12.2025 11.3876 11.031
15669 5189 6 0.7 12.9709 11.1206 10.2041
15670 5189 5 -0.35 13.7394 10.8536 9.37716
15671 5190 5 -0.35 12.9609 3.99674 2.7243
15672 5190 6 0.7 13.1327 3.71399 1.61248
15673 5190 5 -0.35 13.3045 3.43123 0.500659
15674 5191 5 -0.35 21.8686 4.07253 11.4879
15675 5191 6 0.7 31.1659 18.755 11.6533
15676 5191 5 -0.35 31.3302 17.6187 11.8187
15680 5193 5 -0.35 23.5712 7.15301 10.5067
15681 5193 6 0.7 23.5576 7.31706 9.35841
15682 5193 5 -0.35 23.544 7.4811 8.21015
15683 5194 5 -0.35 16.4563 11.171 1.84419
15684 5194 6 0.7 16.5099 12.0472 2.60248
15685 5194 5 -0.35 16.5635 12.9234 3.36078
15686 5195 5 -0.35 18.03 5.89982 9.97688
15687 5195 6 0.7 17.9432 5.66071 8.84512
15688 5195 5 -0.35 17.8565 5.42159 7.71335
15689 5196 5 -0.35 15.548 13.7792 10.6077
15690 5196 6 0.7 15.402 13.3775 9.52927
15691 5196 5 -0.35 15.2561 12.9759 8.45086
ITEM: TIMESTEP
23000
ITEM: NUMBER OF ATOMS
184
ITEM: BOX BOUNDS xy xz yz pp pp pp
0.0000000000000000e+00 3.6531964750000000e+01 9.1329911900000003e+00
0.0000000000000000e+00 2.1091739680000000e+01 9.1329911900000003e+00
0.0000000000000000e+00 1.4914112149999999e+01 5.2729349200000000e+00
ITEM: ATOMS id mol type q x y z
1 1 1 1.10383 27.399 17.6496 10.5383
2 1 1 1.10383 9.13299 3.44217 4.3758
3 1 1 1.10383 27.399 15.8188 13.1274
4 1 1 1.10383 9.13299 5.27293 1.78671
5 1 1 1.10383 25.8135 14.9034 10.5383
6 1 1 1.10383 10.7185 6.18832 4.3758
7 1 1 1.10383 28.9845 14.9034 10.5383
8 1 1 1.10383 7.5475 6.18832 4.3758
9 1 2 0.115889 18.266 5.48596 12.6084
10 1 2 0.115889 18.266 15.6058 2.30572
11 1 2 0.115888 18.266 13.716 0.969417
12 1 2 0.115888 18.266 7.37578 13.9447
13 1 2 0.11589 25.3934 11.4908 8.12521
14 1 2 0.11589 11.1386 9.60096 6.7889
15 1 2 0.115888 11.1386 11.4908 8.12521
16 1 2 0.115888 25.3934 9.60096 6.7889
17 1 2 0.115889 15.5206 8.96083 0.969417
18 1 2 0.115889 21.0114 12.1309 13.9447
19 1 2 0.115888 22.648 13.0758 12.6084
20 1 2 0.115888 13.884 8.01592 2.30572
21 1 2 0.115889 21.0114 3.90092 8.12521
22 1 2 0.115889 15.5206 17.1908 6.7889
23 1 2 0.115887 13.884 16.2459 8.12521
24 1 2 0.115887 22.648 4.84583 6.7889
25 1 2 0.115889 22.648 16.2459 8.12521
26 1 2 0.115889 13.884 4.84583 6.7889
27 1 2 0.115887 15.5206 3.90092 8.12521
28 1 2 0.115887 21.0114 17.1908 6.7889
29 1 2 0.115889 21.0114 8.96083 0.969417
30 1 2 0.115889 15.5206 12.1309 13.9447
31 1 2 0.115887 13.884 13.0758 12.6084
32 1 2 0.115887 22.648 8.01592 2.30572
33 1 3 0.671939 27.399 18.7442 13.2542
34 1 3 0.671939 9.13299 2.34751 1.65994
35 1 3 0.671939 27.399 12.8934 9.117
36 1 3 0.671939 9.13299 8.19836 5.79712
37 1 3 0.67194 24.8655 14.3561 13.2542
38 1 3 0.67194 11.6665 6.73565 1.65994
39 1 3 0.67194 29.9325 17.2815 9.117
40 1 3 0.67194 6.5995 3.81022 5.79712
41 1 3 0.67194 24.8655 17.2815 9.117
42 1 3 0.67194 11.6665 3.81022 5.79712
43 1 3 0.67194 29.9325 14.3561 13.2542
44 1 3 0.67194 6.5995 6.73565 1.65994
45 1 3 -0.11508 27.399 19.957 14.1117
46 1 3 -0.11508 9.13299 1.13474 0.802379
47 1 3 -0.11508 27.399 11.6806 8.25944
48 1 3 -0.11508 9.13299 9.41113 6.65468
49 1 3 -0.11508 23.8152 13.7497 14.1117
50 1 3 -0.11508 12.7168 7.34203 0.802379
51 1 3 -0.11508 30.9828 17.8879 8.25944
52 1 3 -0.11508 5.54921 3.20384 6.65468
53 1 3 -0.11508 23.8152 17.8879 8.25944
54 1 3 -0.11508 12.7168 3.20384 6.65468
55 1 3 -0.11508 30.9828 13.7497 14.1117
56 1 3 -0.11508 5.54921 7.34203 0.802379
57 1 3 -0.0559 18.266 5.39949 13.5316
58 1 3 -0.0559 18.266 15.6923 1.38254
59 1 3 -0.055903 18.266 14.5575 0.580159
60 1 3 -0.055903 18.266 6.53422 14.334
61 1 3 -0.0559 26.1971 11.1132 7.85825
62 1 3 -0.0559 10.3349 9.9785 7.05587
63 1 3 -0.055903 10.3349 11.1132 7.85825
64 1 3 -0.055903 26.1971 9.9785 7.05587
65 1 3 -0.0559 14.7918 8.54005 0.580159
66 1 3 -0.0559 21.7402 12.5517 14.334
67 1 3 -0.055903 22.7229 13.1191 13.5316
68 1 3 -0.055903 13.8091 7.97268 1.38254
69 1 3 -0.0559 21.7402 3.39366 7.85825
70 1 3 -0.0559 14.7918 17.6981 7.05587
71 1 3 -0.055903 13.8091 17.1307 7.85825
72 1 3 -0.055903 22.7229 3.96103 7.05587
73 1 3 -0.055901 22.7229 17.1307 7.85825
74 1 3 -0.055901 13.8091 3.96103 7.05587
75 1 3 -0.055903 14.7918 3.39366 7.85825
76 1 3 -0.055903 21.7402 17.6981 7.05587
77 1 3 -0.0559 21.7402 8.54005 0.580159
78 1 3 -0.0559 14.7918 12.5517 14.334
79 1 3 -0.055903 13.8091 13.1191 13.5316
80 1 3 -0.055903 22.7229 7.97268 1.38254
81 1 4 -1.26215 27.399 15.8188 11.1856
82 1 4 -1.26215 9.13299 5.27293 3.72853
83 1 4 -0.60118 27.399 18.9383 11.9641
84 1 4 -0.60118 9.13299 2.15347 2.95001
85 1 4 -0.601179 27.399 17.5926 13.8671
86 1 4 -0.601179 9.13299 3.49912 1.04697
87 1 4 -0.601179 26.2336 13.3722 9.45555
88 1 4 -0.601179 10.2984 7.71958 5.45857
89 1 4 -0.60118 28.5643 13.3722 9.45555
90 1 4 -0.60118 7.96762 7.71958 5.45857
91 1 4 -0.60118 25.8628 14.9319 13.8671
92 1 4 -0.60118 10.6692 6.15984 1.04697
93 1 4 -0.601179 24.6974 14.2591 11.9641
94 1 4 -0.601179 11.8345 6.83267 2.95001
95 1 4 -0.60118 28.9351 18.0514 9.45555
96 1 4 -0.60118 7.59682 3.04037 5.45857
97 1 4 -0.601179 30.1005 16.0329 9.45555
98 1 4 -0.601179 6.43145 5.05885 5.45857
99 1 4 -0.601179 24.6974 16.0329 9.45555
100 1 4 -0.601179 11.8345 5.05885 5.45857
101 1 4 -0.60118 25.8628 18.0514 9.45555
102 1 4 -0.60118 10.6692 3.04037 5.45857
103 1 4 -0.60118 28.9351 14.9319 13.8671
104 1 4 -0.60118 7.59682 6.15984 1.04697
105 1 4 -0.60118 30.1005 14.2591 11.9641
106 1 4 -0.60118 6.43145 6.83267 2.95001
15569 5156 5 -0.35 12.5204 0.566502 1.57303
15570 5156 6 0.7 21.6374 15.5708 0.747257
15571 5156 5 -0.35 30.7545 20.0292 14.8356
15674 5191 5 -0.35 21.0562 4.16777 11.2836
15675 5191 6 0.7 30.355 18.9975 11.8667
15676 5191 5 -0.35 30.5207 18.0085 12.4497
15905 5268 5 -0.35 18.1392 12.8497 13.1493
15906 5268 6 0.7 18.1106 11.6949 13.0431
15907 5268 5 -0.35 18.0821 10.5402 12.9369
15980 5293 5 -0.35 19.7271 8.31312 11.2385
15981 5293 6 0.7 20.2552 9.33249 11.4046
15982 5293 5 -0.35 20.7833 10.3519 11.5706
16022 5307 5 -0.35 17.2435 5.62124 0.0851097
16023 5307 6 0.7 25.5453 10.348 14.4022
16024 5307 5 -0.35 24.7141 9.80179 13.8052
16073 5324 5 -0.35 24.7231 17.8608 12.15
16074 5324 6 0.7 23.7229 18.4282 12.3027
16075 5324 5 -0.35 22.7228 18.9956 12.4555
16082 5327 5 -0.35 15.6596 12.3333 10.4268
16083 5327 6 0.7 15.4794 13.1539 9.62687
16084 5327 5 -0.35 15.2992 13.9744 8.82698
16127 5342 5 -0.35 15.3416 16.1147 1.87519
16128 5342 6 0.7 15.3001 16.3148 3.01704
16129 5342 5 -0.35 15.2586 16.515 4.15889
16136 5345 5 -0.35 15.5555 9.22398 13.1088
16137 5345 6 0.7 15.3248 8.77823 14.1545
16138 5345 5 -0.35 5.96109 3.05955 0.286231
16139 5346 5 -0.35 26.9362 16.5004 7.1946
16140 5346 6 0.7 27.0595 17.582 6.79375
16141 5346 5 -0.35 18.0497 2.84469 6.39289
16244 5381 5 -0.35 14.5884 13.8239 5.89927
16245 5381 6 0.7 15.0828 12.7863 6.05618
16246 5381 5 -0.35 15.5771 11.7487 6.2131
16256 5385 5 -0.35 14.9919 6.15375 9.45227
16257 5385 6 0.7 15.3207 6.12845 10.5644
16258 5385 5 -0.35 15.6495 6.10316 11.6765
16292 5397 5 -0.35 19.933 19.2333 10.1962
16293 5397 6 0.7 11.666 4.14288 9.94105
16294 5397 5 -0.35 12.532 4.87125 9.68591
16295 5398 5 -0.35 7.95188 5.40975 7.96524
16296 5398 6 0.7 7.09534 5.53413 8.73754
16297 5398 5 -0.35 24.5048 5.65851 9.50985
16316 5405 5 -0.35 19.42 19.029 14.2022
16317 5405 6 0.7 19.5024 19.8854 13.4241
16318 5405 5 -0.35 10.4517 4.923 12.646
16322 5407 5 -0.35 13.1378 9.54945 5.16148
16323 5407 6 0.7 12.3747 9.70216 4.30126
16324 5407 5 -0.35 11.6116 9.85488 3.44104
16331 5410 5 -0.35 17.5706 14.4437 5.91493
16332 5410 6 0.7 18.6689 14.8137 5.86538
16333 5410 5 -0.35 19.7672 15.1836 5.81583
16334 5411 5 -0.35 25.3049 13.0733 0.198773
16335 5411 6 0.7 24.4397 12.3018 0.238817
16336 5411 5 -0.35 23.5745 11.5302 0.278862
16343 5414 5 -0.35 19.1955 15.5411 14.4868
16344 5414 6 0.7 19.4984 15.3437 13.3846
16345 5414 5 -0.35 19.8014 15.1463 12.2824
16349 5416 5 -0.35 15.2647 12.5561 0.678247
16350 5416 6 0.7 14.6705 12.4127 1.66412
16351 5416 5 -0.35 14.0763 12.2692 2.65
16352 5417 5 -0.35 17.5063 6.83069 8.8605
16353 5417 6 0.7 17.654 7.06891 7.73488
16354 5417 5 -0.35 17.8017 7.30713 6.60925
16355 5418 5 -0.35 23.1917 12.4379 5.24468
16356 5418 6 0.7 23.8153 12.0431 4.34973
16357 5418 5 -0.35 24.4389 11.6484 3.45477
16358 5419 5 -0.35 17.44 16.7238 11.2695
16359 5419 6 0.7 17.8254 16.2302 10.2931
16360 5419 5 -0.35 18.2108 15.7366 9.31666
16370 5423 5 -0.35 21.0521 9.09389 8.88645
16371 5423 6 0.7 20.8379 8.02734 8.48375
16372 5423 5 -0.35 20.6236 6.96078 8.08105
16373 5424 5 -0.35 20.3656 6.19704 4.22268
16374 5424 6 0.7 19.8028 7.07096 3.70778
16375 5424 5 -0.35 19.24 7.94488 3.19288
16376 5425 5 -0.35 16.6294 5.77407 4.36723
16377 5425 6 0.7 16.0523 5.86878 3.36539
16378 5425 5 -0.35 15.4753 5.96349 2.36355
ITEM: TIMESTEP
24000
ITEM: NUMBER OF ATOMS
154
ITEM: BOX BOUNDS xy xz yz pp pp pp
0.0000000000000000e+00 3.6531964750000000e+01 9.1329911900000003e+00
0.0000000000000000e+00 2.1091739680000000e+01 9.1329911900000003e+00
0.0000000000000000e+00 1.4914112149999999e+01 5.2729349200000000e+00
ITEM: ATOMS id mol type q x y z
1 1 1 1.10383 27.399 17.6496 10.5383
2 1 1 1.10383 9.13299 3.44217 4.3758
3 1 1 1.10383 27.399 15.8188 13.1274
4 1 1 1.10383 9.13299 5.27293 1.78671
5 1 1 1.10383 25.8135 14.9034 10.5383
6 1 1 1.10383 10.7185 6.18832 4.3758
7 1 1 1.10383 28.9845 14.9034 10.5383
8 1 1 1.10383 7.5475 6.18832 4.3758
9 1 2 0.115889 18.266 5.48596 12.6084
10 1 2 0.115889 18.266 15.6058 2.30572
11 1 2 0.115888 18.266 13.716 0.969417
12 1 2 0.115888 18.266 7.37578 13.9447
13 1 2 0.11589 25.3934 11.4908 8.12521
14 1 2 0.11589 11.1386 9.60096 6.7889
15 1 2 0.115888 11.1386 11.4908 8.12521
16 1 2 0.115888 25.3934 9.60096 6.7889
17 1 2 0.115889 15.5206 8.96083 0.969417
18 1 2 0.115889 21.0114 12.1309 13.9447
19 1 2 0.115888 22.648 13.0758 12.6084
20 1 2 0.115888 13.884 8.01592 2.30572
21 1 2 0.115889 21.0114 3.90092 8.12521
22 1 2 0.115889 15.5206 17.1908 6.7889
23 1 2 0.115887 13.884 16.2459 8.12521
24 1 2 0.115887 22.648 4.84583 6.7889
25 1 2 0.115889 22.648 16.2459 8.12521
26 1 2 0.115889 13.884 4.84583 6.7889
27 1 2 0.115887 15.5206 3.90092 8.12521
28 1 2 0.115887 21.0114 17.1908 6.7889
29 1 2 0.115889 21.0114 8.96083 0.969417
30 1 2 0.115889 15.5206 12.1309 13.9447
31 1 2 0.115887 13.884 13.0758 12.6084
32 1 2 0.115887 22.648 8.01592 2.30572
33 1 3 0.671939 27.399 18.7442 13.2542
34 1 3 0.671939 9.13299 2.34751 1.65994
35 1 3 0.671939 27.399 12.8934 9.117
36 1 3 0.671939 9.13299 8.19836 5.79712
37 1 3 0.67194 24.8655 14.3561 13.2542
38 1 3 0.67194 11.6665 6.73565 1.65994
39 1 3 0.67194 29.9325 17.2815 9.117
40 1 3 0.67194 6.5995 3.81022 5.79712
41 1 3 0.67194 24.8655 17.2815 9.117
42 1 3 0.67194 11.6665 3.81022 5.79712
43 1 3 0.67194 29.9325 14.3561 13.2542
44 1 3 0.67194 6.5995 6.73565 1.65994
45 1 3 -0.11508 27.399 19.957 14.1117
46 1 3 -0.11508 9.13299 1.13474 0.802379
47 1 3 -0.11508 27.399 11.6806 8.25944
48 1 3 -0.11508 9.13299 9.41113 6.65468
49 1 3 -0.11508 23.8152 13.7497 14.1117
50 1 3 -0.11508 12.7168 7.34203 0.802379
51 1 3 -0.11508 30.9828 17.8879 8.25944
52 1 3 -0.11508 5.54921 3.20384 6.65468
53 1 3 -0.11508 23.8152 17.8879 8.25944
54 1 3 -0.11508 12.7168 3.20384 6.65468
55 1 3 -0.11508 30.9828 13.7497 14.1117
56 1 3 -0.11508 5.54921 7.34203 0.802379
57 1 3 -0.0559 18.266 5.39949 13.5316
58 1 3 -0.0559 18.266 15.6923 1.38254
59 1 3 -0.055903 18.266 14.5575 0.580159
60 1 3 -0.055903 18.266 6.53422 14.334
61 1 3 -0.0559 26.1971 11.1132 7.85825
62 1 3 -0.0559 10.3349 9.9785 7.05587
63 1 3 -0.055903 10.3349 11.1132 7.85825
64 1 3 -0.055903 26.1971 9.9785 7.05587
65 1 3 -0.0559 14.7918 8.54005 0.580159
66 1 3 -0.0559 21.7402 12.5517 14.334
67 1 3 -0.055903 22.7229 13.1191 13.5316
68 1 3 -0.055903 13.8091 7.97268 1.38254
69 1 3 -0.0559 21.7402 3.39366 7.85825
70 1 3 -0.0559 14.7918 17.6981 7.05587
71 1 3 -0.055903 13.8091 17.1307 7.85825
72 1 3 -0.055903 22.7229 3.96103 7.05587
73 1 3 -0.055901 22.7229 17.1307 7.85825
74 1 3 -0.055901 13.8091 3.96103 7.05587
75 1 3 -0.055903 14.7918 3.39366 7.85825
76 1 3 -0.055903 21.7402 17.6981 7.05587
77 1 3 -0.0559 21.7402 8.54005 0.580159
78 1 3 -0.0559 14.7918 12.5517 14.334
79 1 3 -0.055903 13.8091 13.1191 13.5316
80 1 3 -0.055903 22.7229 7.97268 1.38254
81 1 4 -1.26215 27.399 15.8188 11.1856
82 1 4 -1.26215 9.13299 5.27293 3.72853
83 1 4 -0.60118 27.399 18.9383 11.9641
84 1 4 -0.60118 9.13299 2.15347 2.95001
85 1 4 -0.601179 27.399 17.5926 13.8671
86 1 4 -0.601179 9.13299 3.49912 1.04697
87 1 4 -0.601179 26.2336 13.3722 9.45555
88 1 4 -0.601179 10.2984 7.71958 5.45857
89 1 4 -0.60118 28.5643 13.3722 9.45555
90 1 4 -0.60118 7.96762 7.71958 5.45857
91 1 4 -0.60118 25.8628 14.9319 13.8671
92 1 4 -0.60118 10.6692 6.15984 1.04697
93 1 4 -0.601179 24.6974 14.2591 11.9641
94 1 4 -0.601179 11.8345 6.83267 2.95001
95 1 4 -0.60118 28.9351 18.0514 9.45555
96 1 4 -0.60118 7.59682 3.04037 5.45857
97 1 4 -0.601179 30.1005 16.0329 9.45555
98 1 4 -0.601179 6.43145 5.05885 5.45857
99 1 4 -0.601179 24.6974 16.0329 9.45555
100 1 4 -0.601179 11.8345 5.05885 5.45857
101 1 4 -0.60118 25.8628 18.0514 9.45555
102 1 4 -0.60118 10.6692 3.04037 5.45857
103 1 4 -0.60118 28.9351 14.9319 13.8671
104 1 4 -0.60118 7.59682 6.15984 1.04697
105 1 4 -0.60118 30.1005 14.2591 11.9641
106 1 4 -0.60118 6.43145 6.83267 2.95001
16136 5345 5 -0.35 13.5368 9.15906 14.0034
16137 5345 6 0.7 14.3995 8.82944 14.7053
16138 5345 5 -0.35 6.12918 3.22688 0.493115
16673 5524 5 -0.35 21.6379 13.1273 0.0216439
16674 5524 6 0.7 30.6834 17.9867 13.8555
16675 5524 5 -0.35 30.596 17.5731 12.7753
16961 5620 5 -0.35 24.6173 17.8709 12.8136
16962 5620 6 0.7 23.6444 17.9533 12.1873
16963 5620 5 -0.35 22.6714 18.0357 11.561
17084 5661 5 -0.35 24.0999 12.2619 4.64514
17085 5661 6 0.7 24.6071 11.567 3.86695
17086 5661 5 -0.35 25.1143 10.8722 3.08876
17201 5700 5 -0.35 26.5757 15.4223 7.18012
17202 5700 6 0.7 26.6809 14.6965 6.2814
17203 5700 5 -0.35 26.7862 13.9706 5.38268
17222 5707 5 -0.35 19.1268 10.8785 11.7801
17223 5707 6 0.7 19.6175 10.1186 12.5063
17224 5707 5 -0.35 20.1082 9.3587 13.2325
17225 5708 5 -0.35 15.4394 16.4927 14.4507
17226 5708 6 0.7 16.2096 15.6253 14.4442
17227 5708 5 -0.35 16.9797 14.7579 14.4377
17237 5712 5 -0.35 12.7864 2.81692 1.99701
17238 5712 6 0.7 13.2134 2.19548 1.11548
17239 5712 5 -0.35 13.6404 1.57403 0.233939
17252 5717 5 -0.35 15.7584 6.88476 9.02417
17253 5717 6 0.7 15.6069 7.06284 7.88798
17254 5717 5 -0.35 15.4553 7.24092 6.75179
17255 5718 5 -0.35 19.343 6.22597 10.0725
17256 5718 6 0.7 18.989 5.66463 9.12107
17257 5718 5 -0.35 18.635 5.10328 8.16966
17258 5719 5 -0.35 15.0349 15.6978 0.668167
17259 5719 6 0.7 24.0488 20.8586 14.4339
17260 5719 5 -0.35 14.7967 4.92759 13.2855
17279 5726 5 -0.35 17.2332 6.39604 3.00941
17280 5726 6 0.7 18.302 6.76708 3.26583
17281 5726 5 -0.35 19.3707 7.13811 3.52224
17282 5727 5 -0.35 3.76985 2.25182 3.47732
17283 5727 6 0.7 12.678 17.0887 4.05253
17284 5727 5 -0.35 12.4532 16.1068 4.62775
17288 5729 5 -0.35 16.8154 14.6131 5.52269
17289 5729 6 0.7 17.8707 15.0458 5.31131
17290 5729 5 -0.35 18.926 15.4785 5.09993
17291 5730 5 -0.35 23.9424 16.0762 4.96988
17292 5730 6 0.7 22.91 15.561 5.08909
17293 5730 5 -0.35 21.8775 15.0459 5.20829
17297 5732 5 -0.35 13.7773 11.3935 8.60026
17298 5732 6 0.7 13.7433 12.5265 8.35366
17299 5732 5 -0.35 13.7092 13.6595 8.10707
ITEM: TIMESTEP
25000
ITEM: NUMBER OF ATOMS
199
ITEM: BOX BOUNDS xy xz yz pp pp pp
0.0000000000000000e+00 3.6531964750000000e+01 9.1329911900000003e+00
0.0000000000000000e+00 2.1091739680000000e+01 9.1329911900000003e+00
0.0000000000000000e+00 1.4914112149999999e+01 5.2729349200000000e+00
ITEM: ATOMS id mol type q x y z
1 1 1 1.10383 27.399 17.6496 10.5383
2 1 1 1.10383 9.13299 3.44217 4.3758
3 1 1 1.10383 27.399 15.8188 13.1274
4 1 1 1.10383 9.13299 5.27293 1.78671
5 1 1 1.10383 25.8135 14.9034 10.5383
6 1 1 1.10383 10.7185 6.18832 4.3758
7 1 1 1.10383 28.9845 14.9034 10.5383
8 1 1 1.10383 7.5475 6.18832 4.3758
9 1 2 0.115889 18.266 5.48596 12.6084
10 1 2 0.115889 18.266 15.6058 2.30572
11 1 2 0.115888 18.266 13.716 0.969417
12 1 2 0.115888 18.266 7.37578 13.9447
13 1 2 0.11589 25.3934 11.4908 8.12521
14 1 2 0.11589 11.1386 9.60096 6.7889
15 1 2 0.115888 11.1386 11.4908 8.12521
16 1 2 0.115888 25.3934 9.60096 6.7889
17 1 2 0.115889 15.5206 8.96083 0.969417
18 1 2 0.115889 21.0114 12.1309 13.9447
19 1 2 0.115888 22.648 13.0758 12.6084
20 1 2 0.115888 13.884 8.01592 2.30572
21 1 2 0.115889 21.0114 3.90092 8.12521
22 1 2 0.115889 15.5206 17.1908 6.7889
23 1 2 0.115887 13.884 16.2459 8.12521
24 1 2 0.115887 22.648 4.84583 6.7889
25 1 2 0.115889 22.648 16.2459 8.12521
26 1 2 0.115889 13.884 4.84583 6.7889
27 1 2 0.115887 15.5206 3.90092 8.12521
28 1 2 0.115887 21.0114 17.1908 6.7889
29 1 2 0.115889 21.0114 8.96083 0.969417
30 1 2 0.115889 15.5206 12.1309 13.9447
31 1 2 0.115887 13.884 13.0758 12.6084
32 1 2 0.115887 22.648 8.01592 2.30572
33 1 3 0.671939 27.399 18.7442 13.2542
34 1 3 0.671939 9.13299 2.34751 1.65994
35 1 3 0.671939 27.399 12.8934 9.117
36 1 3 0.671939 9.13299 8.19836 5.79712
37 1 3 0.67194 24.8655 14.3561 13.2542
38 1 3 0.67194 11.6665 6.73565 1.65994
39 1 3 0.67194 29.9325 17.2815 9.117
40 1 3 0.67194 6.5995 3.81022 5.79712
41 1 3 0.67194 24.8655 17.2815 9.117
42 1 3 0.67194 11.6665 3.81022 5.79712
43 1 3 0.67194 29.9325 14.3561 13.2542
44 1 3 0.67194 6.5995 6.73565 1.65994
45 1 3 -0.11508 27.399 19.957 14.1117
46 1 3 -0.11508 9.13299 1.13474 0.802379
47 1 3 -0.11508 27.399 11.6806 8.25944
48 1 3 -0.11508 9.13299 9.41113 6.65468
49 1 3 -0.11508 23.8152 13.7497 14.1117
50 1 3 -0.11508 12.7168 7.34203 0.802379
51 1 3 -0.11508 30.9828 17.8879 8.25944
52 1 3 -0.11508 5.54921 3.20384 6.65468
53 1 3 -0.11508 23.8152 17.8879 8.25944
54 1 3 -0.11508 12.7168 3.20384 6.65468
55 1 3 -0.11508 30.9828 13.7497 14.1117
56 1 3 -0.11508 5.54921 7.34203 0.802379
57 1 3 -0.0559 18.266 5.39949 13.5316
58 1 3 -0.0559 18.266 15.6923 1.38254
59 1 3 -0.055903 18.266 14.5575 0.580159
60 1 3 -0.055903 18.266 6.53422 14.334
61 1 3 -0.0559 26.1971 11.1132 7.85825
62 1 3 -0.0559 10.3349 9.9785 7.05587
63 1 3 -0.055903 10.3349 11.1132 7.85825
64 1 3 -0.055903 26.1971 9.9785 7.05587
65 1 3 -0.0559 14.7918 8.54005 0.580159
66 1 3 -0.0559 21.7402 12.5517 14.334
67 1 3 -0.055903 22.7229 13.1191 13.5316
68 1 3 -0.055903 13.8091 7.97268 1.38254
69 1 3 -0.0559 21.7402 3.39366 7.85825
70 1 3 -0.0559 14.7918 17.6981 7.05587
71 1 3 -0.055903 13.8091 17.1307 7.85825
72 1 3 -0.055903 22.7229 3.96103 7.05587
73 1 3 -0.055901 22.7229 17.1307 7.85825
74 1 3 -0.055901 13.8091 3.96103 7.05587
75 1 3 -0.055903 14.7918 3.39366 7.85825
76 1 3 -0.055903 21.7402 17.6981 7.05587
77 1 3 -0.0559 21.7402 8.54005 0.580159
78 1 3 -0.0559 14.7918 12.5517 14.334
79 1 3 -0.055903 13.8091 13.1191 13.5316
80 1 3 -0.055903 22.7229 7.97268 1.38254
81 1 4 -1.26215 27.399 15.8188 11.1856
82 1 4 -1.26215 9.13299 5.27293 3.72853
83 1 4 -0.60118 27.399 18.9383 11.9641
84 1 4 -0.60118 9.13299 2.15347 2.95001
85 1 4 -0.601179 27.399 17.5926 13.8671
86 1 4 -0.601179 9.13299 3.49912 1.04697
87 1 4 -0.601179 26.2336 13.3722 9.45555
88 1 4 -0.601179 10.2984 7.71958 5.45857
89 1 4 -0.60118 28.5643 13.3722 9.45555
90 1 4 -0.60118 7.96762 7.71958 5.45857
91 1 4 -0.60118 25.8628 14.9319 13.8671
92 1 4 -0.60118 10.6692 6.15984 1.04697
93 1 4 -0.601179 24.6974 14.2591 11.9641
94 1 4 -0.601179 11.8345 6.83267 2.95001
95 1 4 -0.60118 28.9351 18.0514 9.45555
96 1 4 -0.60118 7.59682 3.04037 5.45857
97 1 4 -0.601179 30.1005 16.0329 9.45555
98 1 4 -0.601179 6.43145 5.05885 5.45857
99 1 4 -0.601179 24.6974 16.0329 9.45555
100 1 4 -0.601179 11.8345 5.05885 5.45857
101 1 4 -0.60118 25.8628 18.0514 9.45555
102 1 4 -0.60118 10.6692 3.04037 5.45857
103 1 4 -0.60118 28.9351 14.9319 13.8671
104 1 4 -0.60118 7.59682 6.15984 1.04697
105 1 4 -0.60118 30.1005 14.2591 11.9641
106 1 4 -0.60118 6.43145 6.83267 2.95001
16961 5620 5 -0.35 22.5139 16.6595 13.2971
16962 5620 6 0.7 21.5648 17.3195 13.3938
16963 5620 5 -0.35 20.6158 17.9794 13.4904
17222 5707 5 -0.35 20.2679 9.1903 12.4279
17223 5707 6 0.7 20.753 9.10919 13.4784
17224 5707 5 -0.35 21.2382 9.02809 14.5289
17429 5776 5 -0.35 14.5579 7.10373 4.57017
17430 5776 6 0.7 14.3986 6.00224 4.24315
17431 5776 5 -0.35 14.2393 4.90074 3.91613
17534 5811 5 -0.35 16.6216 10.9996 3.16625
17535 5811 6 0.7 16.4233 12.0735 2.77503
17536 5811 5 -0.35 16.225 13.1474 2.38381
17537 5812 5 -0.35 30.7425 17.0959 12.0544
17538 5812 6 0.7 30.7651 18.2397 11.8623
17539 5812 5 -0.35 30.7878 19.3834 11.6703
17585 5828 5 -0.35 25.4886 7.12546 12.3309
17586 5828 6 0.7 25.039 6.25987 12.9588
17587 5828 5 -0.35 24.5895 5.39429 13.5867
17591 5830 5 -0.35 21.933 6.73531 11.5574
17592 5830 6 0.7 21.2269 6.41539 10.6945
17593 5830 5 -0.35 20.5207 6.09548 9.83156
17597 5832 5 -0.35 20.6242 9.23969 9.20176
17598 5832 6 0.7 21.0209 10.2182 9.68209
17599 5832 5 -0.35 21.4177 11.1967 10.1624
17600 5833 5 -0.35 4.30107 3.86402 2.99272
17601 5833 6 0.7 22.1049 4.81815 3.46355
17602 5833 5 -0.35 21.6428 5.77228 3.93438
17624 5841 5 -0.35 24.6225 9.47442 9.75388
17625 5841 6 0.7 25.2957 8.55429 9.53979
17626 5841 5 -0.35 25.9688 7.63416 9.3257
17633 5844 5 -0.35 18.4706 7.12991 1.7177
17634 5844 6 0.7 17.912 6.21164 2.15399
17635 5844 5 -0.35 17.3534 5.29336 2.59028
17654 5851 5 -0.35 25.6112 10.2373 14.374
17655 5851 6 0.7 24.6362 10.0071 13.7893
17656 5851 5 -0.35 23.6612 9.77681 13.2046
17708 5869 5 -0.35 8.0428 11.2188 2.87323
17709 5869 6 0.7 25.2782 10.8356 3.24298
17710 5869 5 -0.35 24.2477 10.4524 3.61272
17720 5873 5 -0.35 12.4825 16.883 4.03367
17721 5873 6 0.7 13.3508 16.334 3.49482
17722 5873 5 -0.35 14.219 15.785 2.95596
17750 5883 5 -0.35 17.1456 8.01334 9.6133
17751 5883 6 0.7 16.6686 7.3396 8.79832
17752 5883 5 -0.35 16.1917 6.66585 7.98335
17759 5886 5 -0.35 21.7072 14.5889 2.59644
17760 5886 6 0.7 21.8455 15.0497 1.54089
17761 5886 5 -0.35 21.9838 15.5104 0.485345
17774 5891 5 -0.35 17.4514 15.5535 5.60501
17775 5891 6 0.7 18.2019 14.6803 5.74651
17776 5891 5 -0.35 18.9524 13.8072 5.88801
17783 5894 5 -0.35 23.0127 11.4643 7.00681
17784 5894 6 0.7 22.772 11.9022 5.95998
17785 5894 5 -0.35 22.5313 12.3402 4.91314
17789 5896 5 -0.35 12.9013 9.23099 14.2207
17790 5896 6 0.7 3.00803 3.94634 0.182604
17791 5896 5 -0.35 20.5137 3.93462 1.0586
17795 5898 5 -0.35 3.72307 0.513234 0.39434
17796 5898 6 0.7 13.65 5.33532 14.5929
17797 5898 5 -0.35 23.5768 20.7033 13.8773
17810 5903 5 -0.35 17.6564 19.114 14.386
17811 5903 6 0.7 26.3633 14.2348 0.476348
17812 5903 5 -0.35 25.9372 14.6286 1.48083
17813 5904 5 -0.35 18.0408 15.1817 14.7001
17814 5904 6 0.7 17.9571 15.2624 13.5459
17815 5904 5 -0.35 17.8733 15.3432 12.3918
17816 5905 5 -0.35 17.2511 9.93377 12.8507
17817 5905 6 0.7 16.4348 9.87166 12.0289
17818 5905 5 -0.35 15.6185 9.80956 11.2071
17822 5907 5 -0.35 19.0519 18.1673 8.7061
17823 5907 6 0.7 9.86162 3.38696 9.21973
17824 5907 5 -0.35 9.80435 4.42547 9.73335
17825 5908 5 -0.35 13.1763 13.465 8.45691
17826 5908 6 0.7 13.6736 13.2943 7.42292
17827 5908 5 -0.35 14.1709 13.1237 6.38893
17828 5909 5 -0.35 13.0676 12.0876 4.1081
17829 5909 6 0.7 12.8267 10.9549 4.03994
17830 5909 5 -0.35 12.5858 9.82225 3.97178
17831 5910 5 -0.35 18.3762 6.79584 5.74805
17832 5910 6 0.7 17.83 5.80473 6.00295
17833 5910 5 -0.35 17.2838 4.81362 6.25786
17834 5911 5 -0.35 28.5162 11.1908 13.3055
17835 5911 6 0.7 27.6429 11.7258 12.7606
17836 5911 5 -0.35 26.7697 12.2607 12.2158
17837 5912 5 -0.35 16.0942 2.72707 3.79504
17838 5912 6 0.7 16.2215 2.27517 2.7343
17839 5912 5 -0.35 16.3488 1.82326 1.67355
17840 5913 5 -0.35 33.3956 18.818 11.8386
17841 5913 6 0.7 15.6147 18.5049 10.8325
17842 5913 5 -0.35 16.0998 18.1917 9.82645
17843 5914 5 -0.35 21.5875 14.0401 9.24104
17844 5914 6 0.7 20.503 13.8748 9.61804
17845 5914 5 -0.35 19.4185 13.7095 9.99503
ITEM: TIMESTEP
26000
ITEM: NUMBER OF ATOMS
196
ITEM: BOX BOUNDS xy xz yz pp pp pp
0.0000000000000000e+00 3.6531964750000000e+01 9.1329911900000003e+00
0.0000000000000000e+00 2.1091739680000000e+01 9.1329911900000003e+00
0.0000000000000000e+00 1.4914112149999999e+01 5.2729349200000000e+00
ITEM: ATOMS id mol type q x y z
1 1 1 1.10383 27.399 17.6496 10.5383
2 1 1 1.10383 9.13299 3.44217 4.3758
3 1 1 1.10383 27.399 15.8188 13.1274
4 1 1 1.10383 9.13299 5.27293 1.78671
5 1 1 1.10383 25.8135 14.9034 10.5383
6 1 1 1.10383 10.7185 6.18832 4.3758
7 1 1 1.10383 28.9845 14.9034 10.5383
8 1 1 1.10383 7.5475 6.18832 4.3758
9 1 2 0.115889 18.266 5.48596 12.6084
10 1 2 0.115889 18.266 15.6058 2.30572
11 1 2 0.115888 18.266 13.716 0.969417
12 1 2 0.115888 18.266 7.37578 13.9447
13 1 2 0.11589 25.3934 11.4908 8.12521
14 1 2 0.11589 11.1386 9.60096 6.7889
15 1 2 0.115888 11.1386 11.4908 8.12521
16 1 2 0.115888 25.3934 9.60096 6.7889
17 1 2 0.115889 15.5206 8.96083 0.969417
18 1 2 0.115889 21.0114 12.1309 13.9447
19 1 2 0.115888 22.648 13.0758 12.6084
20 1 2 0.115888 13.884 8.01592 2.30572
21 1 2 0.115889 21.0114 3.90092 8.12521
22 1 2 0.115889 15.5206 17.1908 6.7889
23 1 2 0.115887 13.884 16.2459 8.12521
24 1 2 0.115887 22.648 4.84583 6.7889
25 1 2 0.115889 22.648 16.2459 8.12521
26 1 2 0.115889 13.884 4.84583 6.7889
27 1 2 0.115887 15.5206 3.90092 8.12521
28 1 2 0.115887 21.0114 17.1908 6.7889
29 1 2 0.115889 21.0114 8.96083 0.969417
30 1 2 0.115889 15.5206 12.1309 13.9447
31 1 2 0.115887 13.884 13.0758 12.6084
32 1 2 0.115887 22.648 8.01592 2.30572
33 1 3 0.671939 27.399 18.7442 13.2542
34 1 3 0.671939 9.13299 2.34751 1.65994
35 1 3 0.671939 27.399 12.8934 9.117
36 1 3 0.671939 9.13299 8.19836 5.79712
37 1 3 0.67194 24.8655 14.3561 13.2542
38 1 3 0.67194 11.6665 6.73565 1.65994
39 1 3 0.67194 29.9325 17.2815 9.117
40 1 3 0.67194 6.5995 3.81022 5.79712
41 1 3 0.67194 24.8655 17.2815 9.117
42 1 3 0.67194 11.6665 3.81022 5.79712
43 1 3 0.67194 29.9325 14.3561 13.2542
44 1 3 0.67194 6.5995 6.73565 1.65994
45 1 3 -0.11508 27.399 19.957 14.1117
46 1 3 -0.11508 9.13299 1.13474 0.802379
47 1 3 -0.11508 27.399 11.6806 8.25944
48 1 3 -0.11508 9.13299 9.41113 6.65468
49 1 3 -0.11508 23.8152 13.7497 14.1117
50 1 3 -0.11508 12.7168 7.34203 0.802379
51 1 3 -0.11508 30.9828 17.8879 8.25944
52 1 3 -0.11508 5.54921 3.20384 6.65468
53 1 3 -0.11508 23.8152 17.8879 8.25944
54 1 3 -0.11508 12.7168 3.20384 6.65468
55 1 3 -0.11508 30.9828 13.7497 14.1117
56 1 3 -0.11508 5.54921 7.34203 0.802379
57 1 3 -0.0559 18.266 5.39949 13.5316
58 1 3 -0.0559 18.266 15.6923 1.38254
59 1 3 -0.055903 18.266 14.5575 0.580159
60 1 3 -0.055903 18.266 6.53422 14.334
61 1 3 -0.0559 26.1971 11.1132 7.85825
62 1 3 -0.0559 10.3349 9.9785 7.05587
63 1 3 -0.055903 10.3349 11.1132 7.85825
64 1 3 -0.055903 26.1971 9.9785 7.05587
65 1 3 -0.0559 14.7918 8.54005 0.580159
66 1 3 -0.0559 21.7402 12.5517 14.334
67 1 3 -0.055903 22.7229 13.1191 13.5316
68 1 3 -0.055903 13.8091 7.97268 1.38254
69 1 3 -0.0559 21.7402 3.39366 7.85825
70 1 3 -0.0559 14.7918 17.6981 7.05587
71 1 3 -0.055903 13.8091 17.1307 7.85825
72 1 3 -0.055903 22.7229 3.96103 7.05587
73 1 3 -0.055901 22.7229 17.1307 7.85825
74 1 3 -0.055901 13.8091 3.96103 7.05587
75 1 3 -0.055903 14.7918 3.39366 7.85825
76 1 3 -0.055903 21.7402 17.6981 7.05587
77 1 3 -0.0559 21.7402 8.54005 0.580159
78 1 3 -0.0559 14.7918 12.5517 14.334
79 1 3 -0.055903 13.8091 13.1191 13.5316
80 1 3 -0.055903 22.7229 7.97268 1.38254
81 1 4 -1.26215 27.399 15.8188 11.1856
82 1 4 -1.26215 9.13299 5.27293 3.72853
83 1 4 -0.60118 27.399 18.9383 11.9641
84 1 4 -0.60118 9.13299 2.15347 2.95001
85 1 4 -0.601179 27.399 17.5926 13.8671
86 1 4 -0.601179 9.13299 3.49912 1.04697
87 1 4 -0.601179 26.2336 13.3722 9.45555
88 1 4 -0.601179 10.2984 7.71958 5.45857
89 1 4 -0.60118 28.5643 13.3722 9.45555
90 1 4 -0.60118 7.96762 7.71958 5.45857
91 1 4 -0.60118 25.8628 14.9319 13.8671
92 1 4 -0.60118 10.6692 6.15984 1.04697
93 1 4 -0.601179 24.6974 14.2591 11.9641
94 1 4 -0.601179 11.8345 6.83267 2.95001
95 1 4 -0.60118 28.9351 18.0514 9.45555
96 1 4 -0.60118 7.59682 3.04037 5.45857
97 1 4 -0.601179 30.1005 16.0329 9.45555
98 1 4 -0.601179 6.43145 5.05885 5.45857
99 1 4 -0.601179 24.6974 16.0329 9.45555
100 1 4 -0.601179 11.8345 5.05885 5.45857
101 1 4 -0.60118 25.8628 18.0514 9.45555
102 1 4 -0.60118 10.6692 3.04037 5.45857
103 1 4 -0.60118 28.9351 14.9319 13.8671
104 1 4 -0.60118 7.59682 6.15984 1.04697
105 1 4 -0.60118 30.1005 14.2591 11.9641
106 1 4 -0.60118 6.43145 6.83267 2.95001
17537 5812 5 -0.35 30.8698 18.2408 12.3443
17538 5812 6 0.7 31.2821 19.1312 11.7255
17539 5812 5 -0.35 22.5614 4.2028 11.1068
18050 5983 5 -0.35 15.2253 5.11803 12.878
18051 5983 6 0.7 15.3858 5.30726 11.7449
18052 5983 5 -0.35 15.5464 5.49649 10.6117
18113 6004 5 -0.35 24.3618 17.4447 14.1504
18114 6004 6 0.7 15.2478 12.9086 0.132034
18115 6004 5 -0.35 15.2668 13.6454 1.02778
18128 6009 5 -0.35 16.1133 14.8148 4.42449
18129 6009 6 0.7 15.7529 15.468 3.53618
18130 6009 5 -0.35 15.3924 16.1211 2.64787
18170 6023 5 -0.35 14.1394 12.8227 9.99742
18171 6023 6 0.7 13.3662 12.0453 10.3763
18172 6023 5 -0.35 12.5931 11.2679 10.7552
18173 6024 5 -0.35 17.6678 4.21159 6.77623
18174 6024 6 0.7 18.0316 4.54065 7.82741
18175 6024 5 -0.35 18.3953 4.8697 8.87859
18203 6034 5 -0.35 28.9047 9.72509 12.9143
18204 6034 6 0.7 28.5501 10.6722 13.4826
18205 6034 5 -0.35 28.1955 11.6192 14.0508
18209 6036 5 -0.35 4.8975 3.68654 0.0830188
18210 6036 6 0.7 13.6658 8.22385 14.1777
18211 6036 5 -0.35 13.3011 7.48822 13.3583
18233 6044 5 -0.35 13.1203 10.2637 4.41635
18234 6044 6 0.7 12.9713 10.6407 3.32948
18235 6044 5 -0.35 12.8224 11.0177 2.24262
18248 6049 5 -0.35 16.2564 3.91998 0.270407
18249 6049 6 0.7 15.2842 3.96566 0.901423
18250 6049 5 -0.35 14.3119 4.01134 1.53244
18254 6051 5 -0.35 10.6871 6.15667 9.24074
18255 6051 6 0.7 11.552 6.87198 8.94746
18256 6051 5 -0.35 12.4168 7.5873 8.65418
18257 6052 5 -0.35 16.4585 10.0107 10.0437
18258 6052 6 0.7 16.5445 9.223 10.8909
18259 6052 5 -0.35 16.6306 8.43532 11.7381
18266 6055 5 -0.35 26.5393 16.6834 6.78136
18267 6055 6 0.7 26.0686 17.2556 5.88887
18268 6055 5 -0.35 16.4649 2.00907 4.99637
18290 6063 5 -0.35 21.0572 4.4453 3.26823
18291 6063 6 0.7 21.0028 4.8786 2.19357
18292 6063 5 -0.35 20.9484 5.3119 1.11891
18293 6064 5 -0.35 12.2777 4.3975 11.5388
18294 6064 6 0.7 11.9399 4.73332 12.5965
18295 6064 5 -0.35 11.602 5.06913 13.6542
18296 6065 5 -0.35 25.9542 11.809 4.62723
18297 6065 6 0.7 8.2659 11.1014 3.91234
18298 6065 5 -0.35 8.84361 10.3937 3.19745
18314 6071 5 -0.35 18.8949 7.1983 2.57581
18315 6071 6 0.7 17.9069 6.8951 2.04887
18316 6071 5 -0.35 16.919 6.5919 1.52194
18317 6072 5 -0.35 17.6875 3.71476 2.9725
18318 6072 6 0.7 18.4132 2.80976 2.97802
18319 6072 5 -0.35 19.1388 1.90477 2.98354
18347 6082 5 -0.35 18.1411 19.0007 10.4628
18348 6082 6 0.7 8.78147 3.49265 9.36841
18349 6082 5 -0.35 8.55484 3.80336 8.27401
18356 6085 5 -0.35 12.3195 16.4937 3.83843
18357 6085 6 0.7 3.22006 0.984453 2.721
18358 6085 5 -0.35 3.25359 1.294 1.60357
18359 6086 5 -0.35 21.8726 6.02173 13.8271
18360 6086 6 0.7 21.3629 6.85194 13.1974
18361 6086 5 -0.35 20.8532 7.68214 12.5676
18368 6089 5 -0.35 20.4964 15.6598 13.2842
18369 6089 6 0.7 19.4427 15.3644 12.8996
18370 6089 5 -0.35 18.3889 15.069 12.515
18377 6092 5 -0.35 15.1085 12.1501 6.96285
18378 6092 6 0.7 14.2973 12.5504 6.23673
18379 6092 5 -0.35 13.486 12.9508 5.51061
18380 6093 5 -0.35 26.8557 5.72917 14.0563
18381 6093 6 0.7 26.769 6.06192 12.9485
18382 6093 5 -0.35 26.6822 6.39467 11.8406
18386 6095 5 -0.35 24.1494 8.19243 10.7451
18387 6095 6 0.7 24.7662 9.04434 11.2345
18388 6095 5 -0.35 25.3829 9.89625 11.7238
18389 6096 5 -0.35 9.30165 13.7221 1.75387
18390 6096 6 0.7 26.5006 13.29 1.61111
18391 6096 5 -0.35 25.4336 12.8579 1.46834
18395 6098 5 -0.35 21.602 12.6849 2.45436
18396 6098 6 0.7 21.4995 13.2384 1.44011
18397 6098 5 -0.35 21.397 13.7919 0.425863
18398 6099 5 -0.35 24.05 15.4499 2.31193
18399 6099 6 0.7 24.1339 15.4347 1.15507
18400 6099 5 -0.35 33.3507 20.6925 14.9123
18401 6100 5 -0.35 19.4093 8.32248 5.92782
18402 6100 6 0.7 20.203 7.54997 6.27249
18403 6100 5 -0.35 20.9968 6.77747 6.61716
18404 6101 5 -0.35 20.6408 14.3287 6.83764
18405 6101 6 0.7 19.997 14.4251 5.87754
18406 6101 5 -0.35 19.3531 14.5215 4.91744
ITEM: TIMESTEP
27000
ITEM: NUMBER OF ATOMS
205
ITEM: BOX BOUNDS xy xz yz pp pp pp
0.0000000000000000e+00 3.6531964750000000e+01 9.1329911900000003e+00
0.0000000000000000e+00 2.1091739680000000e+01 9.1329911900000003e+00
0.0000000000000000e+00 1.4914112149999999e+01 5.2729349200000000e+00
ITEM: ATOMS id mol type q x y z
1 1 1 1.10383 27.399 17.6496 10.5383
2 1 1 1.10383 9.13299 3.44217 4.3758
3 1 1 1.10383 27.399 15.8188 13.1274
4 1 1 1.10383 9.13299 5.27293 1.78671
5 1 1 1.10383 25.8135 14.9034 10.5383
6 1 1 1.10383 10.7185 6.18832 4.3758
7 1 1 1.10383 28.9845 14.9034 10.5383
8 1 1 1.10383 7.5475 6.18832 4.3758
9 1 2 0.115889 18.266 5.48596 12.6084
10 1 2 0.115889 18.266 15.6058 2.30572
11 1 2 0.115888 18.266 13.716 0.969417
12 1 2 0.115888 18.266 7.37578 13.9447
13 1 2 0.11589 25.3934 11.4908 8.12521
14 1 2 0.11589 11.1386 9.60096 6.7889
15 1 2 0.115888 11.1386 11.4908 8.12521
16 1 2 0.115888 25.3934 9.60096 6.7889
17 1 2 0.115889 15.5206 8.96083 0.969417
18 1 2 0.115889 21.0114 12.1309 13.9447
19 1 2 0.115888 22.648 13.0758 12.6084
20 1 2 0.115888 13.884 8.01592 2.30572
21 1 2 0.115889 21.0114 3.90092 8.12521
22 1 2 0.115889 15.5206 17.1908 6.7889
23 1 2 0.115887 13.884 16.2459 8.12521
24 1 2 0.115887 22.648 4.84583 6.7889
25 1 2 0.115889 22.648 16.2459 8.12521
26 1 2 0.115889 13.884 4.84583 6.7889
27 1 2 0.115887 15.5206 3.90092 8.12521
28 1 2 0.115887 21.0114 17.1908 6.7889
29 1 2 0.115889 21.0114 8.96083 0.969417
30 1 2 0.115889 15.5206 12.1309 13.9447
31 1 2 0.115887 13.884 13.0758 12.6084
32 1 2 0.115887 22.648 8.01592 2.30572
33 1 3 0.671939 27.399 18.7442 13.2542
34 1 3 0.671939 9.13299 2.34751 1.65994
35 1 3 0.671939 27.399 12.8934 9.117
36 1 3 0.671939 9.13299 8.19836 5.79712
37 1 3 0.67194 24.8655 14.3561 13.2542
38 1 3 0.67194 11.6665 6.73565 1.65994
39 1 3 0.67194 29.9325 17.2815 9.117
40 1 3 0.67194 6.5995 3.81022 5.79712
41 1 3 0.67194 24.8655 17.2815 9.117
42 1 3 0.67194 11.6665 3.81022 5.79712
43 1 3 0.67194 29.9325 14.3561 13.2542
44 1 3 0.67194 6.5995 6.73565 1.65994
45 1 3 -0.11508 27.399 19.957 14.1117
46 1 3 -0.11508 9.13299 1.13474 0.802379
47 1 3 -0.11508 27.399 11.6806 8.25944
48 1 3 -0.11508 9.13299 9.41113 6.65468
49 1 3 -0.11508 23.8152 13.7497 14.1117
50 1 3 -0.11508 12.7168 7.34203 0.802379
51 1 3 -0.11508 30.9828 17.8879 8.25944
52 1 3 -0.11508 5.54921 3.20384 6.65468
53 1 3 -0.11508 23.8152 17.8879 8.25944
54 1 3 -0.11508 12.7168 3.20384 6.65468
55 1 3 -0.11508 30.9828 13.7497 14.1117
56 1 3 -0.11508 5.54921 7.34203 0.802379
57 1 3 -0.0559 18.266 5.39949 13.5316
58 1 3 -0.0559 18.266 15.6923 1.38254
59 1 3 -0.055903 18.266 14.5575 0.580159
60 1 3 -0.055903 18.266 6.53422 14.334
61 1 3 -0.0559 26.1971 11.1132 7.85825
62 1 3 -0.0559 10.3349 9.9785 7.05587
63 1 3 -0.055903 10.3349 11.1132 7.85825
64 1 3 -0.055903 26.1971 9.9785 7.05587
65 1 3 -0.0559 14.7918 8.54005 0.580159
66 1 3 -0.0559 21.7402 12.5517 14.334
67 1 3 -0.055903 22.7229 13.1191 13.5316
68 1 3 -0.055903 13.8091 7.97268 1.38254
69 1 3 -0.0559 21.7402 3.39366 7.85825
70 1 3 -0.0559 14.7918 17.6981 7.05587
71 1 3 -0.055903 13.8091 17.1307 7.85825
72 1 3 -0.055903 22.7229 3.96103 7.05587
73 1 3 -0.055901 22.7229 17.1307 7.85825
74 1 3 -0.055901 13.8091 3.96103 7.05587
75 1 3 -0.055903 14.7918 3.39366 7.85825
76 1 3 -0.055903 21.7402 17.6981 7.05587
77 1 3 -0.0559 21.7402 8.54005 0.580159
78 1 3 -0.0559 14.7918 12.5517 14.334
79 1 3 -0.055903 13.8091 13.1191 13.5316
80 1 3 -0.055903 22.7229 7.97268 1.38254
81 1 4 -1.26215 27.399 15.8188 11.1856
82 1 4 -1.26215 9.13299 5.27293 3.72853
83 1 4 -0.60118 27.399 18.9383 11.9641
84 1 4 -0.60118 9.13299 2.15347 2.95001
85 1 4 -0.601179 27.399 17.5926 13.8671
86 1 4 -0.601179 9.13299 3.49912 1.04697
87 1 4 -0.601179 26.2336 13.3722 9.45555
88 1 4 -0.601179 10.2984 7.71958 5.45857
89 1 4 -0.60118 28.5643 13.3722 9.45555
90 1 4 -0.60118 7.96762 7.71958 5.45857
91 1 4 -0.60118 25.8628 14.9319 13.8671
92 1 4 -0.60118 10.6692 6.15984 1.04697
93 1 4 -0.601179 24.6974 14.2591 11.9641
94 1 4 -0.601179 11.8345 6.83267 2.95001
95 1 4 -0.60118 28.9351 18.0514 9.45555
96 1 4 -0.60118 7.59682 3.04037 5.45857
97 1 4 -0.601179 30.1005 16.0329 9.45555
98 1 4 -0.601179 6.43145 5.05885 5.45857
99 1 4 -0.601179 24.6974 16.0329 9.45555
100 1 4 -0.601179 11.8345 5.05885 5.45857
101 1 4 -0.60118 25.8628 18.0514 9.45555
102 1 4 -0.60118 10.6692 3.04037 5.45857
103 1 4 -0.60118 28.9351 14.9319 13.8671
104 1 4 -0.60118 7.59682 6.15984 1.04697
105 1 4 -0.60118 30.1005 14.2591 11.9641
106 1 4 -0.60118 6.43145 6.83267 2.95001
17537 5812 5 -0.35 31.7898 16.5758 12.2329
17538 5812 6 0.7 14.4206 16.2862 11.5566
17539 5812 5 -0.35 15.3175 15.9966 10.8803
18491 6130 5 -0.35 14.4031 4.35647 1.64168
18492 6130 6 0.7 14.6884 4.69012 0.567949
18493 6130 5 -0.35 24.1066 10.2967 14.4083
18524 6141 5 -0.35 8.826 5.13412 7.496
18525 6141 6 0.7 9.6117 4.83469 8.29514
18526 6141 5 -0.35 10.3974 4.53526 9.09429
18539 6146 5 -0.35 8.18173 9.54616 0.315665
18540 6146 6 0.7 18.041 14.3173 14.4773
18541 6146 5 -0.35 18.7674 13.8155 13.7248
18635 6178 5 -0.35 13.5167 8.54813 7.37943
18636 6178 6 0.7 13.3243 7.68448 8.12954
18637 6178 5 -0.35 13.1318 6.82083 8.87966
18689 6196 5 -0.35 10.2994 8.14087 10.1324
18690 6196 6 0.7 10.5197 8.56491 11.1894
18691 6196 5 -0.35 10.74 8.98896 12.2464
18716 6205 5 -0.35 33.5354 19.9185 13.3872
18717 6205 6 0.7 34.3013 19.0477 13.362
18718 6205 5 -0.35 16.8013 18.1769 13.3368
18722 6207 5 -0.35 22.1068 7.71168 13.0202
18723 6207 6 0.7 23.0789 7.81364 12.3955
18724 6207 5 -0.35 24.051 7.9156 11.7709
18725 6208 5 -0.35 23.4105 6.06366 9.54419
18726 6208 6 0.7 24.5495 5.93626 9.72316
18727 6208 5 -0.35 7.42252 5.80887 9.90214
18734 6211 5 -0.35 20.6007 14.561 3.17325
18735 6211 6 0.7 21.6577 14.4188 2.71709
18736 6211 5 -0.35 22.7147 14.2765 2.26093
18737 6212 5 -0.35 23.4499 13.8675 7.35839
18738 6212 6 0.7 24.325 14.2868 6.72279
18739 6212 5 -0.35 25.2001 14.7061 6.08719
18746 6215 5 -0.35 19.7519 15.1581 6.28409
18747 6215 6 0.7 18.7115 15.4107 5.83756
18748 6215 5 -0.35 17.6711 15.6632 5.39103
18755 6218 5 -0.35 30.2565 20.1399 12.2556
18756 6218 6 0.7 20.6943 5.02272 11.4376
18757 6218 5 -0.35 20.2651 5.72433 10.6196
18758 6219 5 -0.35 19.8985 16.2298 11.7556
18759 6219 6 0.7 20.3126 15.384 11.0782
18760 6219 5 -0.35 20.7268 14.5383 10.4009
18764 6221 5 -0.35 17.4673 18.1835 9.25199
18765 6221 6 0.7 18.0573 17.2965 8.79296
18766 6221 5 -0.35 18.6472 16.4094 8.33393
18767 6222 5 -0.35 27.7258 12.0792 12.4748
18768 6222 6 0.7 27.3316 11.2939 13.2322
18769 6222 5 -0.35 26.9374 10.5087 13.9895
18788 6229 5 -0.35 28.163 14.4877 5.44064
18789 6229 6 0.7 28.1142 15.6026 5.75704
18790 6229 5 -0.35 28.0653 16.7176 6.07344
18791 6230 5 -0.35 23.3412 11.1704 2.2407
18792 6230 6 0.7 23.6282 10.4949 3.13893
18793 6230 5 -0.35 23.9153 9.81932 4.03717
18797 6232 5 -0.35 17.4536 4.56504 2.45103
18798 6232 6 0.7 17.1626 5.66806 2.24074
18799 6232 5 -0.35 16.8715 6.77109 2.03045
18800 6233 5 -0.35 24.1522 19.2847 13.3466
18801 6233 6 0.7 23.7435 18.3855 12.7384
18802 6233 5 -0.35 23.3348 17.4863 12.1301
18803 6234 5 -0.35 15.2614 8.53255 13.5383
18804 6234 6 0.7 14.7265 8.94768 12.5965
18805 6234 5 -0.35 14.1916 9.36282 11.6546
18812 6237 5 -0.35 13.2849 12.3966 3.99011
18813 6237 6 0.7 13.5943 13.0555 4.89331
18814 6237 5 -0.35 13.9037 13.7144 5.7965
18815 6238 5 -0.35 13.6023 11.3827 0.989872
18816 6238 6 0.7 12.5892 11.0516 0.532108
18817 6238 5 -0.35 11.5761 10.7205 0.0743439
18821 6240 5 -0.35 26.3362 12.3796 4.18998
18822 6240 6 0.7 8.8696 11.5778 3.93759
18823 6240 5 -0.35 9.66901 10.7761 3.68519
18827 6242 5 -0.35 20.432 5.14076 4.15959
18828 6242 6 0.7 20.7262 4.05821 3.86443
18829 6242 5 -0.35 21.0204 2.97566 3.56926
18833 6244 5 -0.35 5.74287 1.66917 3.20329
18834 6244 6 0.7 15.3086 16.416 3.10711
18835 6244 5 -0.35 15.7414 15.3441 3.01092
18839 6246 5 -0.35 16.0781 2.96007 5.07896
18840 6246 6 0.7 16.2056 2.00046 4.43982
18841 6246 5 -0.35 25.4661 16.8597 3.80069
18845 6248 5 -0.35 9.11011 14.2168 1.76915
18846 6248 6 0.7 27.5913 15.3503 1.64878
18847 6248 5 -0.35 18.6736 0.664942 1.52841
18851 6250 5 -0.35 16.4882 11.4541 4.82174
18852 6250 6 0.7 16.0234 10.409 5.01461
18853 6250 5 -0.35 15.5586 9.36383 5.20748
18854 6251 5 -0.35 18.7042 9.70346 6.77717
18855 6251 6 0.7 19.2657 10.2901 5.94878
18856 6251 5 -0.35 19.8272 10.8767 5.12039
18857 6252 5 -0.35 18.7716 8.29151 9.57484
18858 6252 6 0.7 17.7504 8.21538 9.02991
18859 6252 5 -0.35 16.7292 8.13926 8.48497
18860 6253 5 -0.35 20.0027 20.3528 14.0424
18861 6253 6 0.7 11.5891 4.97854 13.2485
18862 6253 5 -0.35 12.3086 5.42312 12.4545
18863 6254 5 -0.35 22.7591 10.6639 11.2336
18864 6254 6 0.7 21.6412 10.9713 11.194
18865 6254 5 -0.35 20.5234 11.2787 11.1543
ITEM: TIMESTEP
28000
ITEM: NUMBER OF ATOMS
163
ITEM: BOX BOUNDS xy xz yz pp pp pp
0.0000000000000000e+00 3.6531964750000000e+01 9.1329911900000003e+00
0.0000000000000000e+00 2.1091739680000000e+01 9.1329911900000003e+00
0.0000000000000000e+00 1.4914112149999999e+01 5.2729349200000000e+00
ITEM: ATOMS id mol type q x y z
1 1 1 1.10383 27.399 17.6496 10.5383
2 1 1 1.10383 9.13299 3.44217 4.3758
3 1 1 1.10383 27.399 15.8188 13.1274
4 1 1 1.10383 9.13299 5.27293 1.78671
5 1 1 1.10383 25.8135 14.9034 10.5383
6 1 1 1.10383 10.7185 6.18832 4.3758
7 1 1 1.10383 28.9845 14.9034 10.5383
8 1 1 1.10383 7.5475 6.18832 4.3758
9 1 2 0.115889 18.266 5.48596 12.6084
10 1 2 0.115889 18.266 15.6058 2.30572
11 1 2 0.115888 18.266 13.716 0.969417
12 1 2 0.115888 18.266 7.37578 13.9447
13 1 2 0.11589 25.3934 11.4908 8.12521
14 1 2 0.11589 11.1386 9.60096 6.7889
15 1 2 0.115888 11.1386 11.4908 8.12521
16 1 2 0.115888 25.3934 9.60096 6.7889
17 1 2 0.115889 15.5206 8.96083 0.969417
18 1 2 0.115889 21.0114 12.1309 13.9447
19 1 2 0.115888 22.648 13.0758 12.6084
20 1 2 0.115888 13.884 8.01592 2.30572
21 1 2 0.115889 21.0114 3.90092 8.12521
22 1 2 0.115889 15.5206 17.1908 6.7889
23 1 2 0.115887 13.884 16.2459 8.12521
24 1 2 0.115887 22.648 4.84583 6.7889
25 1 2 0.115889 22.648 16.2459 8.12521
26 1 2 0.115889 13.884 4.84583 6.7889
27 1 2 0.115887 15.5206 3.90092 8.12521
28 1 2 0.115887 21.0114 17.1908 6.7889
29 1 2 0.115889 21.0114 8.96083 0.969417
30 1 2 0.115889 15.5206 12.1309 13.9447
31 1 2 0.115887 13.884 13.0758 12.6084
32 1 2 0.115887 22.648 8.01592 2.30572
33 1 3 0.671939 27.399 18.7442 13.2542
34 1 3 0.671939 9.13299 2.34751 1.65994
35 1 3 0.671939 27.399 12.8934 9.117
36 1 3 0.671939 9.13299 8.19836 5.79712
37 1 3 0.67194 24.8655 14.3561 13.2542
38 1 3 0.67194 11.6665 6.73565 1.65994
39 1 3 0.67194 29.9325 17.2815 9.117
40 1 3 0.67194 6.5995 3.81022 5.79712
41 1 3 0.67194 24.8655 17.2815 9.117
42 1 3 0.67194 11.6665 3.81022 5.79712
43 1 3 0.67194 29.9325 14.3561 13.2542
44 1 3 0.67194 6.5995 6.73565 1.65994
45 1 3 -0.11508 27.399 19.957 14.1117
46 1 3 -0.11508 9.13299 1.13474 0.802379
47 1 3 -0.11508 27.399 11.6806 8.25944
48 1 3 -0.11508 9.13299 9.41113 6.65468
49 1 3 -0.11508 23.8152 13.7497 14.1117
50 1 3 -0.11508 12.7168 7.34203 0.802379
51 1 3 -0.11508 30.9828 17.8879 8.25944
52 1 3 -0.11508 5.54921 3.20384 6.65468
53 1 3 -0.11508 23.8152 17.8879 8.25944
54 1 3 -0.11508 12.7168 3.20384 6.65468
55 1 3 -0.11508 30.9828 13.7497 14.1117
56 1 3 -0.11508 5.54921 7.34203 0.802379
57 1 3 -0.0559 18.266 5.39949 13.5316
58 1 3 -0.0559 18.266 15.6923 1.38254
59 1 3 -0.055903 18.266 14.5575 0.580159
60 1 3 -0.055903 18.266 6.53422 14.334
61 1 3 -0.0559 26.1971 11.1132 7.85825
62 1 3 -0.0559 10.3349 9.9785 7.05587
63 1 3 -0.055903 10.3349 11.1132 7.85825
64 1 3 -0.055903 26.1971 9.9785 7.05587
65 1 3 -0.0559 14.7918 8.54005 0.580159
66 1 3 -0.0559 21.7402 12.5517 14.334
67 1 3 -0.055903 22.7229 13.1191 13.5316
68 1 3 -0.055903 13.8091 7.97268 1.38254
69 1 3 -0.0559 21.7402 3.39366 7.85825
70 1 3 -0.0559 14.7918 17.6981 7.05587
71 1 3 -0.055903 13.8091 17.1307 7.85825
72 1 3 -0.055903 22.7229 3.96103 7.05587
73 1 3 -0.055901 22.7229 17.1307 7.85825
74 1 3 -0.055901 13.8091 3.96103 7.05587
75 1 3 -0.055903 14.7918 3.39366 7.85825
76 1 3 -0.055903 21.7402 17.6981 7.05587
77 1 3 -0.0559 21.7402 8.54005 0.580159
78 1 3 -0.0559 14.7918 12.5517 14.334
79 1 3 -0.055903 13.8091 13.1191 13.5316
80 1 3 -0.055903 22.7229 7.97268 1.38254
81 1 4 -1.26215 27.399 15.8188 11.1856
82 1 4 -1.26215 9.13299 5.27293 3.72853
83 1 4 -0.60118 27.399 18.9383 11.9641
84 1 4 -0.60118 9.13299 2.15347 2.95001
85 1 4 -0.601179 27.399 17.5926 13.8671
86 1 4 -0.601179 9.13299 3.49912 1.04697
87 1 4 -0.601179 26.2336 13.3722 9.45555
88 1 4 -0.601179 10.2984 7.71958 5.45857
89 1 4 -0.60118 28.5643 13.3722 9.45555
90 1 4 -0.60118 7.96762 7.71958 5.45857
91 1 4 -0.60118 25.8628 14.9319 13.8671
92 1 4 -0.60118 10.6692 6.15984 1.04697
93 1 4 -0.601179 24.6974 14.2591 11.9641
94 1 4 -0.601179 11.8345 6.83267 2.95001
95 1 4 -0.60118 28.9351 18.0514 9.45555
96 1 4 -0.60118 7.59682 3.04037 5.45857
97 1 4 -0.601179 30.1005 16.0329 9.45555
98 1 4 -0.601179 6.43145 5.05885 5.45857
99 1 4 -0.601179 24.6974 16.0329 9.45555
100 1 4 -0.601179 11.8345 5.05885 5.45857
101 1 4 -0.60118 25.8628 18.0514 9.45555
102 1 4 -0.60118 10.6692 3.04037 5.45857
103 1 4 -0.60118 28.9351 14.9319 13.8671
104 1 4 -0.60118 7.59682 6.15984 1.04697
105 1 4 -0.60118 30.1005 14.2591 11.9641
106 1 4 -0.60118 6.43145 6.83267 2.95001
19400 6433 5 -0.35 13.618 9.05231 13.3766
19401 6433 6 0.7 14.5519 9.16298 12.6976
19402 6433 5 -0.35 15.4859 9.27366 12.0186
19505 6468 5 -0.35 24.099 17.2812 14.3997
19506 6468 6 0.7 15.4737 12.0145 0.52855
19507 6468 5 -0.35 15.9813 12.0207 1.57156
19592 6497 5 -0.35 12.7911 4.58001 10.4969
19593 6497 6 0.7 22.3092 19.8372 11.4359
19594 6497 5 -0.35 22.6944 19.2756 12.375
19604 6501 5 -0.35 14.5347 6.04828 12.8918
19605 6501 6 0.7 14.8078 5.46014 13.8537
19606 6501 5 -0.35 24.2138 20.6908 14.8155
19616 6505 5 -0.35 26.741 11.3249 13.7851
19617 6505 6 0.7 26.7409 11.0549 12.6569
19618 6505 5 -0.35 26.7407 10.7849 11.5288
19622 6507 5 -0.35 32.3052 19.151 11.0314
19623 6507 6 0.7 22.2141 3.97903 11.1277
19624 6507 5 -0.35 21.256 4.62584 11.224
19625 6508 5 -0.35 18.9328 6.98856 10.3246
19626 6508 6 0.7 19.947 6.89263 9.7699
19627 6508 5 -0.35 20.9613 6.7967 9.21517
19688 6529 5 -0.35 20.5828 16.8935 11.9338
19689 6529 6 0.7 20.4757 15.75 12.0968
19690 6529 5 -0.35 20.3687 14.6065 12.2597
19700 6533 5 -0.35 11.9798 12.6309 3.19243
19701 6533 6 0.7 11.8426 12.5948 2.04113
19702 6533 5 -0.35 11.7054 12.5586 0.88984
19703 6534 5 -0.35 13.4771 8.76621 6.15468
19704 6534 6 0.7 13.6871 7.88111 5.43489
19705 6534 5 -0.35 13.8971 6.99601 4.7151
19709 6536 5 -0.35 21.5844 15.0304 3.38291
19710 6536 6 0.7 21.8936 14.9991 2.26532
19711 6536 5 -0.35 22.2028 14.9678 1.14773
19712 6537 5 -0.35 16.9646 8.25423 5.5563
19713 6537 6 0.7 16.793 8.32623 4.41132
19714 6537 5 -0.35 16.6214 8.39822 3.26634
19715 6538 5 -0.35 21.591 13.7685 9.88035
19716 6538 6 0.7 22.2651 13.505 8.97388
19717 6538 5 -0.35 22.9393 13.2414 8.0674
19718 6539 5 -0.35 4.96795 4.30219 2.43279
19719 6539 6 0.7 4.84174 3.1603 2.27224
19720 6539 5 -0.35 4.71552 2.01842 2.11169
19721 6540 5 -0.35 17.3341 12.8961 10.9318
19722 6540 6 0.7 18.2797 12.2911 10.6397
19723 6540 5 -0.35 19.2254 11.6861 10.3475
19724 6541 5 -0.35 10.1761 9.71183 0.885158
19725 6541 6 0.7 9.42424 9.66806 1.7674
19726 6541 5 -0.35 8.67235 9.6243 2.64963
19727 6542 5 -0.35 27.7032 17.372 4.46018
19728 6542 6 0.7 18.9422 1.46475 3.36499
19729 6542 5 -0.35 19.3141 1.37633 2.26979
19730 6543 5 -0.35 16.9775 16.9421 11.754
19731 6543 6 0.7 16.5489 15.9353 12.1392
19732 6543 5 -0.35 16.1204 14.9285 12.5244
19733 6544 5 -0.35 13.622 15.0179 5.62114
19734 6544 6 0.7 14.3013 15.0602 4.68175
19735 6544 5 -0.35 14.9805 15.1024 3.74237
ITEM: TIMESTEP
29000
ITEM: NUMBER OF ATOMS
181
ITEM: BOX BOUNDS xy xz yz pp pp pp
0.0000000000000000e+00 3.6531964750000000e+01 9.1329911900000003e+00
0.0000000000000000e+00 2.1091739680000000e+01 9.1329911900000003e+00
0.0000000000000000e+00 1.4914112149999999e+01 5.2729349200000000e+00
ITEM: ATOMS id mol type q x y z
1 1 1 1.10383 27.399 17.6496 10.5383
2 1 1 1.10383 9.13299 3.44217 4.3758
3 1 1 1.10383 27.399 15.8188 13.1274
4 1 1 1.10383 9.13299 5.27293 1.78671
5 1 1 1.10383 25.8135 14.9034 10.5383
6 1 1 1.10383 10.7185 6.18832 4.3758
7 1 1 1.10383 28.9845 14.9034 10.5383
8 1 1 1.10383 7.5475 6.18832 4.3758
9 1 2 0.115889 18.266 5.48596 12.6084
10 1 2 0.115889 18.266 15.6058 2.30572
11 1 2 0.115888 18.266 13.716 0.969417
12 1 2 0.115888 18.266 7.37578 13.9447
13 1 2 0.11589 25.3934 11.4908 8.12521
14 1 2 0.11589 11.1386 9.60096 6.7889
15 1 2 0.115888 11.1386 11.4908 8.12521
16 1 2 0.115888 25.3934 9.60096 6.7889
17 1 2 0.115889 15.5206 8.96083 0.969417
18 1 2 0.115889 21.0114 12.1309 13.9447
19 1 2 0.115888 22.648 13.0758 12.6084
20 1 2 0.115888 13.884 8.01592 2.30572
21 1 2 0.115889 21.0114 3.90092 8.12521
22 1 2 0.115889 15.5206 17.1908 6.7889
23 1 2 0.115887 13.884 16.2459 8.12521
24 1 2 0.115887 22.648 4.84583 6.7889
25 1 2 0.115889 22.648 16.2459 8.12521
26 1 2 0.115889 13.884 4.84583 6.7889
27 1 2 0.115887 15.5206 3.90092 8.12521
28 1 2 0.115887 21.0114 17.1908 6.7889
29 1 2 0.115889 21.0114 8.96083 0.969417
30 1 2 0.115889 15.5206 12.1309 13.9447
31 1 2 0.115887 13.884 13.0758 12.6084
32 1 2 0.115887 22.648 8.01592 2.30572
33 1 3 0.671939 27.399 18.7442 13.2542
34 1 3 0.671939 9.13299 2.34751 1.65994
35 1 3 0.671939 27.399 12.8934 9.117
36 1 3 0.671939 9.13299 8.19836 5.79712
37 1 3 0.67194 24.8655 14.3561 13.2542
38 1 3 0.67194 11.6665 6.73565 1.65994
39 1 3 0.67194 29.9325 17.2815 9.117
40 1 3 0.67194 6.5995 3.81022 5.79712
41 1 3 0.67194 24.8655 17.2815 9.117
42 1 3 0.67194 11.6665 3.81022 5.79712
43 1 3 0.67194 29.9325 14.3561 13.2542
44 1 3 0.67194 6.5995 6.73565 1.65994
45 1 3 -0.11508 27.399 19.957 14.1117
46 1 3 -0.11508 9.13299 1.13474 0.802379
47 1 3 -0.11508 27.399 11.6806 8.25944
48 1 3 -0.11508 9.13299 9.41113 6.65468
49 1 3 -0.11508 23.8152 13.7497 14.1117
50 1 3 -0.11508 12.7168 7.34203 0.802379
51 1 3 -0.11508 30.9828 17.8879 8.25944
52 1 3 -0.11508 5.54921 3.20384 6.65468
53 1 3 -0.11508 23.8152 17.8879 8.25944
54 1 3 -0.11508 12.7168 3.20384 6.65468
55 1 3 -0.11508 30.9828 13.7497 14.1117
56 1 3 -0.11508 5.54921 7.34203 0.802379
57 1 3 -0.0559 18.266 5.39949 13.5316
58 1 3 -0.0559 18.266 15.6923 1.38254
59 1 3 -0.055903 18.266 14.5575 0.580159
60 1 3 -0.055903 18.266 6.53422 14.334
61 1 3 -0.0559 26.1971 11.1132 7.85825
62 1 3 -0.0559 10.3349 9.9785 7.05587
63 1 3 -0.055903 10.3349 11.1132 7.85825
64 1 3 -0.055903 26.1971 9.9785 7.05587
65 1 3 -0.0559 14.7918 8.54005 0.580159
66 1 3 -0.0559 21.7402 12.5517 14.334
67 1 3 -0.055903 22.7229 13.1191 13.5316
68 1 3 -0.055903 13.8091 7.97268 1.38254
69 1 3 -0.0559 21.7402 3.39366 7.85825
70 1 3 -0.0559 14.7918 17.6981 7.05587
71 1 3 -0.055903 13.8091 17.1307 7.85825
72 1 3 -0.055903 22.7229 3.96103 7.05587
73 1 3 -0.055901 22.7229 17.1307 7.85825
74 1 3 -0.055901 13.8091 3.96103 7.05587
75 1 3 -0.055903 14.7918 3.39366 7.85825
76 1 3 -0.055903 21.7402 17.6981 7.05587
77 1 3 -0.0559 21.7402 8.54005 0.580159
78 1 3 -0.0559 14.7918 12.5517 14.334
79 1 3 -0.055903 13.8091 13.1191 13.5316
80 1 3 -0.055903 22.7229 7.97268 1.38254
81 1 4 -1.26215 27.399 15.8188 11.1856
82 1 4 -1.26215 9.13299 5.27293 3.72853
83 1 4 -0.60118 27.399 18.9383 11.9641
84 1 4 -0.60118 9.13299 2.15347 2.95001
85 1 4 -0.601179 27.399 17.5926 13.8671
86 1 4 -0.601179 9.13299 3.49912 1.04697
87 1 4 -0.601179 26.2336 13.3722 9.45555
88 1 4 -0.601179 10.2984 7.71958 5.45857
89 1 4 -0.60118 28.5643 13.3722 9.45555
90 1 4 -0.60118 7.96762 7.71958 5.45857
91 1 4 -0.60118 25.8628 14.9319 13.8671
92 1 4 -0.60118 10.6692 6.15984 1.04697
93 1 4 -0.601179 24.6974 14.2591 11.9641
94 1 4 -0.601179 11.8345 6.83267 2.95001
95 1 4 -0.60118 28.9351 18.0514 9.45555
96 1 4 -0.60118 7.59682 3.04037 5.45857
97 1 4 -0.601179 30.1005 16.0329 9.45555
98 1 4 -0.601179 6.43145 5.05885 5.45857
99 1 4 -0.601179 24.6974 16.0329 9.45555
100 1 4 -0.601179 11.8345 5.05885 5.45857
101 1 4 -0.60118 25.8628 18.0514 9.45555
102 1 4 -0.60118 10.6692 3.04037 5.45857
103 1 4 -0.60118 28.9351 14.9319 13.8671
104 1 4 -0.60118 7.59682 6.15984 1.04697
105 1 4 -0.60118 30.1005 14.2591 11.9641
106 1 4 -0.60118 6.43145 6.83267 2.95001
19622 6507 5 -0.35 15.4741 16.0816 10.5624
19623 6507 6 0.7 15.0335 16.249 11.6223
19624 6507 5 -0.35 32.8589 16.4164 12.6823
19850 6583 5 -0.35 13.7884 2.98232 2.50513
19851 6583 6 0.7 14.6981 3.19161 1.81645
19852 6583 5 -0.35 15.6077 3.40091 1.12777
19862 6587 5 -0.35 25.7391 10.8542 12.0936
19863 6587 6 0.7 26.8426 11.0593 11.8006
19864 6587 5 -0.35 27.9461 11.2643 11.5075
20162 6687 5 -0.35 27.5858 15.7744 5.05935
20163 6687 6 0.7 27.5674 16.3287 6.07819
20164 6687 5 -0.35 27.5489 16.883 7.09703
20189 6696 5 -0.35 19.605 15.7367 11.5435
20190 6696 6 0.7 20.3321 15.2361 10.791
20191 6696 5 -0.35 21.0592 14.7355 10.0384
20198 6699 5 -0.35 17.4717 18.007 11.9078
20199 6699 6 0.7 18.2799 18.2146 11.1021
20200 6699 5 -0.35 19.0881 18.4223 10.2963
20207 6702 5 -0.35 18.2099 14.2715 14.6332
20208 6702 6 0.7 17.2781 14.9097 14.8979
20209 6702 5 -0.35 7.2133 10.2749 0.248627
20216 6705 5 -0.35 9.31752 5.93057 10.7625
20217 6705 6 0.7 9.03984 7.03866 10.5609
20218 6705 5 -0.35 27.0281 8.14675 10.3594
20228 6709 5 -0.35 17.9268 7.46638 1.49957
20229 6709 6 0.7 18.7363 6.7514 1.07636
20230 6709 5 -0.35 19.5458 6.03643 0.65315
20252 6717 5 -0.35 23.1321 10.2759 4.61792
20253 6717 6 0.7 24.0183 10.098 3.8908
20254 6717 5 -0.35 24.9044 9.92014 3.16368
20267 6722 5 -0.35 22.9314 12.4214 2.34096
20268 6722 6 0.7 23.1974 13.163 1.4895
20269 6722 5 -0.35 23.4633 13.9045 0.638047
20306 6735 5 -0.35 23.5628 19.7946 13.4246
20307 6735 6 0.7 23.2676 19.6994 12.3068
20308 6735 5 -0.35 22.9724 19.6042 11.189
20336 6745 5 -0.35 20.7646 2.19938 4.42777
20337 6745 6 0.7 20.2487 3.05095 3.83252
20338 6745 5 -0.35 19.7328 3.90252 3.23728
20342 6747 5 -0.35 20.0922 5.72056 5.68362
20343 6747 6 0.7 20.4428 6.58027 4.98822
20344 6747 5 -0.35 20.7933 7.43999 4.29282
20369 6756 5 -0.35 35.4146 20.483 14.3463
20370 6756 6 0.7 26.4407 14.4664 0.308097
20371 6756 5 -0.35 26.5997 13.7226 1.18397
20381 6760 5 -0.35 1.40789 1.35671 0.867523
20382 6760 6 0.7 10.1435 7.07899 14.7888
20383 6760 5 -0.35 28.0121 7.52833 13.7959
20387 6762 5 -0.35 17.4574 6.78477 4.37024
20388 6762 6 0.7 16.7456 5.97518 3.94193
20389 6762 5 -0.35 16.0338 5.16559 3.51362
20390 6763 5 -0.35 23.8263 14.7409 4.87141
20391 6763 6 0.7 24.4863 13.8125 5.09034
20392 6763 5 -0.35 25.1463 12.884 5.30927
20399 6766 5 -0.35 12.0449 10.6729 1.4672
20400 6766 6 0.7 12.3579 10.8591 0.365866
20401 6766 5 -0.35 21.804 16.3182 14.1787
20417 6772 5 -0.35 5.64548 2.40627 3.13825
20418 6772 6 0.7 5.87712 1.38334 3.6338
20419 6772 5 -0.35 15.2418 16.1792 4.12935
20432 6777 5 -0.35 17.8501 6.65356 10.1421
20433 6777 6 0.7 17.6286 6.18962 9.10225
20434 6777 5 -0.35 17.407 5.72568 8.06241
20435 6778 5 -0.35 12.1944 14.0625 1.20626
20436 6778 6 0.7 12.2449 14.8162 2.0866
20437 6778 5 -0.35 12.2954 15.5699 2.96694
20450 6783 5 -0.35 18.9958 10.1804 8.49468
20451 6783 6 0.7 19.2802 9.14318 8.06019
20452 6783 5 -0.35 19.5646 8.10591 7.6257
20456 6785 5 -0.35 16.122 8.78689 13.6428
20457 6785 6 0.7 16.2888 9.08075 12.5331
20458 6785 5 -0.35 16.4557 9.37461 11.4234
20459 6786 5 -0.35 17.6736 14.0154 9.60237
20460 6786 6 0.7 17.7477 14.0559 8.44545
20461 6786 5 -0.35 17.8219 14.0965 7.28854
ITEM: TIMESTEP
30000
ITEM: NUMBER OF ATOMS
193
ITEM: BOX BOUNDS xy xz yz pp pp pp
0.0000000000000000e+00 3.6531964750000000e+01 9.1329911900000003e+00
0.0000000000000000e+00 2.1091739680000000e+01 9.1329911900000003e+00
0.0000000000000000e+00 1.4914112149999999e+01 5.2729349200000000e+00
ITEM: ATOMS id mol type q x y z
1 1 1 1.10383 27.399 17.6496 10.5383
2 1 1 1.10383 9.13299 3.44217 4.3758
3 1 1 1.10383 27.399 15.8188 13.1274
4 1 1 1.10383 9.13299 5.27293 1.78671
5 1 1 1.10383 25.8135 14.9034 10.5383
6 1 1 1.10383 10.7185 6.18832 4.3758
7 1 1 1.10383 28.9845 14.9034 10.5383
8 1 1 1.10383 7.5475 6.18832 4.3758
9 1 2 0.115889 18.266 5.48596 12.6084
10 1 2 0.115889 18.266 15.6058 2.30572
11 1 2 0.115888 18.266 13.716 0.969417
12 1 2 0.115888 18.266 7.37578 13.9447
13 1 2 0.11589 25.3934 11.4908 8.12521
14 1 2 0.11589 11.1386 9.60096 6.7889
15 1 2 0.115888 11.1386 11.4908 8.12521
16 1 2 0.115888 25.3934 9.60096 6.7889
17 1 2 0.115889 15.5206 8.96083 0.969417
18 1 2 0.115889 21.0114 12.1309 13.9447
19 1 2 0.115888 22.648 13.0758 12.6084
20 1 2 0.115888 13.884 8.01592 2.30572
21 1 2 0.115889 21.0114 3.90092 8.12521
22 1 2 0.115889 15.5206 17.1908 6.7889
23 1 2 0.115887 13.884 16.2459 8.12521
24 1 2 0.115887 22.648 4.84583 6.7889
25 1 2 0.115889 22.648 16.2459 8.12521
26 1 2 0.115889 13.884 4.84583 6.7889
27 1 2 0.115887 15.5206 3.90092 8.12521
28 1 2 0.115887 21.0114 17.1908 6.7889
29 1 2 0.115889 21.0114 8.96083 0.969417
30 1 2 0.115889 15.5206 12.1309 13.9447
31 1 2 0.115887 13.884 13.0758 12.6084
32 1 2 0.115887 22.648 8.01592 2.30572
33 1 3 0.671939 27.399 18.7442 13.2542
34 1 3 0.671939 9.13299 2.34751 1.65994
35 1 3 0.671939 27.399 12.8934 9.117
36 1 3 0.671939 9.13299 8.19836 5.79712
37 1 3 0.67194 24.8655 14.3561 13.2542
38 1 3 0.67194 11.6665 6.73565 1.65994
39 1 3 0.67194 29.9325 17.2815 9.117
40 1 3 0.67194 6.5995 3.81022 5.79712
41 1 3 0.67194 24.8655 17.2815 9.117
42 1 3 0.67194 11.6665 3.81022 5.79712
43 1 3 0.67194 29.9325 14.3561 13.2542
44 1 3 0.67194 6.5995 6.73565 1.65994
45 1 3 -0.11508 27.399 19.957 14.1117
46 1 3 -0.11508 9.13299 1.13474 0.802379
47 1 3 -0.11508 27.399 11.6806 8.25944
48 1 3 -0.11508 9.13299 9.41113 6.65468
49 1 3 -0.11508 23.8152 13.7497 14.1117
50 1 3 -0.11508 12.7168 7.34203 0.802379
51 1 3 -0.11508 30.9828 17.8879 8.25944
52 1 3 -0.11508 5.54921 3.20384 6.65468
53 1 3 -0.11508 23.8152 17.8879 8.25944
54 1 3 -0.11508 12.7168 3.20384 6.65468
55 1 3 -0.11508 30.9828 13.7497 14.1117
56 1 3 -0.11508 5.54921 7.34203 0.802379
57 1 3 -0.0559 18.266 5.39949 13.5316
58 1 3 -0.0559 18.266 15.6923 1.38254
59 1 3 -0.055903 18.266 14.5575 0.580159
60 1 3 -0.055903 18.266 6.53422 14.334
61 1 3 -0.0559 26.1971 11.1132 7.85825
62 1 3 -0.0559 10.3349 9.9785 7.05587
63 1 3 -0.055903 10.3349 11.1132 7.85825
64 1 3 -0.055903 26.1971 9.9785 7.05587
65 1 3 -0.0559 14.7918 8.54005 0.580159
66 1 3 -0.0559 21.7402 12.5517 14.334
67 1 3 -0.055903 22.7229 13.1191 13.5316
68 1 3 -0.055903 13.8091 7.97268 1.38254
69 1 3 -0.0559 21.7402 3.39366 7.85825
70 1 3 -0.0559 14.7918 17.6981 7.05587
71 1 3 -0.055903 13.8091 17.1307 7.85825
72 1 3 -0.055903 22.7229 3.96103 7.05587
73 1 3 -0.055901 22.7229 17.1307 7.85825
74 1 3 -0.055901 13.8091 3.96103 7.05587
75 1 3 -0.055903 14.7918 3.39366 7.85825
76 1 3 -0.055903 21.7402 17.6981 7.05587
77 1 3 -0.0559 21.7402 8.54005 0.580159
78 1 3 -0.0559 14.7918 12.5517 14.334
79 1 3 -0.055903 13.8091 13.1191 13.5316
80 1 3 -0.055903 22.7229 7.97268 1.38254
81 1 4 -1.26215 27.399 15.8188 11.1856
82 1 4 -1.26215 9.13299 5.27293 3.72853
83 1 4 -0.60118 27.399 18.9383 11.9641
84 1 4 -0.60118 9.13299 2.15347 2.95001
85 1 4 -0.601179 27.399 17.5926 13.8671
86 1 4 -0.601179 9.13299 3.49912 1.04697
87 1 4 -0.601179 26.2336 13.3722 9.45555
88 1 4 -0.601179 10.2984 7.71958 5.45857
89 1 4 -0.60118 28.5643 13.3722 9.45555
90 1 4 -0.60118 7.96762 7.71958 5.45857
91 1 4 -0.60118 25.8628 14.9319 13.8671
92 1 4 -0.60118 10.6692 6.15984 1.04697
93 1 4 -0.601179 24.6974 14.2591 11.9641
94 1 4 -0.601179 11.8345 6.83267 2.95001
95 1 4 -0.60118 28.9351 18.0514 9.45555
96 1 4 -0.60118 7.59682 3.04037 5.45857
97 1 4 -0.601179 30.1005 16.0329 9.45555
98 1 4 -0.601179 6.43145 5.05885 5.45857
99 1 4 -0.601179 24.6974 16.0329 9.45555
100 1 4 -0.601179 11.8345 5.05885 5.45857
101 1 4 -0.60118 25.8628 18.0514 9.45555
102 1 4 -0.60118 10.6692 3.04037 5.45857
103 1 4 -0.60118 28.9351 14.9319 13.8671
104 1 4 -0.60118 7.59682 6.15984 1.04697
105 1 4 -0.60118 30.1005 14.2591 11.9641
106 1 4 -0.60118 6.43145 6.83267 2.95001
20228 6709 5 -0.35 18.2593 9.07168 1.39188
20229 6709 6 0.7 18.4606 8.02729 0.928908
20230 6709 5 -0.35 18.6619 6.98291 0.465936
20642 6847 5 -0.35 13.0207 3.20952 0.123211
20643 6847 6 0.7 22.3669 8.63146 13.9069
20644 6847 5 -0.35 22.58 8.78046 12.7764
20687 6862 5 -0.35 27.0643 14.6317 4.942
20688 6862 6 0.7 26.2567 13.9506 5.42101
20689 6862 5 -0.35 25.4491 13.2694 5.90002
20702 6867 5 -0.35 9.06478 10.1117 2.17823
20703 6867 6 0.7 10.1261 10.2617 2.62183
20704 6867 5 -0.35 11.1874 10.4116 3.06544
20756 6885 5 -0.35 18.2069 5.53711 7.54967
20757 6885 6 0.7 18.648 5.79607 8.59084
20758 6885 5 -0.35 19.089 6.05504 9.63201
20777 6892 5 -0.35 19.8666 15.6472 14.5343
20778 6892 6 0.7 19.2618 15.2384 13.6327
20779 6892 5 -0.35 18.6569 14.8297 12.7312
20918 6939 5 -0.35 22.2766 13.6974 0.115656
20919 6939 6 0.7 31.0853 19.7763 14.2611
20920 6939 5 -0.35 30.761 20.5822 13.4924
20942 6947 5 -0.35 16.1334 4.3076 5.1871
20943 6947 6 0.7 16.6691 3.35637 5.57922
20944 6947 5 -0.35 17.2048 2.40513 5.97134
20951 6950 5 -0.35 10.1597 5.63116 14.3691
20952 6950 6 0.7 18.9736 20.373 14.6586
20953 6950 5 -0.35 9.52152 14.023 0.0340716
20957 6952 5 -0.35 5.8193 0.425809 0.134214
20958 6952 6 0.7 4.71232 0.129281 0.313842
20959 6952 5 -0.35 12.7383 15.6516 0.493471
20987 6962 5 -0.35 14.4093 5.36299 12.3668
20988 6962 6 0.7 15.0057 5.39708 11.3724
20989 6962 5 -0.35 15.6022 5.43117 10.3781
21038 6979 5 -0.35 14.5205 7.85026 5.24795
21039 6979 6 0.7 15.4894 7.61502 4.65515
21040 6979 5 -0.35 16.4584 7.37978 4.06235
21044 6981 5 -0.35 21.3885 13.6717 5.95143
21045 6981 6 0.7 21.9672 12.8419 6.51897
21046 6981 5 -0.35 22.5459 12.0121 7.08651
21059 6986 5 -0.35 18.6313 19.3371 10.8008
21060 6986 6 0.7 10.1089 3.89609 9.88972
21061 6986 5 -0.35 10.7194 4.27385 8.9786
21068 6989 5 -0.35 25.2274 12.5315 1.57897
21069 6989 6 0.7 24.8624 11.7728 0.780989
21070 6989 5 -0.35 33.6303 16.2871 14.8971
21074 6991 5 -0.35 33.2681 19.3577 12.0161
21075 6991 6 0.7 33.7108 19.1811 10.9585
21076 6991 5 -0.35 15.8874 19.0045 9.90089
21080 6993 5 -0.35 25.1329 10.9402 11.833
21081 6993 6 0.7 24.0704 10.9899 11.3703
21082 6993 5 -0.35 23.0078 11.0396 10.9077
21092 6997 5 -0.35 15.6151 12.9203 5.9572
21093 6997 6 0.7 15.7079 13.2051 4.83654
21094 6997 5 -0.35 15.8006 13.49 3.71589
21095 6998 5 -0.35 15.8802 1.72161 1.95058
21096 6998 6 0.7 14.8351 1.31244 2.24359
21097 6998 5 -0.35 13.7899 0.903268 2.53659
21098 6999 5 -0.35 14.176 13.5721 8.62172
21099 6999 6 0.7 14.3242 12.422 8.65257
21100 6999 5 -0.35 14.4725 11.272 8.68343
21101 7000 5 -0.35 20.757 10.173 8.6625
21102 7000 6 0.7 21.0986 9.17061 9.13582
21103 7000 5 -0.35 21.4402 8.16819 9.60915
21110 7003 5 -0.35 24.8056 7.27925 13.2229
21111 7003 6 0.7 24.5574 6.8084 12.1923
21112 7003 5 -0.35 24.3093 6.33754 11.1616
21113 7004 5 -0.35 3.89923 3.07049 0.59319
21114 7004 6 0.7 12.7318 8.83615 14.501
21115 7004 5 -0.35 12.4314 9.32888 13.4948
21116 7005 5 -0.35 3.36321 2.51047 4.06123
21117 7005 6 0.7 2.6313 1.7181 3.63456
21118 7005 5 -0.35 11.0324 16.7445 3.2079
21119 7006 5 -0.35 18.4464 11.583 5.9932
21120 7006 6 0.7 18.3289 10.449 6.20712
21121 7006 5 -0.35 18.2113 9.31496 6.42105
21122 7007 5 -0.35 11.4627 13.8861 6.03092
21123 7007 6 0.7 11.3613 13.5372 4.9293
21124 7007 5 -0.35 11.2598 13.1883 3.82768
21125 7008 5 -0.35 17.3796 16.2642 9.70699
21126 7008 6 0.7 18.5296 16.3534 9.58389
21127 7008 5 -0.35 19.6796 16.4425 9.46079
21128 7009 5 -0.35 24.1662 18.1975 13.3975
21129 7009 6 0.7 23.2652 17.4851 13.5594
21130 7009 5 -0.35 22.3642 16.7727 13.7213
21131 7010 5 -0.35 21.0744 9.72396 4.47975
21132 7010 6 0.7 21.9545 9.24298 5.06256
21133 7010 5 -0.35 22.8346 8.762 5.64537
ITEM: TIMESTEP
31000
ITEM: NUMBER OF ATOMS
199
ITEM: BOX BOUNDS xy xz yz pp pp pp
0.0000000000000000e+00 3.6531964750000000e+01 9.1329911900000003e+00
0.0000000000000000e+00 2.1091739680000000e+01 9.1329911900000003e+00
0.0000000000000000e+00 1.4914112149999999e+01 5.2729349200000000e+00
ITEM: ATOMS id mol type q x y z
1 1 1 1.10383 27.399 17.6496 10.5383
2 1 1 1.10383 9.13299 3.44217 4.3758
3 1 1 1.10383 27.399 15.8188 13.1274
4 1 1 1.10383 9.13299 5.27293 1.78671
5 1 1 1.10383 25.8135 14.9034 10.5383
6 1 1 1.10383 10.7185 6.18832 4.3758
7 1 1 1.10383 28.9845 14.9034 10.5383
8 1 1 1.10383 7.5475 6.18832 4.3758
9 1 2 0.115889 18.266 5.48596 12.6084
10 1 2 0.115889 18.266 15.6058 2.30572
11 1 2 0.115888 18.266 13.716 0.969417
12 1 2 0.115888 18.266 7.37578 13.9447
13 1 2 0.11589 25.3934 11.4908 8.12521
14 1 2 0.11589 11.1386 9.60096 6.7889
15 1 2 0.115888 11.1386 11.4908 8.12521
16 1 2 0.115888 25.3934 9.60096 6.7889
17 1 2 0.115889 15.5206 8.96083 0.969417
18 1 2 0.115889 21.0114 12.1309 13.9447
19 1 2 0.115888 22.648 13.0758 12.6084
20 1 2 0.115888 13.884 8.01592 2.30572
21 1 2 0.115889 21.0114 3.90092 8.12521
22 1 2 0.115889 15.5206 17.1908 6.7889
23 1 2 0.115887 13.884 16.2459 8.12521
24 1 2 0.115887 22.648 4.84583 6.7889
25 1 2 0.115889 22.648 16.2459 8.12521
26 1 2 0.115889 13.884 4.84583 6.7889
27 1 2 0.115887 15.5206 3.90092 8.12521
28 1 2 0.115887 21.0114 17.1908 6.7889
29 1 2 0.115889 21.0114 8.96083 0.969417
30 1 2 0.115889 15.5206 12.1309 13.9447
31 1 2 0.115887 13.884 13.0758 12.6084
32 1 2 0.115887 22.648 8.01592 2.30572
33 1 3 0.671939 27.399 18.7442 13.2542
34 1 3 0.671939 9.13299 2.34751 1.65994
35 1 3 0.671939 27.399 12.8934 9.117
36 1 3 0.671939 9.13299 8.19836 5.79712
37 1 3 0.67194 24.8655 14.3561 13.2542
38 1 3 0.67194 11.6665 6.73565 1.65994
39 1 3 0.67194 29.9325 17.2815 9.117
40 1 3 0.67194 6.5995 3.81022 5.79712
41 1 3 0.67194 24.8655 17.2815 9.117
42 1 3 0.67194 11.6665 3.81022 5.79712
43 1 3 0.67194 29.9325 14.3561 13.2542
44 1 3 0.67194 6.5995 6.73565 1.65994
45 1 3 -0.11508 27.399 19.957 14.1117
46 1 3 -0.11508 9.13299 1.13474 0.802379
47 1 3 -0.11508 27.399 11.6806 8.25944
48 1 3 -0.11508 9.13299 9.41113 6.65468
49 1 3 -0.11508 23.8152 13.7497 14.1117
50 1 3 -0.11508 12.7168 7.34203 0.802379
51 1 3 -0.11508 30.9828 17.8879 8.25944
52 1 3 -0.11508 5.54921 3.20384 6.65468
53 1 3 -0.11508 23.8152 17.8879 8.25944
54 1 3 -0.11508 12.7168 3.20384 6.65468
55 1 3 -0.11508 30.9828 13.7497 14.1117
56 1 3 -0.11508 5.54921 7.34203 0.802379
57 1 3 -0.0559 18.266 5.39949 13.5316
58 1 3 -0.0559 18.266 15.6923 1.38254
59 1 3 -0.055903 18.266 14.5575 0.580159
60 1 3 -0.055903 18.266 6.53422 14.334
61 1 3 -0.0559 26.1971 11.1132 7.85825
62 1 3 -0.0559 10.3349 9.9785 7.05587
63 1 3 -0.055903 10.3349 11.1132 7.85825
64 1 3 -0.055903 26.1971 9.9785 7.05587
65 1 3 -0.0559 14.7918 8.54005 0.580159
66 1 3 -0.0559 21.7402 12.5517 14.334
67 1 3 -0.055903 22.7229 13.1191 13.5316
68 1 3 -0.055903 13.8091 7.97268 1.38254
69 1 3 -0.0559 21.7402 3.39366 7.85825
70 1 3 -0.0559 14.7918 17.6981 7.05587
71 1 3 -0.055903 13.8091 17.1307 7.85825
72 1 3 -0.055903 22.7229 3.96103 7.05587
73 1 3 -0.055901 22.7229 17.1307 7.85825
74 1 3 -0.055901 13.8091 3.96103 7.05587
75 1 3 -0.055903 14.7918 3.39366 7.85825
76 1 3 -0.055903 21.7402 17.6981 7.05587
77 1 3 -0.0559 21.7402 8.54005 0.580159
78 1 3 -0.0559 14.7918 12.5517 14.334
79 1 3 -0.055903 13.8091 13.1191 13.5316
80 1 3 -0.055903 22.7229 7.97268 1.38254
81 1 4 -1.26215 27.399 15.8188 11.1856
82 1 4 -1.26215 9.13299 5.27293 3.72853
83 1 4 -0.60118 27.399 18.9383 11.9641
84 1 4 -0.60118 9.13299 2.15347 2.95001
85 1 4 -0.601179 27.399 17.5926 13.8671
86 1 4 -0.601179 9.13299 3.49912 1.04697
87 1 4 -0.601179 26.2336 13.3722 9.45555
88 1 4 -0.601179 10.2984 7.71958 5.45857
89 1 4 -0.60118 28.5643 13.3722 9.45555
90 1 4 -0.60118 7.96762 7.71958 5.45857
91 1 4 -0.60118 25.8628 14.9319 13.8671
92 1 4 -0.60118 10.6692 6.15984 1.04697
93 1 4 -0.601179 24.6974 14.2591 11.9641
94 1 4 -0.601179 11.8345 6.83267 2.95001
95 1 4 -0.60118 28.9351 18.0514 9.45555
96 1 4 -0.60118 7.59682 3.04037 5.45857
97 1 4 -0.601179 30.1005 16.0329 9.45555
98 1 4 -0.601179 6.43145 5.05885 5.45857
99 1 4 -0.601179 24.6974 16.0329 9.45555
100 1 4 -0.601179 11.8345 5.05885 5.45857
101 1 4 -0.60118 25.8628 18.0514 9.45555
102 1 4 -0.60118 10.6692 3.04037 5.45857
103 1 4 -0.60118 28.9351 14.9319 13.8671
104 1 4 -0.60118 7.59682 6.15984 1.04697
105 1 4 -0.60118 30.1005 14.2591 11.9641
106 1 4 -0.60118 6.43145 6.83267 2.95001
20642 6847 5 -0.35 13.9698 3.84317 0.462405
20643 6847 6 0.7 22.866 9.34452 14.2641
20644 6847 5 -0.35 22.6292 9.57292 13.1518
21080 6993 5 -0.35 25.1644 11.0213 12.1471
21081 6993 6 0.7 24.4851 11.3239 11.2568
21082 6993 5 -0.35 23.8058 11.6265 10.3665
21212 7037 5 -0.35 16.7227 11.4121 1.95339
21213 7037 6 0.7 16.1168 12.2419 1.41505
21214 7037 5 -0.35 15.5109 13.0718 0.876717
21515 7138 5 -0.35 22.3428 14.8891 0.253826
21516 7138 6 0.7 21.8895 5.37377 14.8885
21517 7138 5 -0.35 21.4363 6.40434 14.6091
21521 7140 5 -0.35 31.2287 17.7793 12.8139
21522 7140 6 0.7 31.9404 17.0627 13.3844
21523 7140 5 -0.35 32.6521 16.3461 13.955
21542 7147 5 -0.35 18.1665 3.81267 6.8578
21543 7147 6 0.7 18.334 2.66487 6.84788
21544 7147 5 -0.35 27.6344 17.3359 6.83797
21560 7153 5 -0.35 9.17886 4.31299 7.8615
21561 7153 6 0.7 9.04984 3.16459 7.96219
21562 7153 5 -0.35 18.0538 17.835 8.06289
21563 7154 5 -0.35 17.8438 6.18585 0.277054
21564 7154 6 0.7 27.3924 11.7414 14.1457
21565 7154 5 -0.35 27.8081 12.024 13.1002
21572 7157 5 -0.35 19.7319 11.1145 2.44684
21573 7157 6 0.7 20.4139 11.5365 1.60874
21574 7157 5 -0.35 21.0959 11.9585 0.770636
21575 7158 5 -0.35 9.53166 8.57741 10.6306
21576 7158 6 0.7 10.6766 8.60146 10.4459
21577 7158 5 -0.35 11.8216 8.62551 10.2613
21596 7165 5 -0.35 13.4582 10.3914 6.32204
21597 7165 6 0.7 14.0444 11.0411 5.56061
21598 7165 5 -0.35 14.6306 11.6909 4.79918
21617 7172 5 -0.35 16.0887 8.64522 3.95196
21618 7172 6 0.7 17.1958 8.39102 3.71651
21619 7172 5 -0.35 18.3028 8.13682 3.48106
21644 7181 5 -0.35 8.97459 8.59635 2.64083
21645 7181 6 0.7 9.30032 9.07206 1.63425
21646 7181 5 -0.35 9.62605 9.54776 0.627668
21659 7186 5 -0.35 16.8774 3.78742 1.97466
21660 7186 6 0.7 16.3769 4.74523 2.39616
21661 7186 5 -0.35 15.8764 5.70305 2.81766
21668 7189 5 -0.35 18.6121 11.7605 4.91748
21669 7189 6 0.7 18.0934 10.9071 5.50753
21670 7189 5 -0.35 17.5747 10.0536 6.09758
21701 7200 5 -0.35 21.6669 16.5662 2.81833
21702 7200 6 0.7 12.4253 1.8996 2.74011
21703 7200 5 -0.35 12.3166 3.05184 2.66189
21719 7206 5 -0.35 22.806 9.20006 7.50982
21720 7206 6 0.7 23.4029 8.97534 8.47875
21721 7206 5 -0.35 23.9997 8.75062 9.44769
21737 7212 5 -0.35 21.8627 4.98681 11.8688
21738 7212 6 0.7 21.3145 5.32417 10.9038
21739 7212 5 -0.35 20.7663 5.66154 9.93881
21752 7217 5 -0.35 3.2876 4.08734 1.43317
21753 7217 6 0.7 3.9025 3.49916 2.22155
21754 7217 5 -0.35 4.51739 2.91097 3.00993
21755 7218 5 -0.35 27.2872 13.766 5.57326
21756 7218 6 0.7 27.2908 12.8575 4.85196
21757 7218 5 -0.35 9.02848 11.9491 4.13066
21773 7224 5 -0.35 14.2138 15.797 4.13771
21774 7224 6 0.7 14.5347 15.8943 3.02721
21775 7224 5 -0.35 14.8555 15.9916 1.91671
21776 7225 5 -0.35 13.8242 11.2549 10.2882
21777 7225 6 0.7 13.9594 12.2646 9.73326
21778 7225 5 -0.35 14.0946 13.2742 9.17834
21779 7226 5 -0.35 11.0379 12.1771 0.142352
21780 7226 6 0.7 11.3027 12.6003 1.18944
21781 7226 5 -0.35 11.5675 13.0234 2.23653
21785 7228 5 -0.35 17.8843 14.3766 9.70746
21786 7228 6 0.7 17.6067 14.3014 8.5837
21787 7228 5 -0.35 17.329 14.2261 7.45994
21791 7230 5 -0.35 20.4035 10.8146 10.4867
21792 7230 6 0.7 19.9786 11.2487 9.49841
21793 7230 5 -0.35 19.5538 11.6828 8.51016
21794 7231 5 -0.35 14.8675 5.22243 13.0654
21795 7231 6 0.7 14.8595 4.58843 12.0941
21796 7231 5 -0.35 14.8516 3.95443 11.1227
21797 7232 5 -0.35 17.8699 6.52921 8.92799
21798 7232 6 0.7 16.7234 6.69252 8.99406
21799 7232 5 -0.35 15.5768 6.85583 9.06014
21800 7233 5 -0.35 24.1631 15.9076 4.78224
21801 7233 6 0.7 23.6179 14.9105 5.0153
21802 7233 5 -0.35 23.0728 13.9135 5.24837
21803 7234 5 -0.35 21.0679 6.7261 5.71448
21804 7234 6 0.7 20.7365 7.47333 6.53752
21805 7234 5 -0.35 20.405 8.22056 7.36055
21806 7235 5 -0.35 9.34387 5.94899 12.2826
21807 7235 6 0.7 26.5626 6.38488 12.525
21808 7235 5 -0.35 25.5153 6.82077 12.7675
21809 7236 5 -0.35 17.119 18.4994 14.2619
21810 7236 6 0.7 17.3762 18.1962 13.1722
21811 7236 5 -0.35 17.6335 17.893 12.0825
ITEM: TIMESTEP
32000
ITEM: NUMBER OF ATOMS
163
ITEM: BOX BOUNDS xy xz yz pp pp pp
0.0000000000000000e+00 3.6531964750000000e+01 9.1329911900000003e+00
0.0000000000000000e+00 2.1091739680000000e+01 9.1329911900000003e+00
0.0000000000000000e+00 1.4914112149999999e+01 5.2729349200000000e+00
ITEM: ATOMS id mol type q x y z
1 1 1 1.10383 27.399 17.6496 10.5383
2 1 1 1.10383 9.13299 3.44217 4.3758
3 1 1 1.10383 27.399 15.8188 13.1274
4 1 1 1.10383 9.13299 5.27293 1.78671
5 1 1 1.10383 25.8135 14.9034 10.5383
6 1 1 1.10383 10.7185 6.18832 4.3758
7 1 1 1.10383 28.9845 14.9034 10.5383
8 1 1 1.10383 7.5475 6.18832 4.3758
9 1 2 0.115889 18.266 5.48596 12.6084
10 1 2 0.115889 18.266 15.6058 2.30572
11 1 2 0.115888 18.266 13.716 0.969417
12 1 2 0.115888 18.266 7.37578 13.9447
13 1 2 0.11589 25.3934 11.4908 8.12521
14 1 2 0.11589 11.1386 9.60096 6.7889
15 1 2 0.115888 11.1386 11.4908 8.12521
16 1 2 0.115888 25.3934 9.60096 6.7889
17 1 2 0.115889 15.5206 8.96083 0.969417
18 1 2 0.115889 21.0114 12.1309 13.9447
19 1 2 0.115888 22.648 13.0758 12.6084
20 1 2 0.115888 13.884 8.01592 2.30572
21 1 2 0.115889 21.0114 3.90092 8.12521
22 1 2 0.115889 15.5206 17.1908 6.7889
23 1 2 0.115887 13.884 16.2459 8.12521
24 1 2 0.115887 22.648 4.84583 6.7889
25 1 2 0.115889 22.648 16.2459 8.12521
26 1 2 0.115889 13.884 4.84583 6.7889
27 1 2 0.115887 15.5206 3.90092 8.12521
28 1 2 0.115887 21.0114 17.1908 6.7889
29 1 2 0.115889 21.0114 8.96083 0.969417
30 1 2 0.115889 15.5206 12.1309 13.9447
31 1 2 0.115887 13.884 13.0758 12.6084
32 1 2 0.115887 22.648 8.01592 2.30572
33 1 3 0.671939 27.399 18.7442 13.2542
34 1 3 0.671939 9.13299 2.34751 1.65994
35 1 3 0.671939 27.399 12.8934 9.117
36 1 3 0.671939 9.13299 8.19836 5.79712
37 1 3 0.67194 24.8655 14.3561 13.2542
38 1 3 0.67194 11.6665 6.73565 1.65994
39 1 3 0.67194 29.9325 17.2815 9.117
40 1 3 0.67194 6.5995 3.81022 5.79712
41 1 3 0.67194 24.8655 17.2815 9.117
42 1 3 0.67194 11.6665 3.81022 5.79712
43 1 3 0.67194 29.9325 14.3561 13.2542
44 1 3 0.67194 6.5995 6.73565 1.65994
45 1 3 -0.11508 27.399 19.957 14.1117
46 1 3 -0.11508 9.13299 1.13474 0.802379
47 1 3 -0.11508 27.399 11.6806 8.25944
48 1 3 -0.11508 9.13299 9.41113 6.65468
49 1 3 -0.11508 23.8152 13.7497 14.1117
50 1 3 -0.11508 12.7168 7.34203 0.802379
51 1 3 -0.11508 30.9828 17.8879 8.25944
52 1 3 -0.11508 5.54921 3.20384 6.65468
53 1 3 -0.11508 23.8152 17.8879 8.25944
54 1 3 -0.11508 12.7168 3.20384 6.65468
55 1 3 -0.11508 30.9828 13.7497 14.1117
56 1 3 -0.11508 5.54921 7.34203 0.802379
57 1 3 -0.0559 18.266 5.39949 13.5316
58 1 3 -0.0559 18.266 15.6923 1.38254
59 1 3 -0.055903 18.266 14.5575 0.580159
60 1 3 -0.055903 18.266 6.53422 14.334
61 1 3 -0.0559 26.1971 11.1132 7.85825
62 1 3 -0.0559 10.3349 9.9785 7.05587
63 1 3 -0.055903 10.3349 11.1132 7.85825
64 1 3 -0.055903 26.1971 9.9785 7.05587
65 1 3 -0.0559 14.7918 8.54005 0.580159
66 1 3 -0.0559 21.7402 12.5517 14.334
67 1 3 -0.055903 22.7229 13.1191 13.5316
68 1 3 -0.055903 13.8091 7.97268 1.38254
69 1 3 -0.0559 21.7402 3.39366 7.85825
70 1 3 -0.0559 14.7918 17.6981 7.05587
71 1 3 -0.055903 13.8091 17.1307 7.85825
72 1 3 -0.055903 22.7229 3.96103 7.05587
73 1 3 -0.055901 22.7229 17.1307 7.85825
74 1 3 -0.055901 13.8091 3.96103 7.05587
75 1 3 -0.055903 14.7918 3.39366 7.85825
76 1 3 -0.055903 21.7402 17.6981 7.05587
77 1 3 -0.0559 21.7402 8.54005 0.580159
78 1 3 -0.0559 14.7918 12.5517 14.334
79 1 3 -0.055903 13.8091 13.1191 13.5316
80 1 3 -0.055903 22.7229 7.97268 1.38254
81 1 4 -1.26215 27.399 15.8188 11.1856
82 1 4 -1.26215 9.13299 5.27293 3.72853
83 1 4 -0.60118 27.399 18.9383 11.9641
84 1 4 -0.60118 9.13299 2.15347 2.95001
85 1 4 -0.601179 27.399 17.5926 13.8671
86 1 4 -0.601179 9.13299 3.49912 1.04697
87 1 4 -0.601179 26.2336 13.3722 9.45555
88 1 4 -0.601179 10.2984 7.71958 5.45857
89 1 4 -0.60118 28.5643 13.3722 9.45555
90 1 4 -0.60118 7.96762 7.71958 5.45857
91 1 4 -0.60118 25.8628 14.9319 13.8671
92 1 4 -0.60118 10.6692 6.15984 1.04697
93 1 4 -0.601179 24.6974 14.2591 11.9641
94 1 4 -0.601179 11.8345 6.83267 2.95001
95 1 4 -0.60118 28.9351 18.0514 9.45555
96 1 4 -0.60118 7.59682 3.04037 5.45857
97 1 4 -0.601179 30.1005 16.0329 9.45555
98 1 4 -0.601179 6.43145 5.05885 5.45857
99 1 4 -0.601179 24.6974 16.0329 9.45555
100 1 4 -0.601179 11.8345 5.05885 5.45857
101 1 4 -0.60118 25.8628 18.0514 9.45555
102 1 4 -0.60118 10.6692 3.04037 5.45857
103 1 4 -0.60118 28.9351 14.9319 13.8671
104 1 4 -0.60118 7.59682 6.15984 1.04697
105 1 4 -0.60118 30.1005 14.2591 11.9641
106 1 4 -0.60118 6.43145 6.83267 2.95001
21521 7140 5 -0.35 30.9055 17.7235 13.0537
21522 7140 6 0.7 31.5024 17.7789 14.0468
21523 7140 5 -0.35 22.9663 12.5613 0.125746
21926 7275 5 -0.35 8.10122 5.34174 8.82007
21927 7275 6 0.7 9.21774 5.53135 8.569
21928 7275 5 -0.35 10.3343 5.72096 8.31792
22214 7371 5 -0.35 10.9477 10.2149 3.03454
22215 7371 6 0.7 10.1784 9.44427 2.63467
22216 7371 5 -0.35 9.40918 8.67361 2.2348
22235 7378 5 -0.35 15.1251 18.6936 10.4079
22236 7378 6 0.7 23.5789 3.81473 10.3768
22237 7378 5 -0.35 22.8998 4.75462 10.3456
22253 7384 5 -0.35 19.4341 14.0404 12.0292
22254 7384 6 0.7 18.6898 14.3644 12.8578
22255 7384 5 -0.35 17.9454 14.6884 13.6865
22316 7405 5 -0.35 23.4746 9.59622 4.39741
22317 7405 6 0.7 24.4726 10.0863 4.06658
22318 7405 5 -0.35 25.4706 10.5764 3.73575
22397 7432 5 -0.35 19.0182 6.06167 1.80922
22398 7432 6 0.7 18.4058 7.04649 1.7842
22399 7432 5 -0.35 17.7933 8.03131 1.75917
22415 7438 5 -0.35 15.489 5.78793 3.18066
22416 7438 6 0.7 15.8953 5.90115 4.26126
22417 7438 5 -0.35 16.3016 6.01436 5.34187
22418 7439 5 -0.35 23.0954 13.6795 6.76199
22419 7439 6 0.7 22.5925 13.9995 5.76682
22420 7439 5 -0.35 22.0896 14.3194 4.77165
22421 7440 5 -0.35 17.5783 9.38805 11.8146
22422 7440 6 0.7 18.6412 9.82694 11.9671
22423 7440 5 -0.35 19.7041 10.2658 12.1195
22430 7443 5 -0.35 14.6785 8.46463 12.3101
22431 7443 6 0.7 14.8622 7.32053 12.2565
22432 7443 5 -0.35 15.046 6.17644 12.2029
22433 7444 5 -0.35 20.2656 3.05797 1.61746
22434 7444 6 0.7 2.59324 3.68524 0.843035
22435 7444 5 -0.35 3.18687 4.31251 0.0686143
22436 7445 5 -0.35 18.763 18.1315 10.8712
22437 7445 6 0.7 19.0366 18.4204 11.9608
22438 7445 5 -0.35 19.3103 18.7092 13.0505
22439 7446 5 -0.35 22.3508 19.1611 12.0354
22440 7446 6 0.7 22.9953 18.4295 12.6639
22441 7446 5 -0.35 23.6399 17.698 13.2924
22445 7448 5 -0.35 11.2576 7.98071 10.9762
22446 7448 6 0.7 11.9661 7.84085 10.0685
22447 7448 5 -0.35 12.6746 7.70099 9.16072
22451 7450 5 -0.35 21.9089 16.1328 11.643
22452 7450 6 0.7 21.542 15.6461 10.656
22453 7450 5 -0.35 21.1751 15.1595 9.66897
22454 7451 5 -0.35 15.8437 3.57198 0.332237
22455 7451 6 0.7 25.7143 9.2249 14.4357
22456 7451 5 -0.35 26.4518 9.60487 13.625
22457 7452 5 -0.35 25.7713 15.1709 2.85038
22458 7452 6 0.7 26.1311 15.3481 3.93884
22459 7452 5 -0.35 26.4909 15.5253 5.02731
22460 7453 5 -0.35 15.9239 16.3074 12.3354
22461 7453 6 0.7 16.1848 15.8549 11.2996
22462 7453 5 -0.35 16.4456 15.4024 10.2639
ITEM: TIMESTEP
33000
ITEM: NUMBER OF ATOMS
166
ITEM: BOX BOUNDS xy xz yz pp pp pp
0.0000000000000000e+00 3.6531964750000000e+01 9.1329911900000003e+00
0.0000000000000000e+00 2.1091739680000000e+01 9.1329911900000003e+00
0.0000000000000000e+00 1.4914112149999999e+01 5.2729349200000000e+00
ITEM: ATOMS id mol type q x y z
1 1 1 1.10383 27.399 17.6496 10.5383
2 1 1 1.10383 9.13299 3.44217 4.3758
3 1 1 1.10383 27.399 15.8188 13.1274
4 1 1 1.10383 9.13299 5.27293 1.78671
5 1 1 1.10383 25.8135 14.9034 10.5383
6 1 1 1.10383 10.7185 6.18832 4.3758
7 1 1 1.10383 28.9845 14.9034 10.5383
8 1 1 1.10383 7.5475 6.18832 4.3758
9 1 2 0.115889 18.266 5.48596 12.6084
10 1 2 0.115889 18.266 15.6058 2.30572
11 1 2 0.115888 18.266 13.716 0.969417
12 1 2 0.115888 18.266 7.37578 13.9447
13 1 2 0.11589 25.3934 11.4908 8.12521
14 1 2 0.11589 11.1386 9.60096 6.7889
15 1 2 0.115888 11.1386 11.4908 8.12521
16 1 2 0.115888 25.3934 9.60096 6.7889
17 1 2 0.115889 15.5206 8.96083 0.969417
18 1 2 0.115889 21.0114 12.1309 13.9447
19 1 2 0.115888 22.648 13.0758 12.6084
20 1 2 0.115888 13.884 8.01592 2.30572
21 1 2 0.115889 21.0114 3.90092 8.12521
22 1 2 0.115889 15.5206 17.1908 6.7889
23 1 2 0.115887 13.884 16.2459 8.12521
24 1 2 0.115887 22.648 4.84583 6.7889
25 1 2 0.115889 22.648 16.2459 8.12521
26 1 2 0.115889 13.884 4.84583 6.7889
27 1 2 0.115887 15.5206 3.90092 8.12521
28 1 2 0.115887 21.0114 17.1908 6.7889
29 1 2 0.115889 21.0114 8.96083 0.969417
30 1 2 0.115889 15.5206 12.1309 13.9447
31 1 2 0.115887 13.884 13.0758 12.6084
32 1 2 0.115887 22.648 8.01592 2.30572
33 1 3 0.671939 27.399 18.7442 13.2542
34 1 3 0.671939 9.13299 2.34751 1.65994
35 1 3 0.671939 27.399 12.8934 9.117
36 1 3 0.671939 9.13299 8.19836 5.79712
37 1 3 0.67194 24.8655 14.3561 13.2542
38 1 3 0.67194 11.6665 6.73565 1.65994
39 1 3 0.67194 29.9325 17.2815 9.117
40 1 3 0.67194 6.5995 3.81022 5.79712
41 1 3 0.67194 24.8655 17.2815 9.117
42 1 3 0.67194 11.6665 3.81022 5.79712
43 1 3 0.67194 29.9325 14.3561 13.2542
44 1 3 0.67194 6.5995 6.73565 1.65994
45 1 3 -0.11508 27.399 19.957 14.1117
46 1 3 -0.11508 9.13299 1.13474 0.802379
47 1 3 -0.11508 27.399 11.6806 8.25944
48 1 3 -0.11508 9.13299 9.41113 6.65468
49 1 3 -0.11508 23.8152 13.7497 14.1117
50 1 3 -0.11508 12.7168 7.34203 0.802379
51 1 3 -0.11508 30.9828 17.8879 8.25944
52 1 3 -0.11508 5.54921 3.20384 6.65468
53 1 3 -0.11508 23.8152 17.8879 8.25944
54 1 3 -0.11508 12.7168 3.20384 6.65468
55 1 3 -0.11508 30.9828 13.7497 14.1117
56 1 3 -0.11508 5.54921 7.34203 0.802379
57 1 3 -0.0559 18.266 5.39949 13.5316
58 1 3 -0.0559 18.266 15.6923 1.38254
59 1 3 -0.055903 18.266 14.5575 0.580159
60 1 3 -0.055903 18.266 6.53422 14.334
61 1 3 -0.0559 26.1971 11.1132 7.85825
62 1 3 -0.0559 10.3349 9.9785 7.05587
63 1 3 -0.055903 10.3349 11.1132 7.85825
64 1 3 -0.055903 26.1971 9.9785 7.05587
65 1 3 -0.0559 14.7918 8.54005 0.580159
66 1 3 -0.0559 21.7402 12.5517 14.334
67 1 3 -0.055903 22.7229 13.1191 13.5316
68 1 3 -0.055903 13.8091 7.97268 1.38254
69 1 3 -0.0559 21.7402 3.39366 7.85825
70 1 3 -0.0559 14.7918 17.6981 7.05587
71 1 3 -0.055903 13.8091 17.1307 7.85825
72 1 3 -0.055903 22.7229 3.96103 7.05587
73 1 3 -0.055901 22.7229 17.1307 7.85825
74 1 3 -0.055901 13.8091 3.96103 7.05587
75 1 3 -0.055903 14.7918 3.39366 7.85825
76 1 3 -0.055903 21.7402 17.6981 7.05587
77 1 3 -0.0559 21.7402 8.54005 0.580159
78 1 3 -0.0559 14.7918 12.5517 14.334
79 1 3 -0.055903 13.8091 13.1191 13.5316
80 1 3 -0.055903 22.7229 7.97268 1.38254
81 1 4 -1.26215 27.399 15.8188 11.1856
82 1 4 -1.26215 9.13299 5.27293 3.72853
83 1 4 -0.60118 27.399 18.9383 11.9641
84 1 4 -0.60118 9.13299 2.15347 2.95001
85 1 4 -0.601179 27.399 17.5926 13.8671
86 1 4 -0.601179 9.13299 3.49912 1.04697
87 1 4 -0.601179 26.2336 13.3722 9.45555
88 1 4 -0.601179 10.2984 7.71958 5.45857
89 1 4 -0.60118 28.5643 13.3722 9.45555
90 1 4 -0.60118 7.96762 7.71958 5.45857
91 1 4 -0.60118 25.8628 14.9319 13.8671
92 1 4 -0.60118 10.6692 6.15984 1.04697
93 1 4 -0.601179 24.6974 14.2591 11.9641
94 1 4 -0.601179 11.8345 6.83267 2.95001
95 1 4 -0.60118 28.9351 18.0514 9.45555
96 1 4 -0.60118 7.59682 3.04037 5.45857
97 1 4 -0.601179 30.1005 16.0329 9.45555
98 1 4 -0.601179 6.43145 5.05885 5.45857
99 1 4 -0.601179 24.6974 16.0329 9.45555
100 1 4 -0.601179 11.8345 5.05885 5.45857
101 1 4 -0.60118 25.8628 18.0514 9.45555
102 1 4 -0.60118 10.6692 3.04037 5.45857
103 1 4 -0.60118 28.9351 14.9319 13.8671
104 1 4 -0.60118 7.59682 6.15984 1.04697
105 1 4 -0.60118 30.1005 14.2591 11.9641
106 1 4 -0.60118 6.43145 6.83267 2.95001
23324 7741 5 -0.35 13.9426 12.862 0.159689
23325 7741 6 0.7 23.6799 17.8824 14.1164
23326 7741 5 -0.35 24.2842 17.6298 13.159
23375 7758 5 -0.35 30.3157 18.2784 14.603
23376 7758 6 0.7 30.2667 18.0127 13.4749
23377 7758 5 -0.35 30.2176 17.747 12.3468
23408 7769 5 -0.35 18.2333 8.12234 1.13027
23409 7769 6 0.7 18.2489 9.25536 1.37849
23410 7769 5 -0.35 18.2645 10.3884 1.62671
23423 7774 5 -0.35 13.8359 9.71211 6.67679
23424 7774 6 0.7 14.1352 9.41658 5.59572
23425 7774 5 -0.35 14.4344 9.12105 4.51464
23507 7802 5 -0.35 6.68514 11.4873 0.109466
23508 7802 6 0.7 16.6129 16.6207 14.1902
23509 7802 5 -0.35 17.4077 16.4812 13.3569
23519 7806 5 -0.35 19.5793 13.0497 4.08969
23520 7806 6 0.7 18.7179 12.2945 4.27161
23521 7806 5 -0.35 17.8564 11.5393 4.45353
23534 7811 5 -0.35 22.2863 13.6669 8.04222
23535 7811 6 0.7 22.5066 13.0023 8.96705
23536 7811 5 -0.35 22.7269 12.3376 9.89188
23567 7822 5 -0.35 15.0341 15.7972 1.46818
23568 7822 6 0.7 14.9684 15.7471 0.311127
23569 7822 5 -0.35 14.9027 5.15102 14.0682
23606 7835 5 -0.35 16.9324 14.2634 8.61978
23607 7835 6 0.7 16.2635 14.33 7.67442
23608 7835 5 -0.35 15.5946 14.3965 6.72905
23621 7840 5 -0.35 5.04136 3.79596 2.05865
23622 7840 6 0.7 3.94176 4.16534 2.05188
23623 7840 5 -0.35 21.1082 4.53473 2.04512
23642 7847 5 -0.35 12.9415 15.7984 4.83618
23643 7847 6 0.7 12.7015 16.7681 4.24649
23644 7847 5 -0.35 3.32857 1.919 3.65679
23645 7848 5 -0.35 12.8331 12.3452 5.17636
23646 7848 6 0.7 13.6123 12.6241 4.36354
23647 7848 5 -0.35 14.3915 12.9031 3.55072
23654 7851 5 -0.35 23.5453 11.2771 4.87707
23655 7851 6 0.7 22.7403 10.6248 4.35539
23656 7851 5 -0.35 21.9354 9.97247 3.83371
23666 7855 5 -0.35 10.2077 3.71774 8.64522
23667 7855 6 0.7 18.6098 18.657 8.83962
23668 7855 5 -0.35 17.8789 17.7775 9.03403
23669 7856 5 -0.35 22.9294 9.00895 8.51955
23670 7856 6 0.7 23.1286 7.88614 8.30692
23671 7856 5 -0.35 23.3278 6.76333 8.0943
23672 7857 5 -0.35 8.39802 11.2583 3.53259
23673 7857 6 0.7 8.7532 10.65 2.61097
23674 7857 5 -0.35 9.10837 10.0417 1.68935
23690 7863 5 -0.35 21.3699 15.383 2.66707
23691 7863 6 0.7 22.2966 14.7712 2.3315
23692 7863 5 -0.35 23.2233 14.1594 1.99594
23696 7865 5 -0.35 21.2674 9.07678 11.2137
23697 7865 6 0.7 20.6744 10.0695 11.3063
23698 7865 5 -0.35 20.0815 11.0622 11.3988
23699 7866 5 -0.35 15.8086 6.77315 8.2226
23700 7866 6 0.7 15.326 7.49321 8.99346
23701 7866 5 -0.35 14.8434 8.21327 9.76432
23702 7867 5 -0.35 18.4523 8.08452 8.17305
23703 7867 6 0.7 18.3869 8.03686 7.01588
23704 7867 5 -0.35 18.3215 7.98919 5.85871
ITEM: TIMESTEP
34000
ITEM: NUMBER OF ATOMS
169
ITEM: BOX BOUNDS xy xz yz pp pp pp
0.0000000000000000e+00 3.6531964750000000e+01 9.1329911900000003e+00
0.0000000000000000e+00 2.1091739680000000e+01 9.1329911900000003e+00
0.0000000000000000e+00 1.4914112149999999e+01 5.2729349200000000e+00
ITEM: ATOMS id mol type q x y z
1 1 1 1.10383 27.399 17.6496 10.5383
2 1 1 1.10383 9.13299 3.44217 4.3758
3 1 1 1.10383 27.399 15.8188 13.1274
4 1 1 1.10383 9.13299 5.27293 1.78671
5 1 1 1.10383 25.8135 14.9034 10.5383
6 1 1 1.10383 10.7185 6.18832 4.3758
7 1 1 1.10383 28.9845 14.9034 10.5383
8 1 1 1.10383 7.5475 6.18832 4.3758
9 1 2 0.115889 18.266 5.48596 12.6084
10 1 2 0.115889 18.266 15.6058 2.30572
11 1 2 0.115888 18.266 13.716 0.969417
12 1 2 0.115888 18.266 7.37578 13.9447
13 1 2 0.11589 25.3934 11.4908 8.12521
14 1 2 0.11589 11.1386 9.60096 6.7889
15 1 2 0.115888 11.1386 11.4908 8.12521
16 1 2 0.115888 25.3934 9.60096 6.7889
17 1 2 0.115889 15.5206 8.96083 0.969417
18 1 2 0.115889 21.0114 12.1309 13.9447
19 1 2 0.115888 22.648 13.0758 12.6084
20 1 2 0.115888 13.884 8.01592 2.30572
21 1 2 0.115889 21.0114 3.90092 8.12521
22 1 2 0.115889 15.5206 17.1908 6.7889
23 1 2 0.115887 13.884 16.2459 8.12521
24 1 2 0.115887 22.648 4.84583 6.7889
25 1 2 0.115889 22.648 16.2459 8.12521
26 1 2 0.115889 13.884 4.84583 6.7889
27 1 2 0.115887 15.5206 3.90092 8.12521
28 1 2 0.115887 21.0114 17.1908 6.7889
29 1 2 0.115889 21.0114 8.96083 0.969417
30 1 2 0.115889 15.5206 12.1309 13.9447
31 1 2 0.115887 13.884 13.0758 12.6084
32 1 2 0.115887 22.648 8.01592 2.30572
33 1 3 0.671939 27.399 18.7442 13.2542
34 1 3 0.671939 9.13299 2.34751 1.65994
35 1 3 0.671939 27.399 12.8934 9.117
36 1 3 0.671939 9.13299 8.19836 5.79712
37 1 3 0.67194 24.8655 14.3561 13.2542
38 1 3 0.67194 11.6665 6.73565 1.65994
39 1 3 0.67194 29.9325 17.2815 9.117
40 1 3 0.67194 6.5995 3.81022 5.79712
41 1 3 0.67194 24.8655 17.2815 9.117
42 1 3 0.67194 11.6665 3.81022 5.79712
43 1 3 0.67194 29.9325 14.3561 13.2542
44 1 3 0.67194 6.5995 6.73565 1.65994
45 1 3 -0.11508 27.399 19.957 14.1117
46 1 3 -0.11508 9.13299 1.13474 0.802379
47 1 3 -0.11508 27.399 11.6806 8.25944
48 1 3 -0.11508 9.13299 9.41113 6.65468
49 1 3 -0.11508 23.8152 13.7497 14.1117
50 1 3 -0.11508 12.7168 7.34203 0.802379
51 1 3 -0.11508 30.9828 17.8879 8.25944
52 1 3 -0.11508 5.54921 3.20384 6.65468
53 1 3 -0.11508 23.8152 17.8879 8.25944
54 1 3 -0.11508 12.7168 3.20384 6.65468
55 1 3 -0.11508 30.9828 13.7497 14.1117
56 1 3 -0.11508 5.54921 7.34203 0.802379
57 1 3 -0.0559 18.266 5.39949 13.5316
58 1 3 -0.0559 18.266 15.6923 1.38254
59 1 3 -0.055903 18.266 14.5575 0.580159
60 1 3 -0.055903 18.266 6.53422 14.334
61 1 3 -0.0559 26.1971 11.1132 7.85825
62 1 3 -0.0559 10.3349 9.9785 7.05587
63 1 3 -0.055903 10.3349 11.1132 7.85825
64 1 3 -0.055903 26.1971 9.9785 7.05587
65 1 3 -0.0559 14.7918 8.54005 0.580159
66 1 3 -0.0559 21.7402 12.5517 14.334
67 1 3 -0.055903 22.7229 13.1191 13.5316
68 1 3 -0.055903 13.8091 7.97268 1.38254
69 1 3 -0.0559 21.7402 3.39366 7.85825
70 1 3 -0.0559 14.7918 17.6981 7.05587
71 1 3 -0.055903 13.8091 17.1307 7.85825
72 1 3 -0.055903 22.7229 3.96103 7.05587
73 1 3 -0.055901 22.7229 17.1307 7.85825
74 1 3 -0.055901 13.8091 3.96103 7.05587
75 1 3 -0.055903 14.7918 3.39366 7.85825
76 1 3 -0.055903 21.7402 17.6981 7.05587
77 1 3 -0.0559 21.7402 8.54005 0.580159
78 1 3 -0.0559 14.7918 12.5517 14.334
79 1 3 -0.055903 13.8091 13.1191 13.5316
80 1 3 -0.055903 22.7229 7.97268 1.38254
81 1 4 -1.26215 27.399 15.8188 11.1856
82 1 4 -1.26215 9.13299 5.27293 3.72853
83 1 4 -0.60118 27.399 18.9383 11.9641
84 1 4 -0.60118 9.13299 2.15347 2.95001
85 1 4 -0.601179 27.399 17.5926 13.8671
86 1 4 -0.601179 9.13299 3.49912 1.04697
87 1 4 -0.601179 26.2336 13.3722 9.45555
88 1 4 -0.601179 10.2984 7.71958 5.45857
89 1 4 -0.60118 28.5643 13.3722 9.45555
90 1 4 -0.60118 7.96762 7.71958 5.45857
91 1 4 -0.60118 25.8628 14.9319 13.8671
92 1 4 -0.60118 10.6692 6.15984 1.04697
93 1 4 -0.601179 24.6974 14.2591 11.9641
94 1 4 -0.601179 11.8345 6.83267 2.95001
95 1 4 -0.60118 28.9351 18.0514 9.45555
96 1 4 -0.60118 7.59682 3.04037 5.45857
97 1 4 -0.601179 30.1005 16.0329 9.45555
98 1 4 -0.601179 6.43145 5.05885 5.45857
99 1 4 -0.601179 24.6974 16.0329 9.45555
100 1 4 -0.601179 11.8345 5.05885 5.45857
101 1 4 -0.60118 25.8628 18.0514 9.45555
102 1 4 -0.60118 10.6692 3.04037 5.45857
103 1 4 -0.60118 28.9351 14.9319 13.8671
104 1 4 -0.60118 7.59682 6.15984 1.04697
105 1 4 -0.60118 30.1005 14.2591 11.9641
106 1 4 -0.60118 6.43145 6.83267 2.95001
24236 8045 5 -0.35 20.9644 16.7194 4.05414
24237 8045 6 0.7 12.4809 1.54877 3.34455
24238 8045 5 -0.35 13.1305 2.19699 2.63497
24452 8117 5 -0.35 15.3108 11.9583 1.12445
24453 8117 6 0.7 15.0288 12.077 0.00551783
24454 8117 5 -0.35 23.8799 17.4686 13.8007
24473 8124 5 -0.35 6.00592 1.39391 1.3195
24474 8124 6 0.7 5.74292 2.30118 1.99277
24475 8124 5 -0.35 5.47991 3.20845 2.66604
24497 8132 5 -0.35 10.1693 13.3324 5.92612
24498 8132 6 0.7 27.6032 13.8212 5.28248
24499 8132 5 -0.35 26.7712 14.3101 4.63884
24527 8142 5 -0.35 14.3236 14.2048 9.73924
24528 8142 6 0.7 13.885 13.1322 9.7907
24529 8142 5 -0.35 13.4465 12.0595 9.84217
24542 8147 5 -0.35 24.1913 11.1785 3.2412
24543 8147 6 0.7 25.2639 11.0415 3.66111
24544 8147 5 -0.35 8.07053 10.9044 4.08102
24587 8162 5 -0.35 22.3242 11.7492 10.1262
24588 8162 6 0.7 23.234 11.1995 10.5905
24589 8162 5 -0.35 24.1439 10.6499 11.0549
24620 8173 5 -0.35 8.69353 4.94927 7.89895
24621 8173 6 0.7 8.25953 5.02731 8.97186
24622 8173 5 -0.35 7.82552 5.10534 10.0448
24644 8181 5 -0.35 19.2076 6.60654 0.994836
24645 8181 6 0.7 18.4519 6.50226 0.121034
24646 8181 5 -0.35 26.8291 11.6709 14.1613
24647 8182 5 -0.35 28.2754 9.20291 12.5936
24648 8182 6 0.7 27.9672 8.87436 11.5247
24649 8182 5 -0.35 9.39287 8.54581 10.4557
24650 8183 5 -0.35 14.0062 12.7652 6.87673
24651 8183 6 0.7 13.5395 12.264 5.94043
24652 8183 5 -0.35 13.0727 11.7629 5.00413
24659 8186 5 -0.35 21.4782 5.31403 2.33272
24660 8186 6 0.7 20.7338 5.53842 3.19358
24661 8186 5 -0.35 19.9893 5.76281 4.05445
24665 8188 5 -0.35 15.3387 15.9608 12.5611
24666 8188 6 0.7 15.7357 16.448 11.5861
24667 8188 5 -0.35 16.1326 16.9352 10.6111
24668 8189 5 -0.35 23.5121 12.6342 5.74697
24669 8189 6 0.7 22.3849 12.389 5.6244
24670 8189 5 -0.35 21.2578 12.1438 5.50184
24680 8193 5 -0.35 9.79087 12.4423 2.02414
24681 8193 6 0.7 10.9004 12.7336 2.19659
24682 8193 5 -0.35 12.0099 13.0249 2.36905
24683 8194 5 -0.35 21.2453 14.6866 10.7989
24684 8194 6 0.7 20.7394 14.6983 9.75503
24685 8194 5 -0.35 20.2336 14.7099 8.7112
24686 8195 5 -0.35 16.8503 14.9149 7.82924
24687 8195 6 0.7 17.0351 14.5743 6.73589
24688 8195 5 -0.35 17.2198 14.2336 5.64254
24689 8196 5 -0.35 23.8517 5.85152 13.2556
24690 8196 6 0.7 24.7679 5.14037 13.2372
24691 8196 5 -0.35 34.8172 20.248 13.2188
24692 8197 5 -0.35 22.2066 14.8258 1.59805
24693 8197 6 0.7 21.9791 13.9692 0.849648
24694 8197 5 -0.35 21.7516 13.1126 0.101249
24695 8198 5 -0.35 20.9665 15.9366 13.4693
24696 8198 6 0.7 19.9303 16.2499 13.886
24697 8198 5 -0.35 18.894 16.5633 14.3026
24698 8199 5 -0.35 22.6577 7.97009 7.74749
24699 8199 6 0.7 21.5648 7.66738 7.99123
24700 8199 5 -0.35 20.4718 7.36467 8.23497
ITEM: TIMESTEP
35000
ITEM: NUMBER OF ATOMS
172
ITEM: BOX BOUNDS xy xz yz pp pp pp
0.0000000000000000e+00 3.6531964750000000e+01 9.1329911900000003e+00
0.0000000000000000e+00 2.1091739680000000e+01 9.1329911900000003e+00
0.0000000000000000e+00 1.4914112149999999e+01 5.2729349200000000e+00
ITEM: ATOMS id mol type q x y z
1 1 1 1.10383 27.399 17.6496 10.5383
2 1 1 1.10383 9.13299 3.44217 4.3758
3 1 1 1.10383 27.399 15.8188 13.1274
4 1 1 1.10383 9.13299 5.27293 1.78671
5 1 1 1.10383 25.8135 14.9034 10.5383
6 1 1 1.10383 10.7185 6.18832 4.3758
7 1 1 1.10383 28.9845 14.9034 10.5383
8 1 1 1.10383 7.5475 6.18832 4.3758
9 1 2 0.115889 18.266 5.48596 12.6084
10 1 2 0.115889 18.266 15.6058 2.30572
11 1 2 0.115888 18.266 13.716 0.969417
12 1 2 0.115888 18.266 7.37578 13.9447
13 1 2 0.11589 25.3934 11.4908 8.12521
14 1 2 0.11589 11.1386 9.60096 6.7889
15 1 2 0.115888 11.1386 11.4908 8.12521
16 1 2 0.115888 25.3934 9.60096 6.7889
17 1 2 0.115889 15.5206 8.96083 0.969417
18 1 2 0.115889 21.0114 12.1309 13.9447
19 1 2 0.115888 22.648 13.0758 12.6084
20 1 2 0.115888 13.884 8.01592 2.30572
21 1 2 0.115889 21.0114 3.90092 8.12521
22 1 2 0.115889 15.5206 17.1908 6.7889
23 1 2 0.115887 13.884 16.2459 8.12521
24 1 2 0.115887 22.648 4.84583 6.7889
25 1 2 0.115889 22.648 16.2459 8.12521
26 1 2 0.115889 13.884 4.84583 6.7889
27 1 2 0.115887 15.5206 3.90092 8.12521
28 1 2 0.115887 21.0114 17.1908 6.7889
29 1 2 0.115889 21.0114 8.96083 0.969417
30 1 2 0.115889 15.5206 12.1309 13.9447
31 1 2 0.115887 13.884 13.0758 12.6084
32 1 2 0.115887 22.648 8.01592 2.30572
33 1 3 0.671939 27.399 18.7442 13.2542
34 1 3 0.671939 9.13299 2.34751 1.65994
35 1 3 0.671939 27.399 12.8934 9.117
36 1 3 0.671939 9.13299 8.19836 5.79712
37 1 3 0.67194 24.8655 14.3561 13.2542
38 1 3 0.67194 11.6665 6.73565 1.65994
39 1 3 0.67194 29.9325 17.2815 9.117
40 1 3 0.67194 6.5995 3.81022 5.79712
41 1 3 0.67194 24.8655 17.2815 9.117
42 1 3 0.67194 11.6665 3.81022 5.79712
43 1 3 0.67194 29.9325 14.3561 13.2542
44 1 3 0.67194 6.5995 6.73565 1.65994
45 1 3 -0.11508 27.399 19.957 14.1117
46 1 3 -0.11508 9.13299 1.13474 0.802379
47 1 3 -0.11508 27.399 11.6806 8.25944
48 1 3 -0.11508 9.13299 9.41113 6.65468
49 1 3 -0.11508 23.8152 13.7497 14.1117
50 1 3 -0.11508 12.7168 7.34203 0.802379
51 1 3 -0.11508 30.9828 17.8879 8.25944
52 1 3 -0.11508 5.54921 3.20384 6.65468
53 1 3 -0.11508 23.8152 17.8879 8.25944
54 1 3 -0.11508 12.7168 3.20384 6.65468
55 1 3 -0.11508 30.9828 13.7497 14.1117
56 1 3 -0.11508 5.54921 7.34203 0.802379
57 1 3 -0.0559 18.266 5.39949 13.5316
58 1 3 -0.0559 18.266 15.6923 1.38254
59 1 3 -0.055903 18.266 14.5575 0.580159
60 1 3 -0.055903 18.266 6.53422 14.334
61 1 3 -0.0559 26.1971 11.1132 7.85825
62 1 3 -0.0559 10.3349 9.9785 7.05587
63 1 3 -0.055903 10.3349 11.1132 7.85825
64 1 3 -0.055903 26.1971 9.9785 7.05587
65 1 3 -0.0559 14.7918 8.54005 0.580159
66 1 3 -0.0559 21.7402 12.5517 14.334
67 1 3 -0.055903 22.7229 13.1191 13.5316
68 1 3 -0.055903 13.8091 7.97268 1.38254
69 1 3 -0.0559 21.7402 3.39366 7.85825
70 1 3 -0.0559 14.7918 17.6981 7.05587
71 1 3 -0.055903 13.8091 17.1307 7.85825
72 1 3 -0.055903 22.7229 3.96103 7.05587
73 1 3 -0.055901 22.7229 17.1307 7.85825
74 1 3 -0.055901 13.8091 3.96103 7.05587
75 1 3 -0.055903 14.7918 3.39366 7.85825
76 1 3 -0.055903 21.7402 17.6981 7.05587
77 1 3 -0.0559 21.7402 8.54005 0.580159
78 1 3 -0.0559 14.7918 12.5517 14.334
79 1 3 -0.055903 13.8091 13.1191 13.5316
80 1 3 -0.055903 22.7229 7.97268 1.38254
81 1 4 -1.26215 27.399 15.8188 11.1856
82 1 4 -1.26215 9.13299 5.27293 3.72853
83 1 4 -0.60118 27.399 18.9383 11.9641
84 1 4 -0.60118 9.13299 2.15347 2.95001
85 1 4 -0.601179 27.399 17.5926 13.8671
86 1 4 -0.601179 9.13299 3.49912 1.04697
87 1 4 -0.601179 26.2336 13.3722 9.45555
88 1 4 -0.601179 10.2984 7.71958 5.45857
89 1 4 -0.60118 28.5643 13.3722 9.45555
90 1 4 -0.60118 7.96762 7.71958 5.45857
91 1 4 -0.60118 25.8628 14.9319 13.8671
92 1 4 -0.60118 10.6692 6.15984 1.04697
93 1 4 -0.601179 24.6974 14.2591 11.9641
94 1 4 -0.601179 11.8345 6.83267 2.95001
95 1 4 -0.60118 28.9351 18.0514 9.45555
96 1 4 -0.60118 7.59682 3.04037 5.45857
97 1 4 -0.601179 30.1005 16.0329 9.45555
98 1 4 -0.601179 6.43145 5.05885 5.45857
99 1 4 -0.601179 24.6974 16.0329 9.45555
100 1 4 -0.601179 11.8345 5.05885 5.45857
101 1 4 -0.60118 25.8628 18.0514 9.45555
102 1 4 -0.60118 10.6692 3.04037 5.45857
103 1 4 -0.60118 28.9351 14.9319 13.8671
104 1 4 -0.60118 7.59682 6.15984 1.04697
105 1 4 -0.60118 30.1005 14.2591 11.9641
106 1 4 -0.60118 6.43145 6.83267 2.95001
24236 8045 5 -0.35 20.2842 15.323 5.00673
24237 8045 6 0.7 21.0713 15.856 4.3419
24238 8045 5 -0.35 21.8584 16.3891 3.67707
24620 8173 5 -0.35 8.74236 5.51237 7.80129
24621 8173 6 0.7 8.61982 6.40278 8.53461
24622 8173 5 -0.35 8.49728 7.29319 9.26793
24821 8240 5 -0.35 21.1718 8.86667 14.6322
24822 8240 6 0.7 20.4708 9.08368 13.7338
24823 8240 5 -0.35 19.7698 9.30069 12.8354
24851 8250 5 -0.35 11.891 7.52461 10.8454
24852 8250 6 0.7 12.6168 8.39292 11.1
24853 8250 5 -0.35 13.3427 9.26122 11.3545
24959 8286 5 -0.35 12.7129 6.92928 13.857
24960 8286 6 0.7 12.2138 6.45337 14.7898
24961 8286 5 -0.35 2.5817 0.704525 0.80844
25010 8303 5 -0.35 27.4382 11.7177 11.8922
25011 8303 6 0.7 27.7704 10.6088 11.8178
25012 8303 5 -0.35 28.1027 9.49987 11.7435
25043 8314 5 -0.35 23.4537 16.1148 0.947852
25044 8314 6 0.7 22.3917 15.7284 0.686313
25045 8314 5 -0.35 21.3297 15.3419 0.424774
25103 8334 5 -0.35 14.5443 3.12784 3.18477
25104 8334 6 0.7 13.4087 3.29188 3.01395
25105 8334 5 -0.35 12.2732 3.45592 2.84312
25121 8340 5 -0.35 31.8858 18.0834 13.6965
25122 8340 6 0.7 31.0792 17.6573 12.98
25123 8340 5 -0.35 30.2726 17.2311 12.2634
25124 8341 5 -0.35 15.4211 15.582 12.1122
25125 8341 6 0.7 15.3218 14.7253 11.3365
25126 8341 5 -0.35 15.2226 13.8686 10.5607
25127 8342 5 -0.35 25.2491 17.5772 5.47199
25128 8342 6 0.7 25.783 16.639 5.89676
25129 8342 5 -0.35 26.3168 15.7008 6.32152
25148 8349 5 -0.35 32.6354 19.2178 10.9675
25149 8349 6 0.7 24.3161 4.12973 10.5809
25150 8349 5 -0.35 25.1298 4.86046 10.1943
25163 8354 5 -0.35 9.78913 8.98369 1.69211
25164 8354 6 0.7 9.37825 9.08642 0.61219
25165 8354 5 -0.35 18.1004 14.4621 14.4464
25217 8372 5 -0.35 23.8629 10.9026 2.43385
25218 8372 6 0.7 24.5732 11.2696 1.59331
25219 8372 5 -0.35 25.2834 11.6366 0.752769
25220 8373 5 -0.35 18.8071 7.62832 2.02337
25221 8373 6 0.7 17.9165 6.9233 1.78782
25222 8373 5 -0.35 17.026 6.21827 1.55227
25226 8375 5 -0.35 4.14167 3.05709 1.67576
25227 8375 6 0.7 3.43128 3.97239 1.73217
25228 8375 5 -0.35 20.9869 4.88768 1.78857
25232 8377 5 -0.35 27.5551 16.6561 3.8826
25233 8377 6 0.7 19.2334 1.65193 4.03674
25234 8377 5 -0.35 20.0447 2.46657 4.19088
25235 8378 5 -0.35 13.5281 16.1633 4.60613
25236 8378 6 0.7 14.1893 16.0237 3.6633
25237 8378 5 -0.35 14.8505 15.884 2.72047
25244 8381 5 -0.35 25.1936 7.24859 14.1141
25245 8381 6 0.7 24.5165 6.76537 13.3056
25246 8381 5 -0.35 23.8394 6.28216 12.4971
25247 8382 5 -0.35 13.9523 8.2721 6.40944
25248 8382 6 0.7 14.6645 7.77361 5.64135
25249 8382 5 -0.35 15.3766 7.27511 4.87326
25250 8383 5 -0.35 19.1349 6.03242 9.25881
25251 8383 6 0.7 18.3566 5.8529 8.41754
25252 8383 5 -0.35 17.5784 5.67337 7.57627
25253 8384 5 -0.35 14.075 3.94654 11.1115
25254 8384 6 0.7 22.2079 19.7909 11.6985
25255 8384 5 -0.35 21.2077 19.8164 12.2856
ITEM: TIMESTEP
36000
ITEM: NUMBER OF ATOMS
178
ITEM: BOX BOUNDS xy xz yz pp pp pp
0.0000000000000000e+00 3.6531964750000000e+01 9.1329911900000003e+00
0.0000000000000000e+00 2.1091739680000000e+01 9.1329911900000003e+00
0.0000000000000000e+00 1.4914112149999999e+01 5.2729349200000000e+00
ITEM: ATOMS id mol type q x y z
1 1 1 1.10383 27.399 17.6496 10.5383
2 1 1 1.10383 9.13299 3.44217 4.3758
3 1 1 1.10383 27.399 15.8188 13.1274
4 1 1 1.10383 9.13299 5.27293 1.78671
5 1 1 1.10383 25.8135 14.9034 10.5383
6 1 1 1.10383 10.7185 6.18832 4.3758
7 1 1 1.10383 28.9845 14.9034 10.5383
8 1 1 1.10383 7.5475 6.18832 4.3758
9 1 2 0.115889 18.266 5.48596 12.6084
10 1 2 0.115889 18.266 15.6058 2.30572
11 1 2 0.115888 18.266 13.716 0.969417
12 1 2 0.115888 18.266 7.37578 13.9447
13 1 2 0.11589 25.3934 11.4908 8.12521
14 1 2 0.11589 11.1386 9.60096 6.7889
15 1 2 0.115888 11.1386 11.4908 8.12521
16 1 2 0.115888 25.3934 9.60096 6.7889
17 1 2 0.115889 15.5206 8.96083 0.969417
18 1 2 0.115889 21.0114 12.1309 13.9447
19 1 2 0.115888 22.648 13.0758 12.6084
20 1 2 0.115888 13.884 8.01592 2.30572
21 1 2 0.115889 21.0114 3.90092 8.12521
22 1 2 0.115889 15.5206 17.1908 6.7889
23 1 2 0.115887 13.884 16.2459 8.12521
24 1 2 0.115887 22.648 4.84583 6.7889
25 1 2 0.115889 22.648 16.2459 8.12521
26 1 2 0.115889 13.884 4.84583 6.7889
27 1 2 0.115887 15.5206 3.90092 8.12521
28 1 2 0.115887 21.0114 17.1908 6.7889
29 1 2 0.115889 21.0114 8.96083 0.969417
30 1 2 0.115889 15.5206 12.1309 13.9447
31 1 2 0.115887 13.884 13.0758 12.6084
32 1 2 0.115887 22.648 8.01592 2.30572
33 1 3 0.671939 27.399 18.7442 13.2542
34 1 3 0.671939 9.13299 2.34751 1.65994
35 1 3 0.671939 27.399 12.8934 9.117
36 1 3 0.671939 9.13299 8.19836 5.79712
37 1 3 0.67194 24.8655 14.3561 13.2542
38 1 3 0.67194 11.6665 6.73565 1.65994
39 1 3 0.67194 29.9325 17.2815 9.117
40 1 3 0.67194 6.5995 3.81022 5.79712
41 1 3 0.67194 24.8655 17.2815 9.117
42 1 3 0.67194 11.6665 3.81022 5.79712
43 1 3 0.67194 29.9325 14.3561 13.2542
44 1 3 0.67194 6.5995 6.73565 1.65994
45 1 3 -0.11508 27.399 19.957 14.1117
46 1 3 -0.11508 9.13299 1.13474 0.802379
47 1 3 -0.11508 27.399 11.6806 8.25944
48 1 3 -0.11508 9.13299 9.41113 6.65468
49 1 3 -0.11508 23.8152 13.7497 14.1117
50 1 3 -0.11508 12.7168 7.34203 0.802379
51 1 3 -0.11508 30.9828 17.8879 8.25944
52 1 3 -0.11508 5.54921 3.20384 6.65468
53 1 3 -0.11508 23.8152 17.8879 8.25944
54 1 3 -0.11508 12.7168 3.20384 6.65468
55 1 3 -0.11508 30.9828 13.7497 14.1117
56 1 3 -0.11508 5.54921 7.34203 0.802379
57 1 3 -0.0559 18.266 5.39949 13.5316
58 1 3 -0.0559 18.266 15.6923 1.38254
59 1 3 -0.055903 18.266 14.5575 0.580159
60 1 3 -0.055903 18.266 6.53422 14.334
61 1 3 -0.0559 26.1971 11.1132 7.85825
62 1 3 -0.0559 10.3349 9.9785 7.05587
63 1 3 -0.055903 10.3349 11.1132 7.85825
64 1 3 -0.055903 26.1971 9.9785 7.05587
65 1 3 -0.0559 14.7918 8.54005 0.580159
66 1 3 -0.0559 21.7402 12.5517 14.334
67 1 3 -0.055903 22.7229 13.1191 13.5316
68 1 3 -0.055903 13.8091 7.97268 1.38254
69 1 3 -0.0559 21.7402 3.39366 7.85825
70 1 3 -0.0559 14.7918 17.6981 7.05587
71 1 3 -0.055903 13.8091 17.1307 7.85825
72 1 3 -0.055903 22.7229 3.96103 7.05587
73 1 3 -0.055901 22.7229 17.1307 7.85825
74 1 3 -0.055901 13.8091 3.96103 7.05587
75 1 3 -0.055903 14.7918 3.39366 7.85825
76 1 3 -0.055903 21.7402 17.6981 7.05587
77 1 3 -0.0559 21.7402 8.54005 0.580159
78 1 3 -0.0559 14.7918 12.5517 14.334
79 1 3 -0.055903 13.8091 13.1191 13.5316
80 1 3 -0.055903 22.7229 7.97268 1.38254
81 1 4 -1.26215 27.399 15.8188 11.1856
82 1 4 -1.26215 9.13299 5.27293 3.72853
83 1 4 -0.60118 27.399 18.9383 11.9641
84 1 4 -0.60118 9.13299 2.15347 2.95001
85 1 4 -0.601179 27.399 17.5926 13.8671
86 1 4 -0.601179 9.13299 3.49912 1.04697
87 1 4 -0.601179 26.2336 13.3722 9.45555
88 1 4 -0.601179 10.2984 7.71958 5.45857
89 1 4 -0.60118 28.5643 13.3722 9.45555
90 1 4 -0.60118 7.96762 7.71958 5.45857
91 1 4 -0.60118 25.8628 14.9319 13.8671
92 1 4 -0.60118 10.6692 6.15984 1.04697
93 1 4 -0.601179 24.6974 14.2591 11.9641
94 1 4 -0.601179 11.8345 6.83267 2.95001
95 1 4 -0.60118 28.9351 18.0514 9.45555
96 1 4 -0.60118 7.59682 3.04037 5.45857
97 1 4 -0.601179 30.1005 16.0329 9.45555
98 1 4 -0.601179 6.43145 5.05885 5.45857
99 1 4 -0.601179 24.6974 16.0329 9.45555
100 1 4 -0.601179 11.8345 5.05885 5.45857
101 1 4 -0.60118 25.8628 18.0514 9.45555
102 1 4 -0.60118 10.6692 3.04037 5.45857
103 1 4 -0.60118 28.9351 14.9319 13.8671
104 1 4 -0.60118 7.59682 6.15984 1.04697
105 1 4 -0.60118 30.1005 14.2591 11.9641
106 1 4 -0.60118 6.43145 6.83267 2.95001
24620 8173 5 -0.35 9.99857 6.0184 7.96108
24621 8173 6 0.7 11.0325 6.48713 8.19954
24622 8173 5 -0.35 12.0664 6.95586 8.438
24821 8240 5 -0.35 21.8388 8.39551 14.3858
24822 8240 6 0.7 21.1834 8.99585 13.6403
24823 8240 5 -0.35 20.528 9.59619 12.8949
25103 8334 5 -0.35 12.4666 1.53584 2.03196
25104 8334 6 0.7 12.5894 0.606113 1.34923
25105 8334 5 -0.35 21.8452 15.4952 0.666504
25352 8417 5 -0.35 19.472 1.8837 4.74895
25353 8417 6 0.7 27.5621 17.6042 5.24717
25354 8417 5 -0.35 26.5191 17.5058 5.74538
25727 8542 5 -0.35 24.7537 16.1248 3.28047
25728 8542 6 0.7 15.1595 1.35484 3.46133
25729 8542 5 -0.35 14.6983 2.40374 3.64219
25805 8568 5 -0.35 16.0656 5.60709 10.5239
25806 8568 6 0.7 15.2829 4.77961 10.7437
25807 8568 5 -0.35 14.5003 3.95212 10.9636
25808 8569 5 -0.35 30.7056 19.1673 12.0554
25809 8569 6 0.7 21.4667 4.50328 12.0835
25810 8569 5 -0.35 21.3609 5.65809 12.1117
25817 8572 5 -0.35 25.7588 9.79679 12.2898
25818 8572 6 0.7 26.4738 9.08106 11.7223
25819 8572 5 -0.35 27.1889 8.36533 11.1548
25829 8576 5 -0.35 7.85989 10.2956 3.62095
25830 8576 6 0.7 25.0583 10.1295 4.04331
25831 8576 5 -0.35 23.9908 9.9634 4.46568
25838 8579 5 -0.35 18.8158 6.48628 0.692521
25839 8579 6 0.7 28.123 11.4604 14.4994
25840 8579 5 -0.35 28.2972 11.1615 13.3922
25847 8582 5 -0.35 22.2034 16.8524 13.2271
25848 8582 6 0.7 21.7022 16.609 12.2097
25849 8582 5 -0.35 21.2009 16.3657 11.1923
25940 8613 5 -0.35 16.9144 9.75509 13.1708
25941 8613 6 0.7 17.3639 9.33286 12.1883
25942 8613 5 -0.35 17.8133 8.91063 11.2058
25967 8622 5 -0.35 17.0269 15.0967 14.8291
25968 8622 6 0.7 7.0711 10.3435 0.546267
25969 8622 5 -0.35 24.5143 10.8632 1.17752
25970 8623 5 -0.35 24.9267 13.4443 5.96886
25971 8623 6 0.7 26.0339 13.6903 5.72516
25972 8623 5 -0.35 27.141 13.9363 5.48147
25973 8624 5 -0.35 20.5874 13.3359 5.69875
25974 8624 6 0.7 21.0202 14.0553 4.89834
25975 8624 5 -0.35 21.453 14.7748 4.09792
25976 8625 5 -0.35 13.9065 10.0271 8.31447
25977 8625 6 0.7 14.2636 10.406 9.35104
25978 8625 5 -0.35 14.6207 10.7849 10.3876
25982 8627 5 -0.35 11.0457 11.7762 3.53246
25983 8627 6 0.7 11.4882 11.4116 2.52408
25984 8627 5 -0.35 11.9307 11.047 1.51569
25988 8629 5 -0.35 23.2023 20.7948 14.5312
25989 8629 6 0.7 14.3502 15.3486 0.729098
25990 8629 5 -0.35 14.6311 15.1753 1.84115
25991 8630 5 -0.35 7.14018 4.96467 10.0485
25992 8630 6 0.7 7.59981 3.99903 9.59914
25993 8630 5 -0.35 17.1924 18.8522 9.14981
25994 8631 5 -0.35 12.4433 7.61307 14.7973
25995 8631 6 0.7 3.83565 3.36536 0.0194937
25996 8631 5 -0.35 4.36097 4.39057 0.155758
25997 8632 5 -0.35 20.5701 4.4618 5.00559
25998 8632 6 0.7 20.8435 4.41467 3.87924
25999 8632 5 -0.35 21.1168 4.36755 2.75289
26003 8634 5 -0.35 19.504 13.3151 10.9191
26004 8634 6 0.7 20.0572 12.5242 10.2756
26005 8634 5 -0.35 20.6104 11.7333 9.63214
26006 8635 5 -0.35 13.7468 7.3241 12.1707
26007 8635 6 0.7 12.8715 6.56461 12.2215
26008 8635 5 -0.35 11.9961 5.80513 12.2723
26009 8636 5 -0.35 17.4216 4.52008 1.90379
26010 8636 6 0.7 17.543 3.41226 1.58193
26011 8636 5 -0.35 17.6644 2.30444 1.26006
ITEM: TIMESTEP
37000
ITEM: NUMBER OF ATOMS
142
ITEM: BOX BOUNDS xy xz yz pp pp pp
0.0000000000000000e+00 3.6531964750000000e+01 9.1329911900000003e+00
0.0000000000000000e+00 2.1091739680000000e+01 9.1329911900000003e+00
0.0000000000000000e+00 1.4914112149999999e+01 5.2729349200000000e+00
ITEM: ATOMS id mol type q x y z
1 1 1 1.10383 27.399 17.6496 10.5383
2 1 1 1.10383 9.13299 3.44217 4.3758
3 1 1 1.10383 27.399 15.8188 13.1274
4 1 1 1.10383 9.13299 5.27293 1.78671
5 1 1 1.10383 25.8135 14.9034 10.5383
6 1 1 1.10383 10.7185 6.18832 4.3758
7 1 1 1.10383 28.9845 14.9034 10.5383
8 1 1 1.10383 7.5475 6.18832 4.3758
9 1 2 0.115889 18.266 5.48596 12.6084
10 1 2 0.115889 18.266 15.6058 2.30572
11 1 2 0.115888 18.266 13.716 0.969417
12 1 2 0.115888 18.266 7.37578 13.9447
13 1 2 0.11589 25.3934 11.4908 8.12521
14 1 2 0.11589 11.1386 9.60096 6.7889
15 1 2 0.115888 11.1386 11.4908 8.12521
16 1 2 0.115888 25.3934 9.60096 6.7889
17 1 2 0.115889 15.5206 8.96083 0.969417
18 1 2 0.115889 21.0114 12.1309 13.9447
19 1 2 0.115888 22.648 13.0758 12.6084
20 1 2 0.115888 13.884 8.01592 2.30572
21 1 2 0.115889 21.0114 3.90092 8.12521
22 1 2 0.115889 15.5206 17.1908 6.7889
23 1 2 0.115887 13.884 16.2459 8.12521
24 1 2 0.115887 22.648 4.84583 6.7889
25 1 2 0.115889 22.648 16.2459 8.12521
26 1 2 0.115889 13.884 4.84583 6.7889
27 1 2 0.115887 15.5206 3.90092 8.12521
28 1 2 0.115887 21.0114 17.1908 6.7889
29 1 2 0.115889 21.0114 8.96083 0.969417
30 1 2 0.115889 15.5206 12.1309 13.9447
31 1 2 0.115887 13.884 13.0758 12.6084
32 1 2 0.115887 22.648 8.01592 2.30572
33 1 3 0.671939 27.399 18.7442 13.2542
34 1 3 0.671939 9.13299 2.34751 1.65994
35 1 3 0.671939 27.399 12.8934 9.117
36 1 3 0.671939 9.13299 8.19836 5.79712
37 1 3 0.67194 24.8655 14.3561 13.2542
38 1 3 0.67194 11.6665 6.73565 1.65994
39 1 3 0.67194 29.9325 17.2815 9.117
40 1 3 0.67194 6.5995 3.81022 5.79712
41 1 3 0.67194 24.8655 17.2815 9.117
42 1 3 0.67194 11.6665 3.81022 5.79712
43 1 3 0.67194 29.9325 14.3561 13.2542
44 1 3 0.67194 6.5995 6.73565 1.65994
45 1 3 -0.11508 27.399 19.957 14.1117
46 1 3 -0.11508 9.13299 1.13474 0.802379
47 1 3 -0.11508 27.399 11.6806 8.25944
48 1 3 -0.11508 9.13299 9.41113 6.65468
49 1 3 -0.11508 23.8152 13.7497 14.1117
50 1 3 -0.11508 12.7168 7.34203 0.802379
51 1 3 -0.11508 30.9828 17.8879 8.25944
52 1 3 -0.11508 5.54921 3.20384 6.65468
53 1 3 -0.11508 23.8152 17.8879 8.25944
54 1 3 -0.11508 12.7168 3.20384 6.65468
55 1 3 -0.11508 30.9828 13.7497 14.1117
56 1 3 -0.11508 5.54921 7.34203 0.802379
57 1 3 -0.0559 18.266 5.39949 13.5316
58 1 3 -0.0559 18.266 15.6923 1.38254
59 1 3 -0.055903 18.266 14.5575 0.580159
60 1 3 -0.055903 18.266 6.53422 14.334
61 1 3 -0.0559 26.1971 11.1132 7.85825
62 1 3 -0.0559 10.3349 9.9785 7.05587
63 1 3 -0.055903 10.3349 11.1132 7.85825
64 1 3 -0.055903 26.1971 9.9785 7.05587
65 1 3 -0.0559 14.7918 8.54005 0.580159
66 1 3 -0.0559 21.7402 12.5517 14.334
67 1 3 -0.055903 22.7229 13.1191 13.5316
68 1 3 -0.055903 13.8091 7.97268 1.38254
69 1 3 -0.0559 21.7402 3.39366 7.85825
70 1 3 -0.0559 14.7918 17.6981 7.05587
71 1 3 -0.055903 13.8091 17.1307 7.85825
72 1 3 -0.055903 22.7229 3.96103 7.05587
73 1 3 -0.055901 22.7229 17.1307 7.85825
74 1 3 -0.055901 13.8091 3.96103 7.05587
75 1 3 -0.055903 14.7918 3.39366 7.85825
76 1 3 -0.055903 21.7402 17.6981 7.05587
77 1 3 -0.0559 21.7402 8.54005 0.580159
78 1 3 -0.0559 14.7918 12.5517 14.334
79 1 3 -0.055903 13.8091 13.1191 13.5316
80 1 3 -0.055903 22.7229 7.97268 1.38254
81 1 4 -1.26215 27.399 15.8188 11.1856
82 1 4 -1.26215 9.13299 5.27293 3.72853
83 1 4 -0.60118 27.399 18.9383 11.9641
84 1 4 -0.60118 9.13299 2.15347 2.95001
85 1 4 -0.601179 27.399 17.5926 13.8671
86 1 4 -0.601179 9.13299 3.49912 1.04697
87 1 4 -0.601179 26.2336 13.3722 9.45555
88 1 4 -0.601179 10.2984 7.71958 5.45857
89 1 4 -0.60118 28.5643 13.3722 9.45555
90 1 4 -0.60118 7.96762 7.71958 5.45857
91 1 4 -0.60118 25.8628 14.9319 13.8671
92 1 4 -0.60118 10.6692 6.15984 1.04697
93 1 4 -0.601179 24.6974 14.2591 11.9641
94 1 4 -0.601179 11.8345 6.83267 2.95001
95 1 4 -0.60118 28.9351 18.0514 9.45555
96 1 4 -0.60118 7.59682 3.04037 5.45857
97 1 4 -0.601179 30.1005 16.0329 9.45555
98 1 4 -0.601179 6.43145 5.05885 5.45857
99 1 4 -0.601179 24.6974 16.0329 9.45555
100 1 4 -0.601179 11.8345 5.05885 5.45857
101 1 4 -0.60118 25.8628 18.0514 9.45555
102 1 4 -0.60118 10.6692 3.04037 5.45857
103 1 4 -0.60118 28.9351 14.9319 13.8671
104 1 4 -0.60118 7.59682 6.15984 1.04697
105 1 4 -0.60118 30.1005 14.2591 11.9641
106 1 4 -0.60118 6.43145 6.83267 2.95001
25808 8569 5 -0.35 30.6116 19.7034 11.7018
25809 8569 6 0.7 21.1259 4.73788 10.9995
25810 8569 5 -0.35 20.7733 5.59118 10.2973
26750 8883 5 -0.35 26.9947 15.752 7.02164
26751 8883 6 0.7 27.541 15.4348 6.0487
26752 8883 5 -0.35 28.0872 15.1177 5.07576
26801 8900 5 -0.35 15.6777 15.8136 14.0627
26802 8900 6 0.7 24.1417 10.9303 0.0124128
26803 8900 5 -0.35 23.4727 11.3199 0.876243
26804 8901 5 -0.35 13.2638 13.4615 6.05452
26805 8901 6 0.7 14.2256 14.0484 5.77852
26806 8901 5 -0.35 15.1874 14.6352 5.50252
26870 8923 5 -0.35 18.4722 11.5178 12.4439
26871 8923 6 0.7 18.8088 10.4077 12.4366
26872 8923 5 -0.35 19.1453 9.29762 12.4293
26885 8928 5 -0.35 13.8381 12.3755 8.89224
26886 8928 6 0.7 13.6304 11.2356 8.83717
26887 8928 5 -0.35 13.4226 10.0957 8.7821
26909 8936 5 -0.35 29.1333 11.3488 11.6313
26910 8936 6 0.7 28.1486 11.7418 12.1021
26911 8936 5 -0.35 27.164 12.1347 12.5728
26912 8937 5 -0.35 14.5199 2.0206 2.89489
26913 8937 6 0.7 13.6149 2.73041 2.7441
26914 8937 5 -0.35 12.7099 3.44022 2.59332
26921 8940 5 -0.35 12.7542 6.91703 9.45697
26922 8940 6 0.7 11.8655 6.21438 9.20754
26923 8940 5 -0.35 10.9769 5.51172 8.9581
26924 8941 5 -0.35 21.7942 13.4445 7.89262
26925 8941 6 0.7 21.5823 13.3289 9.02723
26926 8941 5 -0.35 21.3704 13.2133 10.1618
26927 8942 5 -0.35 23.8915 9.15024 9.56298
26928 8942 6 0.7 23.4253 8.13169 9.26168
26929 8942 5 -0.35 22.959 7.11315 8.96038
26930 8943 5 -0.35 16.9003 5.04907 6.26916
26931 8943 6 0.7 16.9694 4.78141 5.14258
26932 8943 5 -0.35 17.0385 4.51374 4.01599
ITEM: TIMESTEP
38000
ITEM: NUMBER OF ATOMS
181
ITEM: BOX BOUNDS xy xz yz pp pp pp
0.0000000000000000e+00 3.6531964750000000e+01 9.1329911900000003e+00
0.0000000000000000e+00 2.1091739680000000e+01 9.1329911900000003e+00
0.0000000000000000e+00 1.4914112149999999e+01 5.2729349200000000e+00
ITEM: ATOMS id mol type q x y z
1 1 1 1.10383 27.399 17.6496 10.5383
2 1 1 1.10383 9.13299 3.44217 4.3758
3 1 1 1.10383 27.399 15.8188 13.1274
4 1 1 1.10383 9.13299 5.27293 1.78671
5 1 1 1.10383 25.8135 14.9034 10.5383
6 1 1 1.10383 10.7185 6.18832 4.3758
7 1 1 1.10383 28.9845 14.9034 10.5383
8 1 1 1.10383 7.5475 6.18832 4.3758
9 1 2 0.115889 18.266 5.48596 12.6084
10 1 2 0.115889 18.266 15.6058 2.30572
11 1 2 0.115888 18.266 13.716 0.969417
12 1 2 0.115888 18.266 7.37578 13.9447
13 1 2 0.11589 25.3934 11.4908 8.12521
14 1 2 0.11589 11.1386 9.60096 6.7889
15 1 2 0.115888 11.1386 11.4908 8.12521
16 1 2 0.115888 25.3934 9.60096 6.7889
17 1 2 0.115889 15.5206 8.96083 0.969417
18 1 2 0.115889 21.0114 12.1309 13.9447
19 1 2 0.115888 22.648 13.0758 12.6084
20 1 2 0.115888 13.884 8.01592 2.30572
21 1 2 0.115889 21.0114 3.90092 8.12521
22 1 2 0.115889 15.5206 17.1908 6.7889
23 1 2 0.115887 13.884 16.2459 8.12521
24 1 2 0.115887 22.648 4.84583 6.7889
25 1 2 0.115889 22.648 16.2459 8.12521
26 1 2 0.115889 13.884 4.84583 6.7889
27 1 2 0.115887 15.5206 3.90092 8.12521
28 1 2 0.115887 21.0114 17.1908 6.7889
29 1 2 0.115889 21.0114 8.96083 0.969417
30 1 2 0.115889 15.5206 12.1309 13.9447
31 1 2 0.115887 13.884 13.0758 12.6084
32 1 2 0.115887 22.648 8.01592 2.30572
33 1 3 0.671939 27.399 18.7442 13.2542
34 1 3 0.671939 9.13299 2.34751 1.65994
35 1 3 0.671939 27.399 12.8934 9.117
36 1 3 0.671939 9.13299 8.19836 5.79712
37 1 3 0.67194 24.8655 14.3561 13.2542
38 1 3 0.67194 11.6665 6.73565 1.65994
39 1 3 0.67194 29.9325 17.2815 9.117
40 1 3 0.67194 6.5995 3.81022 5.79712
41 1 3 0.67194 24.8655 17.2815 9.117
42 1 3 0.67194 11.6665 3.81022 5.79712
43 1 3 0.67194 29.9325 14.3561 13.2542
44 1 3 0.67194 6.5995 6.73565 1.65994
45 1 3 -0.11508 27.399 19.957 14.1117
46 1 3 -0.11508 9.13299 1.13474 0.802379
47 1 3 -0.11508 27.399 11.6806 8.25944
48 1 3 -0.11508 9.13299 9.41113 6.65468
49 1 3 -0.11508 23.8152 13.7497 14.1117
50 1 3 -0.11508 12.7168 7.34203 0.802379
51 1 3 -0.11508 30.9828 17.8879 8.25944
52 1 3 -0.11508 5.54921 3.20384 6.65468
53 1 3 -0.11508 23.8152 17.8879 8.25944
54 1 3 -0.11508 12.7168 3.20384 6.65468
55 1 3 -0.11508 30.9828 13.7497 14.1117
56 1 3 -0.11508 5.54921 7.34203 0.802379
57 1 3 -0.0559 18.266 5.39949 13.5316
58 1 3 -0.0559 18.266 15.6923 1.38254
59 1 3 -0.055903 18.266 14.5575 0.580159
60 1 3 -0.055903 18.266 6.53422 14.334
61 1 3 -0.0559 26.1971 11.1132 7.85825
62 1 3 -0.0559 10.3349 9.9785 7.05587
63 1 3 -0.055903 10.3349 11.1132 7.85825
64 1 3 -0.055903 26.1971 9.9785 7.05587
65 1 3 -0.0559 14.7918 8.54005 0.580159
66 1 3 -0.0559 21.7402 12.5517 14.334
67 1 3 -0.055903 22.7229 13.1191 13.5316
68 1 3 -0.055903 13.8091 7.97268 1.38254
69 1 3 -0.0559 21.7402 3.39366 7.85825
70 1 3 -0.0559 14.7918 17.6981 7.05587
71 1 3 -0.055903 13.8091 17.1307 7.85825
72 1 3 -0.055903 22.7229 3.96103 7.05587
73 1 3 -0.055901 22.7229 17.1307 7.85825
74 1 3 -0.055901 13.8091 3.96103 7.05587
75 1 3 -0.055903 14.7918 3.39366 7.85825
76 1 3 -0.055903 21.7402 17.6981 7.05587
77 1 3 -0.0559 21.7402 8.54005 0.580159
78 1 3 -0.0559 14.7918 12.5517 14.334
79 1 3 -0.055903 13.8091 13.1191 13.5316
80 1 3 -0.055903 22.7229 7.97268 1.38254
81 1 4 -1.26215 27.399 15.8188 11.1856
82 1 4 -1.26215 9.13299 5.27293 3.72853
83 1 4 -0.60118 27.399 18.9383 11.9641
84 1 4 -0.60118 9.13299 2.15347 2.95001
85 1 4 -0.601179 27.399 17.5926 13.8671
86 1 4 -0.601179 9.13299 3.49912 1.04697
87 1 4 -0.601179 26.2336 13.3722 9.45555
88 1 4 -0.601179 10.2984 7.71958 5.45857
89 1 4 -0.60118 28.5643 13.3722 9.45555
90 1 4 -0.60118 7.96762 7.71958 5.45857
91 1 4 -0.60118 25.8628 14.9319 13.8671
92 1 4 -0.60118 10.6692 6.15984 1.04697
93 1 4 -0.601179 24.6974 14.2591 11.9641
94 1 4 -0.601179 11.8345 6.83267 2.95001
95 1 4 -0.60118 28.9351 18.0514 9.45555
96 1 4 -0.60118 7.59682 3.04037 5.45857
97 1 4 -0.601179 30.1005 16.0329 9.45555
98 1 4 -0.601179 6.43145 5.05885 5.45857
99 1 4 -0.601179 24.6974 16.0329 9.45555
100 1 4 -0.601179 11.8345 5.05885 5.45857
101 1 4 -0.60118 25.8628 18.0514 9.45555
102 1 4 -0.60118 10.6692 3.04037 5.45857
103 1 4 -0.60118 28.9351 14.9319 13.8671
104 1 4 -0.60118 7.59682 6.15984 1.04697
105 1 4 -0.60118 30.1005 14.2591 11.9641
106 1 4 -0.60118 6.43145 6.83267 2.95001
27227 9042 5 -0.35 23.9538 7.96739 8.2421
27228 9042 6 0.7 23.5131 7.76166 7.18897
27229 9042 5 -0.35 23.0724 7.55592 6.13584
27356 9085 5 -0.35 21.2159 13.5685 0.0862302
27357 9085 6 0.7 30.5035 18.429 13.9272
27358 9085 5 -0.35 30.6582 18.0167 12.8541
27509 9136 5 -0.35 28.9382 11.2191 11.9125
27510 9136 6 0.7 11.6109 11.1836 11.2319
27511 9136 5 -0.35 12.5496 11.1482 10.5513
27635 9178 5 -0.35 21.4402 16.5323 10.6207
27636 9178 6 0.7 22.3694 16.8745 11.2248
27637 9178 5 -0.35 23.2987 17.2167 11.829
27689 9196 5 -0.35 20.4419 7.35175 11.1818
27690 9196 6 0.7 20.9281 6.8374 10.2627
27691 9196 5 -0.35 21.4143 6.32304 9.34368
27698 9199 5 -0.35 4.84839 3.87696 0.645353
27699 9199 6 0.7 13.8768 9.37009 14.4254
27700 9199 5 -0.35 13.7722 9.59028 13.2913
27704 9201 5 -0.35 29.724 17.3031 4.37272
27705 9201 6 0.7 3.34663 1.90423 4.01831
27706 9201 5 -0.35 4.36823 2.32415 3.6639
27716 9205 5 -0.35 19.7808 5.13644 4.82437
27717 9205 6 0.7 20.3395 5.05494 3.81103
27718 9205 5 -0.35 20.8982 4.97344 2.79769
27731 9210 5 -0.35 11.0991 10.5188 0.0915543
27732 9210 6 0.7 10.5115 10.1316 1.01371
27733 9210 5 -0.35 9.92384 9.74442 1.93587
27737 9212 5 -0.35 24.6117 10.8615 3.35842
27738 9212 6 0.7 24.1174 11.3507 2.43
27739 9212 5 -0.35 23.6231 11.8399 1.50158
27758 9219 5 -0.35 18.475 2.59643 1.14618
27759 9219 6 0.7 18.5289 2.31043 0.0232807
27760 9219 5 -0.35 27.7158 7.29736 13.8145
27767 9222 5 -0.35 7.24165 3.97798 9.81369
27768 9222 6 0.7 24.8427 4.78627 10.3137
27769 9222 5 -0.35 24.1777 5.59457 10.8138
27770 9223 5 -0.35 11.6867 5.60265 9.79029
27771 9223 6 0.7 12.3284 6.51975 9.48575
27772 9223 5 -0.35 12.9701 7.43685 9.18122
27782 9227 5 -0.35 16.0374 17.6197 11.9102
27783 9227 6 0.7 16.0298 16.9714 12.872
27784 9227 5 -0.35 16.0223 16.323 13.8339
27818 9239 5 -0.35 25.3613 15.9208 4.7508
27819 9239 6 0.7 25.7455 16.7873 5.41951
27820 9239 5 -0.35 26.1297 17.6538 6.08822
27836 9245 5 -0.35 18.0294 6.82612 2.58333
27837 9245 6 0.7 17.4696 7.79396 2.8925
27838 9245 5 -0.35 16.9099 8.7618 3.20168
27842 9247 5 -0.35 19.0785 8.93429 5.19286
27843 9247 6 0.7 19.9362 9.35572 4.53535
27844 9247 5 -0.35 20.7939 9.77715 3.87784
27860 9253 5 -0.35 14.6017 8.19609 5.97918
27861 9253 6 0.7 14.4928 7.28836 5.26521
27862 9253 5 -0.35 14.3838 6.38064 4.55123
27878 9259 5 -0.35 13.631 11.1731 7.6069
27879 9259 6 0.7 13.4566 11.0119 6.47146
27880 9259 5 -0.35 13.2823 10.8506 5.33603
27881 9260 5 -0.35 14.2408 4.63731 0.614142
27882 9260 6 0.7 14.3431 4.30081 1.71954
27883 9260 5 -0.35 14.4454 3.9643 2.82493
27884 9261 5 -0.35 17.2459 6.6943 9.6678
27885 9261 6 0.7 16.7596 6.58044 8.62082
27886 9261 5 -0.35 16.2734 6.46658 7.57383
27887 9262 5 -0.35 27.5337 13.6499 5.58646
27888 9262 6 0.7 28.5153 14.1682 5.92327
27889 9262 5 -0.35 11.2309 14.6865 6.26008
27899 9266 5 -0.35 33.0051 19.9692 13.7535
27900 9266 6 0.7 33.6365 20.7616 14.3184
27901 9266 5 -0.35 25.135 5.73506 14.8833
27902 9267 5 -0.35 14.3304 14.3231 3.35426
27903 9267 6 0.7 14.0442 14.2538 2.23226
27904 9267 5 -0.35 13.758 14.1846 1.11026
27905 9268 5 -0.35 18.7234 12.9025 12.4095
27906 9268 6 0.7 18.5274 11.7838 12.6453
27907 9268 5 -0.35 18.3314 10.6651 12.8812
ITEM: TIMESTEP
39000
ITEM: NUMBER OF ATOMS
190
ITEM: BOX BOUNDS xy xz yz pp pp pp
0.0000000000000000e+00 3.6531964750000000e+01 9.1329911900000003e+00
0.0000000000000000e+00 2.1091739680000000e+01 9.1329911900000003e+00
0.0000000000000000e+00 1.4914112149999999e+01 5.2729349200000000e+00
ITEM: ATOMS id mol type q x y z
1 1 1 1.10383 27.399 17.6496 10.5383
2 1 1 1.10383 9.13299 3.44217 4.3758
3 1 1 1.10383 27.399 15.8188 13.1274
4 1 1 1.10383 9.13299 5.27293 1.78671
5 1 1 1.10383 25.8135 14.9034 10.5383
6 1 1 1.10383 10.7185 6.18832 4.3758
7 1 1 1.10383 28.9845 14.9034 10.5383
8 1 1 1.10383 7.5475 6.18832 4.3758
9 1 2 0.115889 18.266 5.48596 12.6084
10 1 2 0.115889 18.266 15.6058 2.30572
11 1 2 0.115888 18.266 13.716 0.969417
12 1 2 0.115888 18.266 7.37578 13.9447
13 1 2 0.11589 25.3934 11.4908 8.12521
14 1 2 0.11589 11.1386 9.60096 6.7889
15 1 2 0.115888 11.1386 11.4908 8.12521
16 1 2 0.115888 25.3934 9.60096 6.7889
17 1 2 0.115889 15.5206 8.96083 0.969417
18 1 2 0.115889 21.0114 12.1309 13.9447
19 1 2 0.115888 22.648 13.0758 12.6084
20 1 2 0.115888 13.884 8.01592 2.30572
21 1 2 0.115889 21.0114 3.90092 8.12521
22 1 2 0.115889 15.5206 17.1908 6.7889
23 1 2 0.115887 13.884 16.2459 8.12521
24 1 2 0.115887 22.648 4.84583 6.7889
25 1 2 0.115889 22.648 16.2459 8.12521
26 1 2 0.115889 13.884 4.84583 6.7889
27 1 2 0.115887 15.5206 3.90092 8.12521
28 1 2 0.115887 21.0114 17.1908 6.7889
29 1 2 0.115889 21.0114 8.96083 0.969417
30 1 2 0.115889 15.5206 12.1309 13.9447
31 1 2 0.115887 13.884 13.0758 12.6084
32 1 2 0.115887 22.648 8.01592 2.30572
33 1 3 0.671939 27.399 18.7442 13.2542
34 1 3 0.671939 9.13299 2.34751 1.65994
35 1 3 0.671939 27.399 12.8934 9.117
36 1 3 0.671939 9.13299 8.19836 5.79712
37 1 3 0.67194 24.8655 14.3561 13.2542
38 1 3 0.67194 11.6665 6.73565 1.65994
39 1 3 0.67194 29.9325 17.2815 9.117
40 1 3 0.67194 6.5995 3.81022 5.79712
41 1 3 0.67194 24.8655 17.2815 9.117
42 1 3 0.67194 11.6665 3.81022 5.79712
43 1 3 0.67194 29.9325 14.3561 13.2542
44 1 3 0.67194 6.5995 6.73565 1.65994
45 1 3 -0.11508 27.399 19.957 14.1117
46 1 3 -0.11508 9.13299 1.13474 0.802379
47 1 3 -0.11508 27.399 11.6806 8.25944
48 1 3 -0.11508 9.13299 9.41113 6.65468
49 1 3 -0.11508 23.8152 13.7497 14.1117
50 1 3 -0.11508 12.7168 7.34203 0.802379
51 1 3 -0.11508 30.9828 17.8879 8.25944
52 1 3 -0.11508 5.54921 3.20384 6.65468
53 1 3 -0.11508 23.8152 17.8879 8.25944
54 1 3 -0.11508 12.7168 3.20384 6.65468
55 1 3 -0.11508 30.9828 13.7497 14.1117
56 1 3 -0.11508 5.54921 7.34203 0.802379
57 1 3 -0.0559 18.266 5.39949 13.5316
58 1 3 -0.0559 18.266 15.6923 1.38254
59 1 3 -0.055903 18.266 14.5575 0.580159
60 1 3 -0.055903 18.266 6.53422 14.334
61 1 3 -0.0559 26.1971 11.1132 7.85825
62 1 3 -0.0559 10.3349 9.9785 7.05587
63 1 3 -0.055903 10.3349 11.1132 7.85825
64 1 3 -0.055903 26.1971 9.9785 7.05587
65 1 3 -0.0559 14.7918 8.54005 0.580159
66 1 3 -0.0559 21.7402 12.5517 14.334
67 1 3 -0.055903 22.7229 13.1191 13.5316
68 1 3 -0.055903 13.8091 7.97268 1.38254
69 1 3 -0.0559 21.7402 3.39366 7.85825
70 1 3 -0.0559 14.7918 17.6981 7.05587
71 1 3 -0.055903 13.8091 17.1307 7.85825
72 1 3 -0.055903 22.7229 3.96103 7.05587
73 1 3 -0.055901 22.7229 17.1307 7.85825
74 1 3 -0.055901 13.8091 3.96103 7.05587
75 1 3 -0.055903 14.7918 3.39366 7.85825
76 1 3 -0.055903 21.7402 17.6981 7.05587
77 1 3 -0.0559 21.7402 8.54005 0.580159
78 1 3 -0.0559 14.7918 12.5517 14.334
79 1 3 -0.055903 13.8091 13.1191 13.5316
80 1 3 -0.055903 22.7229 7.97268 1.38254
81 1 4 -1.26215 27.399 15.8188 11.1856
82 1 4 -1.26215 9.13299 5.27293 3.72853
83 1 4 -0.60118 27.399 18.9383 11.9641
84 1 4 -0.60118 9.13299 2.15347 2.95001
85 1 4 -0.601179 27.399 17.5926 13.8671
86 1 4 -0.601179 9.13299 3.49912 1.04697
87 1 4 -0.601179 26.2336 13.3722 9.45555
88 1 4 -0.601179 10.2984 7.71958 5.45857
89 1 4 -0.60118 28.5643 13.3722 9.45555
90 1 4 -0.60118 7.96762 7.71958 5.45857
91 1 4 -0.60118 25.8628 14.9319 13.8671
92 1 4 -0.60118 10.6692 6.15984 1.04697
93 1 4 -0.601179 24.6974 14.2591 11.9641
94 1 4 -0.601179 11.8345 6.83267 2.95001
95 1 4 -0.60118 28.9351 18.0514 9.45555
96 1 4 -0.60118 7.59682 3.04037 5.45857
97 1 4 -0.601179 30.1005 16.0329 9.45555
98 1 4 -0.601179 6.43145 5.05885 5.45857
99 1 4 -0.601179 24.6974 16.0329 9.45555
100 1 4 -0.601179 11.8345 5.05885 5.45857
101 1 4 -0.60118 25.8628 18.0514 9.45555
102 1 4 -0.60118 10.6692 3.04037 5.45857
103 1 4 -0.60118 28.9351 14.9319 13.8671
104 1 4 -0.60118 7.59682 6.15984 1.04697
105 1 4 -0.60118 30.1005 14.2591 11.9641
106 1 4 -0.60118 6.43145 6.83267 2.95001
28223 9374 5 -0.35 17.9507 15.6801 7.56909
28224 9374 6 0.7 18.4214 15.7089 8.62891
28225 9374 5 -0.35 18.8921 15.7376 9.68873
28262 9387 5 -0.35 14.3113 4.52756 12.5529
28263 9387 6 0.7 23.7887 19.2509 12.3886
28264 9387 5 -0.35 24.133 18.1554 12.2244
28289 9396 5 -0.35 9.04235 5.47819 7.15488
28290 9396 6 0.7 8.52246 5.91974 8.09316
28291 9396 5 -0.35 8.00258 6.36128 9.03143
28337 9412 5 -0.35 12.7896 1.86518 3.3093
28338 9412 6 0.7 22.2377 16.7071 3.84973
28339 9412 5 -0.35 22.5528 15.7303 4.39015
28343 9414 5 -0.35 26.4893 16.5892 5.5182
28344 9414 6 0.7 27.1357 16.0985 6.34703
28345 9414 5 -0.35 27.7821 15.6078 7.17585
28379 9426 5 -0.35 18.1474 8.6526 1.60683
28380 9426 6 0.7 17.9402 7.7807 0.870312
28381 9426 5 -0.35 17.733 6.9088 0.133794
28400 9433 5 -0.35 27.2391 9.68305 10.9336
28401 9433 6 0.7 26.162 9.94403 11.2764
28402 9433 5 -0.35 25.085 10.205 11.6192
28445 9448 5 -0.35 24.8379 14.569 6.71189
28446 9448 6 0.7 23.8984 13.9853 7.06139
28447 9448 5 -0.35 22.9588 13.4016 7.41089
28457 9452 5 -0.35 14.6268 15.4889 11.2321
28458 9452 6 0.7 14.6066 16.3815 11.9727
28459 9452 5 -0.35 32.8524 17.2742 12.7132
28463 9454 5 -0.35 27.8477 13.9712 4.97992
28464 9454 6 0.7 10.4631 13.2914 4.65347
28465 9454 5 -0.35 11.3445 12.6116 4.32702
28514 9471 5 -0.35 5.62458 3.52129 2.79208
28515 9471 6 0.7 5.6906 2.43137 2.40051
28516 9471 5 -0.35 5.75661 1.34146 2.00894
28517 9472 5 -0.35 23.0982 11.7741 3.79206
28518 9472 6 0.7 22.6178 11.8196 2.73716
28519 9472 5 -0.35 22.1375 11.8651 1.68226
28523 9474 5 -0.35 20.5838 15.2413 12.1922
28524 9474 6 0.7 21.0998 16.0494 11.5394
28525 9474 5 -0.35 21.6157 16.8576 10.8865
28544 9481 5 -0.35 13.961 9.00488 13.2058
28545 9481 6 0.7 14.8756 8.36162 12.897
28546 9481 5 -0.35 15.7902 7.71836 12.5882
28565 9488 5 -0.35 24.223 5.40238 14.0761
28566 9488 6 0.7 23.7746 5.09792 13.0505
28567 9488 5 -0.35 23.3262 4.79346 12.0249
28580 9493 5 -0.35 28.6462 11.9817 12.0357
28581 9493 6 0.7 29.6742 11.6861 11.587
28582 9493 5 -0.35 12.4363 11.3904 11.1384
28589 9496 5 -0.35 15.706 13.3141 8.73393
28590 9496 6 0.7 14.7243 13.0568 8.17205
28591 9496 5 -0.35 13.7426 12.7995 7.61017
28592 9497 5 -0.35 20.5353 1.75301 3.92073
28593 9497 6 0.7 20.0894 1.17557 3.01888
28594 9497 5 -0.35 10.5105 16.4169 2.11704
28598 9499 5 -0.35 20.3771 5.09746 1.02513
28599 9499 6 0.7 20.2797 3.98398 0.714868
28600 9499 5 -0.35 1.91632 2.87049 0.404608
28607 9502 5 -0.35 10.5788 13.7614 1.05577
28608 9502 6 0.7 20.1871 19.0313 14.9117
28609 9502 5 -0.35 20.6624 19.0282 13.8536
28610 9503 5 -0.35 11.3485 6.88396 11.3343
28611 9503 6 0.7 11.3698 6.95306 10.1766
28612 9503 5 -0.35 11.3911 7.02216 9.01885
28613 9504 5 -0.35 8.27484 11.1788 4.04139
28614 9504 6 0.7 7.92097 11.3073 2.94418
28615 9504 5 -0.35 7.56711 11.4358 1.84697
28619 9506 5 -0.35 15.5386 8.59141 4.88782
28620 9506 6 0.7 14.7283 9.3026 5.31593
28621 9506 5 -0.35 13.9181 10.0138 5.74404
28622 9507 5 -0.35 17.4349 5.85444 3.26976
28623 9507 6 0.7 18.03 5.85105 4.26547
28624 9507 5 -0.35 18.6251 5.84767 5.26119
28625 9508 5 -0.35 18.2397 19.8422 11.8889
28626 9508 6 0.7 18.9295 19.6381 10.9789
28627 9508 5 -0.35 10.4863 3.6151 10.0689
28628 9509 5 -0.35 14.2834 5.09862 2.91872
28629 9509 6 0.7 15.0066 4.78549 2.06751
28630 9509 5 -0.35 15.7297 4.47235 1.2163
28631 9510 5 -0.35 14.1182 14.3457 3.40338
28632 9510 6 0.7 14.3106 14.3589 2.25953
28633 9510 5 -0.35 14.5031 14.3721 1.11568
28634 9511 5 -0.35 17.893 10.4219 11.4371
28635 9511 6 0.7 17.5284 10.5412 10.3424
28636 9511 5 -0.35 17.1637 10.6604 9.24764
ITEM: TIMESTEP
40000
ITEM: NUMBER OF ATOMS
160
ITEM: BOX BOUNDS xy xz yz pp pp pp
0.0000000000000000e+00 3.6531964750000000e+01 9.1329911900000003e+00
0.0000000000000000e+00 2.1091739680000000e+01 9.1329911900000003e+00
0.0000000000000000e+00 1.4914112149999999e+01 5.2729349200000000e+00
ITEM: ATOMS id mol type q x y z
1 1 1 1.10383 27.399 17.6496 10.5383
2 1 1 1.10383 9.13299 3.44217 4.3758
3 1 1 1.10383 27.399 15.8188 13.1274
4 1 1 1.10383 9.13299 5.27293 1.78671
5 1 1 1.10383 25.8135 14.9034 10.5383
6 1 1 1.10383 10.7185 6.18832 4.3758
7 1 1 1.10383 28.9845 14.9034 10.5383
8 1 1 1.10383 7.5475 6.18832 4.3758
9 1 2 0.115889 18.266 5.48596 12.6084
10 1 2 0.115889 18.266 15.6058 2.30572
11 1 2 0.115888 18.266 13.716 0.969417
12 1 2 0.115888 18.266 7.37578 13.9447
13 1 2 0.11589 25.3934 11.4908 8.12521
14 1 2 0.11589 11.1386 9.60096 6.7889
15 1 2 0.115888 11.1386 11.4908 8.12521
16 1 2 0.115888 25.3934 9.60096 6.7889
17 1 2 0.115889 15.5206 8.96083 0.969417
18 1 2 0.115889 21.0114 12.1309 13.9447
19 1 2 0.115888 22.648 13.0758 12.6084
20 1 2 0.115888 13.884 8.01592 2.30572
21 1 2 0.115889 21.0114 3.90092 8.12521
22 1 2 0.115889 15.5206 17.1908 6.7889
23 1 2 0.115887 13.884 16.2459 8.12521
24 1 2 0.115887 22.648 4.84583 6.7889
25 1 2 0.115889 22.648 16.2459 8.12521
26 1 2 0.115889 13.884 4.84583 6.7889
27 1 2 0.115887 15.5206 3.90092 8.12521
28 1 2 0.115887 21.0114 17.1908 6.7889
29 1 2 0.115889 21.0114 8.96083 0.969417
30 1 2 0.115889 15.5206 12.1309 13.9447
31 1 2 0.115887 13.884 13.0758 12.6084
32 1 2 0.115887 22.648 8.01592 2.30572
33 1 3 0.671939 27.399 18.7442 13.2542
34 1 3 0.671939 9.13299 2.34751 1.65994
35 1 3 0.671939 27.399 12.8934 9.117
36 1 3 0.671939 9.13299 8.19836 5.79712
37 1 3 0.67194 24.8655 14.3561 13.2542
38 1 3 0.67194 11.6665 6.73565 1.65994
39 1 3 0.67194 29.9325 17.2815 9.117
40 1 3 0.67194 6.5995 3.81022 5.79712
41 1 3 0.67194 24.8655 17.2815 9.117
42 1 3 0.67194 11.6665 3.81022 5.79712
43 1 3 0.67194 29.9325 14.3561 13.2542
44 1 3 0.67194 6.5995 6.73565 1.65994
45 1 3 -0.11508 27.399 19.957 14.1117
46 1 3 -0.11508 9.13299 1.13474 0.802379
47 1 3 -0.11508 27.399 11.6806 8.25944
48 1 3 -0.11508 9.13299 9.41113 6.65468
49 1 3 -0.11508 23.8152 13.7497 14.1117
50 1 3 -0.11508 12.7168 7.34203 0.802379
51 1 3 -0.11508 30.9828 17.8879 8.25944
52 1 3 -0.11508 5.54921 3.20384 6.65468
53 1 3 -0.11508 23.8152 17.8879 8.25944
54 1 3 -0.11508 12.7168 3.20384 6.65468
55 1 3 -0.11508 30.9828 13.7497 14.1117
56 1 3 -0.11508 5.54921 7.34203 0.802379
57 1 3 -0.0559 18.266 5.39949 13.5316
58 1 3 -0.0559 18.266 15.6923 1.38254
59 1 3 -0.055903 18.266 14.5575 0.580159
60 1 3 -0.055903 18.266 6.53422 14.334
61 1 3 -0.0559 26.1971 11.1132 7.85825
62 1 3 -0.0559 10.3349 9.9785 7.05587
63 1 3 -0.055903 10.3349 11.1132 7.85825
64 1 3 -0.055903 26.1971 9.9785 7.05587
65 1 3 -0.0559 14.7918 8.54005 0.580159
66 1 3 -0.0559 21.7402 12.5517 14.334
67 1 3 -0.055903 22.7229 13.1191 13.5316
68 1 3 -0.055903 13.8091 7.97268 1.38254
69 1 3 -0.0559 21.7402 3.39366 7.85825
70 1 3 -0.0559 14.7918 17.6981 7.05587
71 1 3 -0.055903 13.8091 17.1307 7.85825
72 1 3 -0.055903 22.7229 3.96103 7.05587
73 1 3 -0.055901 22.7229 17.1307 7.85825
74 1 3 -0.055901 13.8091 3.96103 7.05587
75 1 3 -0.055903 14.7918 3.39366 7.85825
76 1 3 -0.055903 21.7402 17.6981 7.05587
77 1 3 -0.0559 21.7402 8.54005 0.580159
78 1 3 -0.0559 14.7918 12.5517 14.334
79 1 3 -0.055903 13.8091 13.1191 13.5316
80 1 3 -0.055903 22.7229 7.97268 1.38254
81 1 4 -1.26215 27.399 15.8188 11.1856
82 1 4 -1.26215 9.13299 5.27293 3.72853
83 1 4 -0.60118 27.399 18.9383 11.9641
84 1 4 -0.60118 9.13299 2.15347 2.95001
85 1 4 -0.601179 27.399 17.5926 13.8671
86 1 4 -0.601179 9.13299 3.49912 1.04697
87 1 4 -0.601179 26.2336 13.3722 9.45555
88 1 4 -0.601179 10.2984 7.71958 5.45857
89 1 4 -0.60118 28.5643 13.3722 9.45555
90 1 4 -0.60118 7.96762 7.71958 5.45857
91 1 4 -0.60118 25.8628 14.9319 13.8671
92 1 4 -0.60118 10.6692 6.15984 1.04697
93 1 4 -0.601179 24.6974 14.2591 11.9641
94 1 4 -0.601179 11.8345 6.83267 2.95001
95 1 4 -0.60118 28.9351 18.0514 9.45555
96 1 4 -0.60118 7.59682 3.04037 5.45857
97 1 4 -0.601179 30.1005 16.0329 9.45555
98 1 4 -0.601179 6.43145 5.05885 5.45857
99 1 4 -0.601179 24.6974 16.0329 9.45555
100 1 4 -0.601179 11.8345 5.05885 5.45857
101 1 4 -0.60118 25.8628 18.0514 9.45555
102 1 4 -0.60118 10.6692 3.04037 5.45857
103 1 4 -0.60118 28.9351 14.9319 13.8671
104 1 4 -0.60118 7.59682 6.15984 1.04697
105 1 4 -0.60118 30.1005 14.2591 11.9641
106 1 4 -0.60118 6.43145 6.83267 2.95001
28523 9474 5 -0.35 22.5063 18.1168 13.1917
28524 9474 6 0.7 21.7227 17.3407 12.8322
28525 9474 5 -0.35 20.939 16.5647 12.4727
29078 9659 5 -0.35 19.0139 13.7509 12.6924
29079 9659 6 0.7 18.5522 14.1427 13.6818
29080 9659 5 -0.35 18.0905 14.5345 14.6712
29201 9700 5 -0.35 12.1233 1.33725 3.06022
29202 9700 6 0.7 20.5535 16.4896 3.69861
29203 9700 5 -0.35 19.8508 15.8231 4.33699
29384 9761 5 -0.35 7.53678 6.16284 8.65355
29385 9761 6 0.7 24.7837 6.70208 8.52562
29386 9761 5 -0.35 23.7647 7.24132 8.39769
29393 9764 5 -0.35 30.5562 18.2244 13.5777
29394 9764 6 0.7 31.0595 18.0779 14.6125
29395 9764 5 -0.35 22.4299 12.6585 0.733217
29423 9774 5 -0.35 17.4228 6.41235 1.22239
29424 9774 6 0.7 17.9465 7.35535 1.64907
29425 9774 5 -0.35 18.4702 8.29835 2.07575
29438 9779 5 -0.35 19.0004 12.2397 5.78361
29439 9779 6 0.7 19.1859 12.4788 4.66378
29440 9779 5 -0.35 19.3714 12.7179 3.54396
29447 9782 5 -0.35 16.484 14.5587 11.5964
29448 9782 6 0.7 16.6744 14.5896 10.4525
29449 9782 5 -0.35 16.8648 14.6205 9.3087
29456 9785 5 -0.35 24.5156 10.626 13.5634
29457 9785 6 0.7 24.3245 10.0192 14.5334
29458 9785 5 -0.35 15.0005 4.13951 0.58934
29471 9790 5 -0.35 24.4714 8.36125 11.2678
29472 9790 6 0.7 24.1493 9.3713 10.797
29473 9790 5 -0.35 23.8272 10.3813 10.3262
29489 9796 5 -0.35 5.49573 3.61847 2.97821
29490 9796 6 0.7 5.17858 4.00936 1.93312
29491 9796 5 -0.35 4.86144 4.40025 0.888022
29504 9801 5 -0.35 15.1716 16.1106 3.83457
29505 9801 6 0.7 14.8213 16.3555 2.75617
29506 9801 5 -0.35 5.33804 0.781476 1.67776
29513 9804 5 -0.35 19.8242 2.29112 3.27849
29514 9804 6 0.7 19.9304 2.99959 2.36613
29515 9804 5 -0.35 20.0365 3.70806 1.45377
29516 9805 5 -0.35 11.8273 15.6795 5.48498
29517 9805 6 0.7 29.1405 15.6909 6.14648
29518 9805 5 -0.35 28.1877 15.7023 6.80798
29522 9807 5 -0.35 8.94396 12.5375 3.47847
29523 9807 6 0.7 26.3033 13.2436 3.6366
29524 9807 5 -0.35 25.3967 13.9497 3.79473
29525 9808 5 -0.35 11.7101 14.3271 1.40889
29526 9808 6 0.7 11.7595 14.8593 0.37936
29527 9808 5 -0.35 20.9419 20.6644 14.2639
29528 9809 5 -0.35 26.2463 5.91022 14.8
29529 9809 6 0.7 26.3498 5.93469 13.6449
29530 9809 5 -0.35 26.4533 5.95917 12.4898
29531 9810 5 -0.35 15.4339 8.94441 4.96357
29532 9810 6 0.7 14.4122 8.43568 5.17066
29533 9810 5 -0.35 13.3905 7.92694 5.37776
ITEM: TIMESTEP
41000
ITEM: NUMBER OF ATOMS
184
ITEM: BOX BOUNDS xy xz yz pp pp pp
0.0000000000000000e+00 3.6531964750000000e+01 9.1329911900000003e+00
0.0000000000000000e+00 2.1091739680000000e+01 9.1329911900000003e+00
0.0000000000000000e+00 1.4914112149999999e+01 5.2729349200000000e+00
ITEM: ATOMS id mol type q x y z
1 1 1 1.10383 27.399 17.6496 10.5383
2 1 1 1.10383 9.13299 3.44217 4.3758
3 1 1 1.10383 27.399 15.8188 13.1274
4 1 1 1.10383 9.13299 5.27293 1.78671
5 1 1 1.10383 25.8135 14.9034 10.5383
6 1 1 1.10383 10.7185 6.18832 4.3758
7 1 1 1.10383 28.9845 14.9034 10.5383
8 1 1 1.10383 7.5475 6.18832 4.3758
9 1 2 0.115889 18.266 5.48596 12.6084
10 1 2 0.115889 18.266 15.6058 2.30572
11 1 2 0.115888 18.266 13.716 0.969417
12 1 2 0.115888 18.266 7.37578 13.9447
13 1 2 0.11589 25.3934 11.4908 8.12521
14 1 2 0.11589 11.1386 9.60096 6.7889
15 1 2 0.115888 11.1386 11.4908 8.12521
16 1 2 0.115888 25.3934 9.60096 6.7889
17 1 2 0.115889 15.5206 8.96083 0.969417
18 1 2 0.115889 21.0114 12.1309 13.9447
19 1 2 0.115888 22.648 13.0758 12.6084
20 1 2 0.115888 13.884 8.01592 2.30572
21 1 2 0.115889 21.0114 3.90092 8.12521
22 1 2 0.115889 15.5206 17.1908 6.7889
23 1 2 0.115887 13.884 16.2459 8.12521
24 1 2 0.115887 22.648 4.84583 6.7889
25 1 2 0.115889 22.648 16.2459 8.12521
26 1 2 0.115889 13.884 4.84583 6.7889
27 1 2 0.115887 15.5206 3.90092 8.12521
28 1 2 0.115887 21.0114 17.1908 6.7889
29 1 2 0.115889 21.0114 8.96083 0.969417
30 1 2 0.115889 15.5206 12.1309 13.9447
31 1 2 0.115887 13.884 13.0758 12.6084
32 1 2 0.115887 22.648 8.01592 2.30572
33 1 3 0.671939 27.399 18.7442 13.2542
34 1 3 0.671939 9.13299 2.34751 1.65994
35 1 3 0.671939 27.399 12.8934 9.117
36 1 3 0.671939 9.13299 8.19836 5.79712
37 1 3 0.67194 24.8655 14.3561 13.2542
38 1 3 0.67194 11.6665 6.73565 1.65994
39 1 3 0.67194 29.9325 17.2815 9.117
40 1 3 0.67194 6.5995 3.81022 5.79712
41 1 3 0.67194 24.8655 17.2815 9.117
42 1 3 0.67194 11.6665 3.81022 5.79712
43 1 3 0.67194 29.9325 14.3561 13.2542
44 1 3 0.67194 6.5995 6.73565 1.65994
45 1 3 -0.11508 27.399 19.957 14.1117
46 1 3 -0.11508 9.13299 1.13474 0.802379
47 1 3 -0.11508 27.399 11.6806 8.25944
48 1 3 -0.11508 9.13299 9.41113 6.65468
49 1 3 -0.11508 23.8152 13.7497 14.1117
50 1 3 -0.11508 12.7168 7.34203 0.802379
51 1 3 -0.11508 30.9828 17.8879 8.25944
52 1 3 -0.11508 5.54921 3.20384 6.65468
53 1 3 -0.11508 23.8152 17.8879 8.25944
54 1 3 -0.11508 12.7168 3.20384 6.65468
55 1 3 -0.11508 30.9828 13.7497 14.1117
56 1 3 -0.11508 5.54921 7.34203 0.802379
57 1 3 -0.0559 18.266 5.39949 13.5316
58 1 3 -0.0559 18.266 15.6923 1.38254
59 1 3 -0.055903 18.266 14.5575 0.580159
60 1 3 -0.055903 18.266 6.53422 14.334
61 1 3 -0.0559 26.1971 11.1132 7.85825
62 1 3 -0.0559 10.3349 9.9785 7.05587
63 1 3 -0.055903 10.3349 11.1132 7.85825
64 1 3 -0.055903 26.1971 9.9785 7.05587
65 1 3 -0.0559 14.7918 8.54005 0.580159
66 1 3 -0.0559 21.7402 12.5517 14.334
67 1 3 -0.055903 22.7229 13.1191 13.5316
68 1 3 -0.055903 13.8091 7.97268 1.38254
69 1 3 -0.0559 21.7402 3.39366 7.85825
70 1 3 -0.0559 14.7918 17.6981 7.05587
71 1 3 -0.055903 13.8091 17.1307 7.85825
72 1 3 -0.055903 22.7229 3.96103 7.05587
73 1 3 -0.055901 22.7229 17.1307 7.85825
74 1 3 -0.055901 13.8091 3.96103 7.05587
75 1 3 -0.055903 14.7918 3.39366 7.85825
76 1 3 -0.055903 21.7402 17.6981 7.05587
77 1 3 -0.0559 21.7402 8.54005 0.580159
78 1 3 -0.0559 14.7918 12.5517 14.334
79 1 3 -0.055903 13.8091 13.1191 13.5316
80 1 3 -0.055903 22.7229 7.97268 1.38254
81 1 4 -1.26215 27.399 15.8188 11.1856
82 1 4 -1.26215 9.13299 5.27293 3.72853
83 1 4 -0.60118 27.399 18.9383 11.9641
84 1 4 -0.60118 9.13299 2.15347 2.95001
85 1 4 -0.601179 27.399 17.5926 13.8671
86 1 4 -0.601179 9.13299 3.49912 1.04697
87 1 4 -0.601179 26.2336 13.3722 9.45555
88 1 4 -0.601179 10.2984 7.71958 5.45857
89 1 4 -0.60118 28.5643 13.3722 9.45555
90 1 4 -0.60118 7.96762 7.71958 5.45857
91 1 4 -0.60118 25.8628 14.9319 13.8671
92 1 4 -0.60118 10.6692 6.15984 1.04697
93 1 4 -0.601179 24.6974 14.2591 11.9641
94 1 4 -0.601179 11.8345 6.83267 2.95001
95 1 4 -0.60118 28.9351 18.0514 9.45555
96 1 4 -0.60118 7.59682 3.04037 5.45857
97 1 4 -0.601179 30.1005 16.0329 9.45555
98 1 4 -0.601179 6.43145 5.05885 5.45857
99 1 4 -0.601179 24.6974 16.0329 9.45555
100 1 4 -0.601179 11.8345 5.05885 5.45857
101 1 4 -0.60118 25.8628 18.0514 9.45555
102 1 4 -0.60118 10.6692 3.04037 5.45857
103 1 4 -0.60118 28.9351 14.9319 13.8671
104 1 4 -0.60118 7.59682 6.15984 1.04697
105 1 4 -0.60118 30.1005 14.2591 11.9641
106 1 4 -0.60118 6.43145 6.83267 2.95001
29924 9941 5 -0.35 13.1328 14.5477 3.65719
29925 9941 6 0.7 13.3864 14.7715 2.54758
29926 9941 5 -0.35 13.6401 14.9952 1.43798
29945 9948 5 -0.35 16.7414 8.19535 3.40056
29946 9948 6 0.7 17.2536 7.36526 2.77273
29947 9948 5 -0.35 17.7658 6.53517 2.1449
30026 9975 5 -0.35 25.2962 10.9231 14.3889
30027 9975 6 0.7 24.4129 10.1738 14.327
30028 9975 5 -0.35 23.5295 9.42445 14.2651
30116 10005 5 -0.35 11.4544 10.3297 12.0525
30117 10005 6 0.7 28.6923 10.865 12.007
30118 10005 5 -0.35 27.6642 11.4003 11.9616
30281 10060 5 -0.35 20.8202 4.85831 11.4616
30282 10060 6 0.7 30.5286 19.9285 12.1355
30283 10060 5 -0.35 31.104 19.18 12.8094
30299 10066 5 -0.35 7.69703 11.5359 0.827396
30300 10066 6 0.7 16.8069 16.7945 14.5818
30301 10066 5 -0.35 16.7838 16.7803 13.4221
30356 10085 5 -0.35 23.9507 18.1256 11.8327
30357 10085 6 0.7 24.2267 19.2513 11.7848
30358 10085 5 -0.35 15.3697 4.55817 11.737
30359 10086 5 -0.35 14.0723 3.66877 2.63125
30360 10086 6 0.7 13.117 3.03138 2.79451
30361 10086 5 -0.35 12.1616 2.394 2.95777
30398 10099 5 -0.35 9.71868 12.5993 3.62773
30399 10099 6 0.7 10.1191 13.3122 2.80494
30400 10099 5 -0.35 10.5196 14.0251 1.98216
30422 10107 5 -0.35 14.3387 10.1284 3.91788
30423 10107 6 0.7 13.7619 10.8773 3.24552
30424 10107 5 -0.35 13.185 11.6262 2.57317
30446 10115 5 -0.35 24.8987 11.5934 4.36297
30447 10115 6 0.7 25.339 10.6057 3.94334
30448 10115 5 -0.35 7.51334 9.61796 3.5237
30461 10120 5 -0.35 27.1657 8.02251 11.8348
30462 10120 6 0.7 9.18275 7.88748 10.718
30463 10120 5 -0.35 9.46574 7.75246 9.60119
30494 10131 5 -0.35 26.0112 5.50935 13.9292
30495 10131 6 0.7 27.1193 5.74039 14.1832
30496 10131 5 -0.35 9.96131 5.97143 14.4371
30503 10134 5 -0.35 16.2502 16.2065 10.3186
30504 10134 6 0.7 16.9299 15.3412 10.6859
30505 10134 5 -0.35 17.6096 14.476 11.0533
30506 10135 5 -0.35 21.0813 7.06561 7.7662
30507 10135 6 0.7 21.4776 7.33787 6.71051
30508 10135 5 -0.35 21.8738 7.61012 5.65482
30521 10140 5 -0.35 19.7346 16.9868 10.1444
30522 10140 6 0.7 20.3274 16.906 11.1382
30523 10140 5 -0.35 20.9202 16.8252 12.132
30524 10141 5 -0.35 18.2549 10.3498 13.5085
30525 10141 6 0.7 19.1109 9.78603 12.9653
30526 10141 5 -0.35 19.9668 9.22225 12.4221
30530 10143 5 -0.35 22.3301 12.1665 6.66126
30531 10143 6 0.7 22.3874 11.0974 7.10786
30532 10143 5 -0.35 22.4448 10.0284 7.55445
30533 10144 5 -0.35 14.0103 8.44817 6.5327
30534 10144 6 0.7 14.3752 7.61877 5.80843
30535 10144 5 -0.35 14.74 6.78937 5.08416
30536 10145 5 -0.35 14.9049 7.58545 12.0121
30537 10145 6 0.7 15.4203 7.83997 11.0045
30538 10145 5 -0.35 15.9357 8.09449 9.99698
30539 10146 5 -0.35 11.1563 4.24119 10.6192
30540 10146 6 0.7 10.7291 4.22035 9.54092
30541 10146 5 -0.35 10.302 4.19952 8.46263
30545 10148 5 -0.35 18.4327 10.2376 9.43562
30546 10148 6 0.7 18.4392 9.69585 8.40992
30547 10148 5 -0.35 18.4458 9.15408 7.38423
30548 10149 5 -0.35 19.0727 13.5332 6.51969
30549 10149 6 0.7 18.7329 14.2948 5.71341
30550 10149 5 -0.35 18.3931 15.0564 4.90714
30551 10150 5 -0.35 6.28808 2.99181 1.91459
30552 10150 6 0.7 6.3466 3.46309 0.856258
30553 10150 5 -0.35 15.5381 9.2073 14.712
30554 10151 5 -0.35 18.0789 10.5243 2.71191
30555 10151 6 0.7 17.107 11.1013 2.45074
30556 10151 5 -0.35 16.1352 11.6782 2.18957
30557 10152 5 -0.35 26.194 15.0356 5.32909
30558 10152 6 0.7 26.4619 15.3359 6.41703
30559 10152 5 -0.35 26.7298 15.6362 7.50497
ITEM: TIMESTEP
42000
ITEM: NUMBER OF ATOMS
205
ITEM: BOX BOUNDS xy xz yz pp pp pp
0.0000000000000000e+00 3.6531964750000000e+01 9.1329911900000003e+00
0.0000000000000000e+00 2.1091739680000000e+01 9.1329911900000003e+00
0.0000000000000000e+00 1.4914112149999999e+01 5.2729349200000000e+00
ITEM: ATOMS id mol type q x y z
1 1 1 1.10383 27.399 17.6496 10.5383
2 1 1 1.10383 9.13299 3.44217 4.3758
3 1 1 1.10383 27.399 15.8188 13.1274
4 1 1 1.10383 9.13299 5.27293 1.78671
5 1 1 1.10383 25.8135 14.9034 10.5383
6 1 1 1.10383 10.7185 6.18832 4.3758
7 1 1 1.10383 28.9845 14.9034 10.5383
8 1 1 1.10383 7.5475 6.18832 4.3758
9 1 2 0.115889 18.266 5.48596 12.6084
10 1 2 0.115889 18.266 15.6058 2.30572
11 1 2 0.115888 18.266 13.716 0.969417
12 1 2 0.115888 18.266 7.37578 13.9447
13 1 2 0.11589 25.3934 11.4908 8.12521
14 1 2 0.11589 11.1386 9.60096 6.7889
15 1 2 0.115888 11.1386 11.4908 8.12521
16 1 2 0.115888 25.3934 9.60096 6.7889
17 1 2 0.115889 15.5206 8.96083 0.969417
18 1 2 0.115889 21.0114 12.1309 13.9447
19 1 2 0.115888 22.648 13.0758 12.6084
20 1 2 0.115888 13.884 8.01592 2.30572
21 1 2 0.115889 21.0114 3.90092 8.12521
22 1 2 0.115889 15.5206 17.1908 6.7889
23 1 2 0.115887 13.884 16.2459 8.12521
24 1 2 0.115887 22.648 4.84583 6.7889
25 1 2 0.115889 22.648 16.2459 8.12521
26 1 2 0.115889 13.884 4.84583 6.7889
27 1 2 0.115887 15.5206 3.90092 8.12521
28 1 2 0.115887 21.0114 17.1908 6.7889
29 1 2 0.115889 21.0114 8.96083 0.969417
30 1 2 0.115889 15.5206 12.1309 13.9447
31 1 2 0.115887 13.884 13.0758 12.6084
32 1 2 0.115887 22.648 8.01592 2.30572
33 1 3 0.671939 27.399 18.7442 13.2542
34 1 3 0.671939 9.13299 2.34751 1.65994
35 1 3 0.671939 27.399 12.8934 9.117
36 1 3 0.671939 9.13299 8.19836 5.79712
37 1 3 0.67194 24.8655 14.3561 13.2542
38 1 3 0.67194 11.6665 6.73565 1.65994
39 1 3 0.67194 29.9325 17.2815 9.117
40 1 3 0.67194 6.5995 3.81022 5.79712
41 1 3 0.67194 24.8655 17.2815 9.117
42 1 3 0.67194 11.6665 3.81022 5.79712
43 1 3 0.67194 29.9325 14.3561 13.2542
44 1 3 0.67194 6.5995 6.73565 1.65994
45 1 3 -0.11508 27.399 19.957 14.1117
46 1 3 -0.11508 9.13299 1.13474 0.802379
47 1 3 -0.11508 27.399 11.6806 8.25944
48 1 3 -0.11508 9.13299 9.41113 6.65468
49 1 3 -0.11508 23.8152 13.7497 14.1117
50 1 3 -0.11508 12.7168 7.34203 0.802379
51 1 3 -0.11508 30.9828 17.8879 8.25944
52 1 3 -0.11508 5.54921 3.20384 6.65468
53 1 3 -0.11508 23.8152 17.8879 8.25944
54 1 3 -0.11508 12.7168 3.20384 6.65468
55 1 3 -0.11508 30.9828 13.7497 14.1117
56 1 3 -0.11508 5.54921 7.34203 0.802379
57 1 3 -0.0559 18.266 5.39949 13.5316
58 1 3 -0.0559 18.266 15.6923 1.38254
59 1 3 -0.055903 18.266 14.5575 0.580159
60 1 3 -0.055903 18.266 6.53422 14.334
61 1 3 -0.0559 26.1971 11.1132 7.85825
62 1 3 -0.0559 10.3349 9.9785 7.05587
63 1 3 -0.055903 10.3349 11.1132 7.85825
64 1 3 -0.055903 26.1971 9.9785 7.05587
65 1 3 -0.0559 14.7918 8.54005 0.580159
66 1 3 -0.0559 21.7402 12.5517 14.334
67 1 3 -0.055903 22.7229 13.1191 13.5316
68 1 3 -0.055903 13.8091 7.97268 1.38254
69 1 3 -0.0559 21.7402 3.39366 7.85825
70 1 3 -0.0559 14.7918 17.6981 7.05587
71 1 3 -0.055903 13.8091 17.1307 7.85825
72 1 3 -0.055903 22.7229 3.96103 7.05587
73 1 3 -0.055901 22.7229 17.1307 7.85825
74 1 3 -0.055901 13.8091 3.96103 7.05587
75 1 3 -0.055903 14.7918 3.39366 7.85825
76 1 3 -0.055903 21.7402 17.6981 7.05587
77 1 3 -0.0559 21.7402 8.54005 0.580159
78 1 3 -0.0559 14.7918 12.5517 14.334
79 1 3 -0.055903 13.8091 13.1191 13.5316
80 1 3 -0.055903 22.7229 7.97268 1.38254
81 1 4 -1.26215 27.399 15.8188 11.1856
82 1 4 -1.26215 9.13299 5.27293 3.72853
83 1 4 -0.60118 27.399 18.9383 11.9641
84 1 4 -0.60118 9.13299 2.15347 2.95001
85 1 4 -0.601179 27.399 17.5926 13.8671
86 1 4 -0.601179 9.13299 3.49912 1.04697
87 1 4 -0.601179 26.2336 13.3722 9.45555
88 1 4 -0.601179 10.2984 7.71958 5.45857
89 1 4 -0.60118 28.5643 13.3722 9.45555
90 1 4 -0.60118 7.96762 7.71958 5.45857
91 1 4 -0.60118 25.8628 14.9319 13.8671
92 1 4 -0.60118 10.6692 6.15984 1.04697
93 1 4 -0.601179 24.6974 14.2591 11.9641
94 1 4 -0.601179 11.8345 6.83267 2.95001
95 1 4 -0.60118 28.9351 18.0514 9.45555
96 1 4 -0.60118 7.59682 3.04037 5.45857
97 1 4 -0.601179 30.1005 16.0329 9.45555
98 1 4 -0.601179 6.43145 5.05885 5.45857
99 1 4 -0.601179 24.6974 16.0329 9.45555
100 1 4 -0.601179 11.8345 5.05885 5.45857
101 1 4 -0.60118 25.8628 18.0514 9.45555
102 1 4 -0.60118 10.6692 3.04037 5.45857
103 1 4 -0.60118 28.9351 14.9319 13.8671
104 1 4 -0.60118 7.59682 6.15984 1.04697
105 1 4 -0.60118 30.1005 14.2591 11.9641
106 1 4 -0.60118 6.43145 6.83267 2.95001
30116 10005 5 -0.35 28.3346 10.2318 14.4531
30117 10005 6 0.7 27.3169 10.7339 14.6933
30118 10005 5 -0.35 17.1661 5.96307 0.0192917
30359 10086 5 -0.35 15.479 3.54636 2.95332
30360 10086 6 0.7 15.385 2.90793 3.91725
30361 10086 5 -0.35 15.2909 2.2695 4.88118
30503 10134 5 -0.35 31.0577 17.4699 12.3061
30504 10134 6 0.7 31.9581 16.7931 12.5834
30505 10134 5 -0.35 14.5925 16.1163 12.8606
30533 10144 5 -0.35 13.4565 8.91562 5.34947
30534 10144 6 0.7 14.2381 8.0883 5.12537
30535 10144 5 -0.35 15.0197 7.26098 4.90128
30539 10146 5 -0.35 10.0123 4.12488 9.64301
30540 10146 6 0.7 9.69336 4.35857 8.55249
30541 10146 5 -0.35 9.37437 4.59227 7.46197
30551 10150 5 -0.35 6.33894 3.48449 1.10435
30552 10150 6 0.7 15.5612 8.79083 14.8624
30553 10150 5 -0.35 15.6505 8.82423 13.7063
30599 10166 5 -0.35 9.43959 7.17648 9.05736
30600 10166 6 0.7 9.29566 8.09811 9.74691
30601 10166 5 -0.35 27.4177 9.01975 10.4365
30647 10182 5 -0.35 23.0283 16.9047 14.2314
30648 10182 6 0.7 23.7545 17.2826 13.4096
30649 10182 5 -0.35 24.4808 17.6605 12.5878
30656 10185 5 -0.35 12.4144 10.8983 2.46084
30657 10185 6 0.7 11.5148 11.4127 1.9395
30658 10185 5 -0.35 10.6152 11.927 1.41815
30671 10190 5 -0.35 13.2407 3.55881 0.376341
30672 10190 6 0.7 22.2324 8.22498 14.3119
30673 10190 5 -0.35 22.0911 7.61822 13.3334
30692 10197 5 -0.35 25.7367 11.3317 4.20115
30693 10197 6 0.7 8.25906 10.7574 3.57318
30694 10197 5 -0.35 9.04743 10.1832 2.94521
30707 10202 5 -0.35 11.3972 13.5374 4.97554
30708 10202 6 0.7 11.4565 14.571 5.49876
30709 10202 5 -0.35 11.5158 15.6046 6.02198
30749 10216 5 -0.35 15.1782 5.52458 14.1986
30750 10216 6 0.7 15.1899 5.37685 13.0481
30751 10216 5 -0.35 15.2016 5.22913 11.8976
30752 10217 5 -0.35 12.2465 7.93215 10.1288
30753 10217 6 0.7 12.7619 7.47791 9.19413
30754 10217 5 -0.35 13.2774 7.02367 8.25948
30767 10222 5 -0.35 30.8501 20.5354 13.5492
30768 10222 6 0.7 22.1629 4.8209 12.4834
30769 10222 5 -0.35 22.6086 4.92518 11.4176
30770 10223 5 -0.35 27.0687 7.36553 14.8995
30771 10223 6 0.7 26.8806 6.97804 13.8224
30772 10223 5 -0.35 26.6926 6.59055 12.7453
30773 10224 5 -0.35 17.1027 12.9316 3.35679
30774 10224 6 0.7 16.2416 12.8086 2.58939
30775 10224 5 -0.35 15.3804 12.6856 1.82198
30782 10227 5 -0.35 6.86418 5.47391 9.00928
30783 10227 6 0.7 24.2627 6.16045 8.66032
30784 10227 5 -0.35 23.3952 6.84699 8.31136
30803 10234 5 -0.35 19.2425 7.59506 2.809
30804 10234 6 0.7 18.3533 8.33961 2.78495
30805 10234 5 -0.35 17.4641 9.08416 2.76089
30812 10237 5 -0.35 11.628 4.89715 12.1223
30813 10237 6 0.7 10.616 4.36856 12.3272
30814 10237 5 -0.35 18.7369 19.6588 12.532
30815 10238 5 -0.35 25.6709 14.8536 2.38592
30816 10238 6 0.7 25.4488 15.0337 1.26173
30817 10238 5 -0.35 25.2266 15.2139 0.137539
30818 10239 5 -0.35 24.3303 8.42289 11.067
30819 10239 6 0.7 23.6586 9.16248 10.4777
30820 10239 5 -0.35 22.9868 9.90208 9.88836
30821 10240 5 -0.35 21.9867 11.6129 3.05097
30822 10240 6 0.7 22.8408 11.6377 2.26642
30823 10240 5 -0.35 23.6949 11.6625 1.48187
30830 10243 5 -0.35 19.0072 5.41823 6.16193
30831 10243 6 0.7 18.3736 5.95072 6.9747
30832 10243 5 -0.35 17.74 6.48321 7.78747
30845 10248 5 -0.35 18.7052 10.7468 10.9299
30846 10248 6 0.7 18.9663 10.0289 11.8028
30847 10248 5 -0.35 19.2275 9.31098 12.6757
30848 10249 5 -0.35 27.4774 18.0127 6.79295
30849 10249 6 0.7 27.8927 17.8136 5.72828
30850 10249 5 -0.35 19.175 1.79573 4.6636
30851 10250 5 -0.35 26.5118 14.2567 6.46235
30852 10250 6 0.7 25.4122 13.8877 6.44705
30853 10250 5 -0.35 24.3125 13.5187 6.43176
30854 10251 5 -0.35 21.9519 14.4607 2.0791
30855 10251 6 0.7 22.0596 15.6071 2.2202
30856 10251 5 -0.35 13.0342 0.934615 2.36131
30860 10253 5 -0.35 3.98038 3.43662 2.84947
30861 10253 6 0.7 3.53182 2.61436 2.16516
30862 10253 5 -0.35 3.08326 1.7921 1.48085
30863 10254 5 -0.35 18.0665 12.9397 12.9128
30864 10254 6 0.7 18.1474 14.0509 12.5901
30865 10254 5 -0.35 18.2283 15.1622 12.2673
30866 10255 5 -0.35 19.5634 9.45623 7.10532
30867 10255 6 0.7 19.8695 9.31374 5.99553
30868 10255 5 -0.35 20.1755 9.17124 4.88574
30869 10256 5 -0.35 16.1114 12.7406 10.5159
30870 10256 6 0.7 16.7177 12.6951 9.52798
30871 10256 5 -0.35 17.324 12.6496 8.54006
30872 10257 5 -0.35 18.4796 15.6546 7.14688
30873 10257 6 0.7 17.7251 15.305 6.33808
30874 10257 5 -0.35 16.9706 14.9554 5.52928
ITEM: TIMESTEP
43000
ITEM: NUMBER OF ATOMS
187
ITEM: BOX BOUNDS xy xz yz pp pp pp
0.0000000000000000e+00 3.6531964750000000e+01 9.1329911900000003e+00
0.0000000000000000e+00 2.1091739680000000e+01 9.1329911900000003e+00
0.0000000000000000e+00 1.4914112149999999e+01 5.2729349200000000e+00
ITEM: ATOMS id mol type q x y z
1 1 1 1.10383 27.399 17.6496 10.5383
2 1 1 1.10383 9.13299 3.44217 4.3758
3 1 1 1.10383 27.399 15.8188 13.1274
4 1 1 1.10383 9.13299 5.27293 1.78671
5 1 1 1.10383 25.8135 14.9034 10.5383
6 1 1 1.10383 10.7185 6.18832 4.3758
7 1 1 1.10383 28.9845 14.9034 10.5383
8 1 1 1.10383 7.5475 6.18832 4.3758
9 1 2 0.115889 18.266 5.48596 12.6084
10 1 2 0.115889 18.266 15.6058 2.30572
11 1 2 0.115888 18.266 13.716 0.969417
12 1 2 0.115888 18.266 7.37578 13.9447
13 1 2 0.11589 25.3934 11.4908 8.12521
14 1 2 0.11589 11.1386 9.60096 6.7889
15 1 2 0.115888 11.1386 11.4908 8.12521
16 1 2 0.115888 25.3934 9.60096 6.7889
17 1 2 0.115889 15.5206 8.96083 0.969417
18 1 2 0.115889 21.0114 12.1309 13.9447
19 1 2 0.115888 22.648 13.0758 12.6084
20 1 2 0.115888 13.884 8.01592 2.30572
21 1 2 0.115889 21.0114 3.90092 8.12521
22 1 2 0.115889 15.5206 17.1908 6.7889
23 1 2 0.115887 13.884 16.2459 8.12521
24 1 2 0.115887 22.648 4.84583 6.7889
25 1 2 0.115889 22.648 16.2459 8.12521
26 1 2 0.115889 13.884 4.84583 6.7889
27 1 2 0.115887 15.5206 3.90092 8.12521
28 1 2 0.115887 21.0114 17.1908 6.7889
29 1 2 0.115889 21.0114 8.96083 0.969417
30 1 2 0.115889 15.5206 12.1309 13.9447
31 1 2 0.115887 13.884 13.0758 12.6084
32 1 2 0.115887 22.648 8.01592 2.30572
33 1 3 0.671939 27.399 18.7442 13.2542
34 1 3 0.671939 9.13299 2.34751 1.65994
35 1 3 0.671939 27.399 12.8934 9.117
36 1 3 0.671939 9.13299 8.19836 5.79712
37 1 3 0.67194 24.8655 14.3561 13.2542
38 1 3 0.67194 11.6665 6.73565 1.65994
39 1 3 0.67194 29.9325 17.2815 9.117
40 1 3 0.67194 6.5995 3.81022 5.79712
41 1 3 0.67194 24.8655 17.2815 9.117
42 1 3 0.67194 11.6665 3.81022 5.79712
43 1 3 0.67194 29.9325 14.3561 13.2542
44 1 3 0.67194 6.5995 6.73565 1.65994
45 1 3 -0.11508 27.399 19.957 14.1117
46 1 3 -0.11508 9.13299 1.13474 0.802379
47 1 3 -0.11508 27.399 11.6806 8.25944
48 1 3 -0.11508 9.13299 9.41113 6.65468
49 1 3 -0.11508 23.8152 13.7497 14.1117
50 1 3 -0.11508 12.7168 7.34203 0.802379
51 1 3 -0.11508 30.9828 17.8879 8.25944
52 1 3 -0.11508 5.54921 3.20384 6.65468
53 1 3 -0.11508 23.8152 17.8879 8.25944
54 1 3 -0.11508 12.7168 3.20384 6.65468
55 1 3 -0.11508 30.9828 13.7497 14.1117
56 1 3 -0.11508 5.54921 7.34203 0.802379
57 1 3 -0.0559 18.266 5.39949 13.5316
58 1 3 -0.0559 18.266 15.6923 1.38254
59 1 3 -0.055903 18.266 14.5575 0.580159
60 1 3 -0.055903 18.266 6.53422 14.334
61 1 3 -0.0559 26.1971 11.1132 7.85825
62 1 3 -0.0559 10.3349 9.9785 7.05587
63 1 3 -0.055903 10.3349 11.1132 7.85825
64 1 3 -0.055903 26.1971 9.9785 7.05587
65 1 3 -0.0559 14.7918 8.54005 0.580159
66 1 3 -0.0559 21.7402 12.5517 14.334
67 1 3 -0.055903 22.7229 13.1191 13.5316
68 1 3 -0.055903 13.8091 7.97268 1.38254
69 1 3 -0.0559 21.7402 3.39366 7.85825
70 1 3 -0.0559 14.7918 17.6981 7.05587
71 1 3 -0.055903 13.8091 17.1307 7.85825
72 1 3 -0.055903 22.7229 3.96103 7.05587
73 1 3 -0.055901 22.7229 17.1307 7.85825
74 1 3 -0.055901 13.8091 3.96103 7.05587
75 1 3 -0.055903 14.7918 3.39366 7.85825
76 1 3 -0.055903 21.7402 17.6981 7.05587
77 1 3 -0.0559 21.7402 8.54005 0.580159
78 1 3 -0.0559 14.7918 12.5517 14.334
79 1 3 -0.055903 13.8091 13.1191 13.5316
80 1 3 -0.055903 22.7229 7.97268 1.38254
81 1 4 -1.26215 27.399 15.8188 11.1856
82 1 4 -1.26215 9.13299 5.27293 3.72853
83 1 4 -0.60118 27.399 18.9383 11.9641
84 1 4 -0.60118 9.13299 2.15347 2.95001
85 1 4 -0.601179 27.399 17.5926 13.8671
86 1 4 -0.601179 9.13299 3.49912 1.04697
87 1 4 -0.601179 26.2336 13.3722 9.45555
88 1 4 -0.601179 10.2984 7.71958 5.45857
89 1 4 -0.60118 28.5643 13.3722 9.45555
90 1 4 -0.60118 7.96762 7.71958 5.45857
91 1 4 -0.60118 25.8628 14.9319 13.8671
92 1 4 -0.60118 10.6692 6.15984 1.04697
93 1 4 -0.601179 24.6974 14.2591 11.9641
94 1 4 -0.601179 11.8345 6.83267 2.95001
95 1 4 -0.60118 28.9351 18.0514 9.45555
96 1 4 -0.60118 7.59682 3.04037 5.45857
97 1 4 -0.601179 30.1005 16.0329 9.45555
98 1 4 -0.601179 6.43145 5.05885 5.45857
99 1 4 -0.601179 24.6974 16.0329 9.45555
100 1 4 -0.601179 11.8345 5.05885 5.45857
101 1 4 -0.60118 25.8628 18.0514 9.45555
102 1 4 -0.60118 10.6692 3.04037 5.45857
103 1 4 -0.60118 28.9351 14.9319 13.8671
104 1 4 -0.60118 7.59682 6.15984 1.04697
105 1 4 -0.60118 30.1005 14.2591 11.9641
106 1 4 -0.60118 6.43145 6.83267 2.95001
30533 10144 5 -0.35 14.131 9.05916 4.69401
30534 10144 6 0.7 14.1557 7.93181 4.96615
30535 10144 5 -0.35 14.1805 6.80445 5.23828
30539 10146 5 -0.35 18.6509 16.4309 9.44903
30540 10146 6 0.7 18.8744 17.5668 9.37628
30541 10146 5 -0.35 19.0979 18.7028 9.30353
30551 10150 5 -0.35 5.7724 3.34615 1.93417
30552 10150 6 0.7 5.43925 3.61029 0.854893
30553 10150 5 -0.35 14.2391 9.14736 14.6897
30692 10197 5 -0.35 26.2933 11.9736 4.54204
30693 10197 6 0.7 9.00332 11.4424 4.20892
30694 10197 5 -0.35 9.97928 10.9113 3.87581
30707 10202 5 -0.35 28.3017 14.9268 5.69898
30708 10202 6 0.7 27.8149 15.3645 6.65661
30709 10202 5 -0.35 27.3281 15.8022 7.61424
30752 10217 5 -0.35 9.96505 6.59829 9.10685
30753 10217 6 0.7 11.0249 7.04951 8.96986
30754 10217 5 -0.35 12.0847 7.50072 8.83287
30848 10249 5 -0.35 29.0827 17.6461 5.46006
30849 10249 6 0.7 20.6352 2.0534 4.55202
30850 10249 5 -0.35 3.05478 2.27949 3.64398
30875 10258 5 -0.35 17.6347 13.62 13.9411
30876 10258 6 0.7 8.59584 8.86073 0.0627493
30877 10258 5 -0.35 8.68996 9.37439 1.09855
30896 10265 5 -0.35 13.263 12.3044 3.27935
30897 10265 6 0.7 13.0912 12.1294 4.41314
30898 10265 5 -0.35 12.9194 11.9545 5.54693
30920 10273 5 -0.35 18.88 6.36739 9.73552
30921 10273 6 0.7 19.5808 6.79031 10.5574
30922 10273 5 -0.35 20.2817 7.21323 11.3793
30938 10279 5 -0.35 15.926 16.0783 13.5974
30939 10279 6 0.7 16.1114 16.7227 12.6508
30940 10279 5 -0.35 16.2967 17.3671 11.7042
30944 10281 5 -0.35 21.6754 5.49472 4.00646
30945 10281 6 0.7 21.3284 5.26408 2.92385
30946 10281 5 -0.35 20.9815 5.03344 1.84125
30953 10284 5 -0.35 27.3377 11.9305 12.4026
30954 10284 6 0.7 27.1756 10.8428 12.0335
30955 10284 5 -0.35 27.0136 9.75504 11.6644
30959 10286 5 -0.35 11.4972 10.0153 12.9663
30960 10286 6 0.7 12.1255 9.60598 12.0813
30961 10286 5 -0.35 12.7539 9.19663 11.1963
30971 10290 5 -0.35 22.0902 7.52866 7.32131
30972 10290 6 0.7 22.6399 7.8635 6.35621
30973 10290 5 -0.35 23.1895 8.19834 5.39111
31013 10304 5 -0.35 11.8017 3.34547 1.06447
31014 10304 6 0.7 21.3326 8.65759 14.8897
31015 10304 5 -0.35 21.7306 8.69677 13.8008
31040 10313 5 -0.35 24.8875 15.1737 4.87073
31041 10313 6 0.7 24.8516 14.7308 3.79921
31042 10313 5 -0.35 24.8158 14.2879 2.72768
31043 10314 5 -0.35 20.3805 14.7688 3.62855
31044 10314 6 0.7 21.3339 15.4178 3.50367
31045 10314 5 -0.35 22.2873 16.0667 3.37879
31052 10317 5 -0.35 17.074 14.2195 6.18052
31053 10317 6 0.7 18.104 14.7109 6.38834
31054 10317 5 -0.35 19.134 15.2023 6.59616
31055 10318 5 -0.35 21.8371 4.92052 13.2581
31056 10318 6 0.7 22.5472 4.48698 12.4498
31057 10318 5 -0.35 32.3902 19.8722 11.6414
31061 10320 5 -0.35 14.9696 14.2043 1.28951
31062 10320 6 0.7 14.412 13.3459 0.74381
31063 10320 5 -0.35 13.8543 12.4875 0.198112
31067 10322 5 -0.35 17.7067 1.0666 1.36417
31068 10322 6 0.7 16.9579 1.56479 0.631492
31069 10322 5 -0.35 25.3422 7.33592 14.8129
31070 10323 5 -0.35 18.2089 19.9856 12.8819
31071 10323 6 0.7 8.72922 4.4881 11.8225
31072 10323 5 -0.35 8.38254 4.80943 10.7632
31073 10324 5 -0.35 20.5054 15.337 14.6393
31074 10324 6 0.7 20.0506 16.0814 13.8747
31075 10324 5 -0.35 19.5958 16.8258 13.1101
31079 10326 5 -0.35 19.7332 13.6299 11.1102
31080 10326 6 0.7 19.855 13.3602 9.9886
31081 10326 5 -0.35 19.9769 13.0905 8.86699
31082 10327 5 -0.35 17.8832 10.5557 10.4489
31083 10327 6 0.7 17.5914 10.7953 9.35205
31084 10327 5 -0.35 17.2995 11.0348 8.25523
31085 10328 5 -0.35 15.8697 5.98462 2.33565
31086 10328 6 0.7 16.7106 5.54533 1.66816
31087 10328 5 -0.35 17.5514 5.10603 1.00068
ITEM: TIMESTEP
44000
ITEM: NUMBER OF ATOMS
181
ITEM: BOX BOUNDS xy xz yz pp pp pp
0.0000000000000000e+00 3.6531964750000000e+01 9.1329911900000003e+00
0.0000000000000000e+00 2.1091739680000000e+01 9.1329911900000003e+00
0.0000000000000000e+00 1.4914112149999999e+01 5.2729349200000000e+00
ITEM: ATOMS id mol type q x y z
1 1 1 1.10383 27.399 17.6496 10.5383
2 1 1 1.10383 9.13299 3.44217 4.3758
3 1 1 1.10383 27.399 15.8188 13.1274
4 1 1 1.10383 9.13299 5.27293 1.78671
5 1 1 1.10383 25.8135 14.9034 10.5383
6 1 1 1.10383 10.7185 6.18832 4.3758
7 1 1 1.10383 28.9845 14.9034 10.5383
8 1 1 1.10383 7.5475 6.18832 4.3758
9 1 2 0.115889 18.266 5.48596 12.6084
10 1 2 0.115889 18.266 15.6058 2.30572
11 1 2 0.115888 18.266 13.716 0.969417
12 1 2 0.115888 18.266 7.37578 13.9447
13 1 2 0.11589 25.3934 11.4908 8.12521
14 1 2 0.11589 11.1386 9.60096 6.7889
15 1 2 0.115888 11.1386 11.4908 8.12521
16 1 2 0.115888 25.3934 9.60096 6.7889
17 1 2 0.115889 15.5206 8.96083 0.969417
18 1 2 0.115889 21.0114 12.1309 13.9447
19 1 2 0.115888 22.648 13.0758 12.6084
20 1 2 0.115888 13.884 8.01592 2.30572
21 1 2 0.115889 21.0114 3.90092 8.12521
22 1 2 0.115889 15.5206 17.1908 6.7889
23 1 2 0.115887 13.884 16.2459 8.12521
24 1 2 0.115887 22.648 4.84583 6.7889
25 1 2 0.115889 22.648 16.2459 8.12521
26 1 2 0.115889 13.884 4.84583 6.7889
27 1 2 0.115887 15.5206 3.90092 8.12521
28 1 2 0.115887 21.0114 17.1908 6.7889
29 1 2 0.115889 21.0114 8.96083 0.969417
30 1 2 0.115889 15.5206 12.1309 13.9447
31 1 2 0.115887 13.884 13.0758 12.6084
32 1 2 0.115887 22.648 8.01592 2.30572
33 1 3 0.671939 27.399 18.7442 13.2542
34 1 3 0.671939 9.13299 2.34751 1.65994
35 1 3 0.671939 27.399 12.8934 9.117
36 1 3 0.671939 9.13299 8.19836 5.79712
37 1 3 0.67194 24.8655 14.3561 13.2542
38 1 3 0.67194 11.6665 6.73565 1.65994
39 1 3 0.67194 29.9325 17.2815 9.117
40 1 3 0.67194 6.5995 3.81022 5.79712
41 1 3 0.67194 24.8655 17.2815 9.117
42 1 3 0.67194 11.6665 3.81022 5.79712
43 1 3 0.67194 29.9325 14.3561 13.2542
44 1 3 0.67194 6.5995 6.73565 1.65994
45 1 3 -0.11508 27.399 19.957 14.1117
46 1 3 -0.11508 9.13299 1.13474 0.802379
47 1 3 -0.11508 27.399 11.6806 8.25944
48 1 3 -0.11508 9.13299 9.41113 6.65468
49 1 3 -0.11508 23.8152 13.7497 14.1117
50 1 3 -0.11508 12.7168 7.34203 0.802379
51 1 3 -0.11508 30.9828 17.8879 8.25944
52 1 3 -0.11508 5.54921 3.20384 6.65468
53 1 3 -0.11508 23.8152 17.8879 8.25944
54 1 3 -0.11508 12.7168 3.20384 6.65468
55 1 3 -0.11508 30.9828 13.7497 14.1117
56 1 3 -0.11508 5.54921 7.34203 0.802379
57 1 3 -0.0559 18.266 5.39949 13.5316
58 1 3 -0.0559 18.266 15.6923 1.38254
59 1 3 -0.055903 18.266 14.5575 0.580159
60 1 3 -0.055903 18.266 6.53422 14.334
61 1 3 -0.0559 26.1971 11.1132 7.85825
62 1 3 -0.0559 10.3349 9.9785 7.05587
63 1 3 -0.055903 10.3349 11.1132 7.85825
64 1 3 -0.055903 26.1971 9.9785 7.05587
65 1 3 -0.0559 14.7918 8.54005 0.580159
66 1 3 -0.0559 21.7402 12.5517 14.334
67 1 3 -0.055903 22.7229 13.1191 13.5316
68 1 3 -0.055903 13.8091 7.97268 1.38254
69 1 3 -0.0559 21.7402 3.39366 7.85825
70 1 3 -0.0559 14.7918 17.6981 7.05587
71 1 3 -0.055903 13.8091 17.1307 7.85825
72 1 3 -0.055903 22.7229 3.96103 7.05587
73 1 3 -0.055901 22.7229 17.1307 7.85825
74 1 3 -0.055901 13.8091 3.96103 7.05587
75 1 3 -0.055903 14.7918 3.39366 7.85825
76 1 3 -0.055903 21.7402 17.6981 7.05587
77 1 3 -0.0559 21.7402 8.54005 0.580159
78 1 3 -0.0559 14.7918 12.5517 14.334
79 1 3 -0.055903 13.8091 13.1191 13.5316
80 1 3 -0.055903 22.7229 7.97268 1.38254
81 1 4 -1.26215 27.399 15.8188 11.1856
82 1 4 -1.26215 9.13299 5.27293 3.72853
83 1 4 -0.60118 27.399 18.9383 11.9641
84 1 4 -0.60118 9.13299 2.15347 2.95001
85 1 4 -0.601179 27.399 17.5926 13.8671
86 1 4 -0.601179 9.13299 3.49912 1.04697
87 1 4 -0.601179 26.2336 13.3722 9.45555
88 1 4 -0.601179 10.2984 7.71958 5.45857
89 1 4 -0.60118 28.5643 13.3722 9.45555
90 1 4 -0.60118 7.96762 7.71958 5.45857
91 1 4 -0.60118 25.8628 14.9319 13.8671
92 1 4 -0.60118 10.6692 6.15984 1.04697
93 1 4 -0.601179 24.6974 14.2591 11.9641
94 1 4 -0.601179 11.8345 6.83267 2.95001
95 1 4 -0.60118 28.9351 18.0514 9.45555
96 1 4 -0.60118 7.59682 3.04037 5.45857
97 1 4 -0.601179 30.1005 16.0329 9.45555
98 1 4 -0.601179 6.43145 5.05885 5.45857
99 1 4 -0.601179 24.6974 16.0329 9.45555
100 1 4 -0.601179 11.8345 5.05885 5.45857
101 1 4 -0.60118 25.8628 18.0514 9.45555
102 1 4 -0.60118 10.6692 3.04037 5.45857
103 1 4 -0.60118 28.9351 14.9319 13.8671
104 1 4 -0.60118 7.59682 6.15984 1.04697
105 1 4 -0.60118 30.1005 14.2591 11.9641
106 1 4 -0.60118 6.43145 6.83267 2.95001
31268 10389 5 -0.35 12.5938 3.53229 0.889355
31269 10389 6 0.7 21.0719 9.10647 14.8946
31270 10389 5 -0.35 20.417 9.40771 13.9858
31343 10414 5 -0.35 25.6009 10.4394 11.647
31344 10414 6 0.7 24.7891 10.0044 10.9417
31345 10414 5 -0.35 23.9774 9.56938 10.2365
31379 10426 5 -0.35 24.6059 9.28746 14.8816
31380 10426 6 0.7 24.2198 8.34647 14.3238
31381 10426 5 -0.35 23.8337 7.40549 13.7661
31454 10451 5 -0.35 21.2503 2.58398 4.58553
31455 10451 6 0.7 29.8196 17.435 4.88751
31456 10451 5 -0.35 29.2559 16.4671 5.18949
31493 10464 5 -0.35 15.2035 16.3045 11.7184
31494 10464 6 0.7 15.4739 16.9283 12.6583
31495 10464 5 -0.35 15.7444 17.552 13.5982
31562 10487 5 -0.35 24.9695 12.0399 4.352
31563 10487 6 0.7 24.2746 12.777 4.9171
31564 10487 5 -0.35 23.5797 13.5142 5.48219
31598 10499 5 -0.35 14.1035 15.2596 3.18149
31599 10499 6 0.7 14.6134 15.8587 2.32897
31600 10499 5 -0.35 5.99027 0.638916 1.47645
31616 10505 5 -0.35 17.0413 14.2407 10.9295
31617 10505 6 0.7 17.2642 14.8589 9.97355
31618 10505 5 -0.35 17.4871 15.477 9.0176
31628 10509 5 -0.35 6.40675 3.79507 2.5751
31629 10509 6 0.7 5.35763 3.7137 2.08691
31630 10509 5 -0.35 4.30851 3.63233 1.59872
31646 10515 5 -0.35 28.444 11.5621 12.3085
31647 10515 6 0.7 29.5367 11.204 12.4619
31648 10515 5 -0.35 12.3633 10.8459 12.6154
31649 10516 5 -0.35 13.0955 13.4613 5.99504
31650 10516 6 0.7 12.5626 13.206 4.99681
31651 10516 5 -0.35 12.0297 12.9508 3.99857
31706 10535 5 -0.35 12.7774 10.2929 4.25391
31707 10535 6 0.7 11.7654 10.0855 3.72618
31708 10535 5 -0.35 10.7534 9.87816 3.19846
31718 10539 5 -0.35 26.5621 7.43647 9.8819
31719 10539 6 0.7 25.7567 7.05878 9.13741
31720 10539 5 -0.35 24.9513 6.68109 8.39291
31775 10558 5 -0.35 21.4233 15.3017 10.5801
31776 10558 6 0.7 22.1397 15.9707 11.2005
31777 10558 5 -0.35 22.856 16.6396 11.8209
31784 10561 5 -0.35 24.9838 14.0882 2.25452
31785 10561 6 0.7 25.0744 14.5497 1.19415
31786 10561 5 -0.35 25.165 15.0112 0.133782
31793 10564 5 -0.35 14.2252 6.66528 8.50332
31794 10564 6 0.7 13.4374 7.33039 9.03486
31795 10564 5 -0.35 12.6495 7.9955 9.56641
31808 10569 5 -0.35 17.8509 9.82297 2.15522
31809 10569 6 0.7 18.0602 8.81349 1.62348
31810 10569 5 -0.35 18.2695 7.80401 1.09173
31811 10570 5 -0.35 26.8813 6.83916 13.4637
31812 10570 6 0.7 26.3171 6.03513 12.8466
31813 10570 5 -0.35 25.7529 5.23109 12.2295
31820 10573 5 -0.35 21.9814 5.01894 13.9848
31821 10573 6 0.7 21.9701 5.12699 12.8299
31822 10573 5 -0.35 21.9588 5.23504 11.675
31826 10575 5 -0.35 22.7619 12.4153 9.37773
31827 10575 6 0.7 22.0848 13.0741 8.70457
31828 10575 5 -0.35 21.4077 13.7329 8.0314
31832 10577 5 -0.35 1.72871 1.23192 2.10692
31833 10577 6 0.7 18.9006 0.996539 2.412
31834 10577 5 -0.35 26.9394 16.58 2.71708
31835 10578 5 -0.35 20.4406 10.3786 11.066
31836 10578 6 0.7 20.5729 10.3083 9.91574
31837 10578 5 -0.35 20.7052 10.238 8.76546
31838 10579 5 -0.35 19.3971 7.38298 6.93654
31839 10579 6 0.7 19.2306 7.41782 5.78907
31840 10579 5 -0.35 19.0642 7.45267 4.6416
31844 10581 5 -0.35 22.3248 16.8317 3.97397
31845 10581 6 0.7 21.8268 16.1985 3.13927
31846 10581 5 -0.35 21.3289 15.5653 2.30457
31850 10583 5 -0.35 8.54242 11.3139 1.3678
31851 10583 6 0.7 8.93126 11.1976 0.281124
31852 10583 5 -0.35 18.4531 16.3542 14.1086
ITEM: TIMESTEP
45000
ITEM: NUMBER OF ATOMS
166
ITEM: BOX BOUNDS xy xz yz pp pp pp
0.0000000000000000e+00 3.6531964750000000e+01 9.1329911900000003e+00
0.0000000000000000e+00 2.1091739680000000e+01 9.1329911900000003e+00
0.0000000000000000e+00 1.4914112149999999e+01 5.2729349200000000e+00
ITEM: ATOMS id mol type q x y z
1 1 1 1.10383 27.399 17.6496 10.5383
2 1 1 1.10383 9.13299 3.44217 4.3758
3 1 1 1.10383 27.399 15.8188 13.1274
4 1 1 1.10383 9.13299 5.27293 1.78671
5 1 1 1.10383 25.8135 14.9034 10.5383
6 1 1 1.10383 10.7185 6.18832 4.3758
7 1 1 1.10383 28.9845 14.9034 10.5383
8 1 1 1.10383 7.5475 6.18832 4.3758
9 1 2 0.115889 18.266 5.48596 12.6084
10 1 2 0.115889 18.266 15.6058 2.30572
11 1 2 0.115888 18.266 13.716 0.969417
12 1 2 0.115888 18.266 7.37578 13.9447
13 1 2 0.11589 25.3934 11.4908 8.12521
14 1 2 0.11589 11.1386 9.60096 6.7889
15 1 2 0.115888 11.1386 11.4908 8.12521
16 1 2 0.115888 25.3934 9.60096 6.7889
17 1 2 0.115889 15.5206 8.96083 0.969417
18 1 2 0.115889 21.0114 12.1309 13.9447
19 1 2 0.115888 22.648 13.0758 12.6084
20 1 2 0.115888 13.884 8.01592 2.30572
21 1 2 0.115889 21.0114 3.90092 8.12521
22 1 2 0.115889 15.5206 17.1908 6.7889
23 1 2 0.115887 13.884 16.2459 8.12521
24 1 2 0.115887 22.648 4.84583 6.7889
25 1 2 0.115889 22.648 16.2459 8.12521
26 1 2 0.115889 13.884 4.84583 6.7889
27 1 2 0.115887 15.5206 3.90092 8.12521
28 1 2 0.115887 21.0114 17.1908 6.7889
29 1 2 0.115889 21.0114 8.96083 0.969417
30 1 2 0.115889 15.5206 12.1309 13.9447
31 1 2 0.115887 13.884 13.0758 12.6084
32 1 2 0.115887 22.648 8.01592 2.30572
33 1 3 0.671939 27.399 18.7442 13.2542
34 1 3 0.671939 9.13299 2.34751 1.65994
35 1 3 0.671939 27.399 12.8934 9.117
36 1 3 0.671939 9.13299 8.19836 5.79712
37 1 3 0.67194 24.8655 14.3561 13.2542
38 1 3 0.67194 11.6665 6.73565 1.65994
39 1 3 0.67194 29.9325 17.2815 9.117
40 1 3 0.67194 6.5995 3.81022 5.79712
41 1 3 0.67194 24.8655 17.2815 9.117
42 1 3 0.67194 11.6665 3.81022 5.79712
43 1 3 0.67194 29.9325 14.3561 13.2542
44 1 3 0.67194 6.5995 6.73565 1.65994
45 1 3 -0.11508 27.399 19.957 14.1117
46 1 3 -0.11508 9.13299 1.13474 0.802379
47 1 3 -0.11508 27.399 11.6806 8.25944
48 1 3 -0.11508 9.13299 9.41113 6.65468
49 1 3 -0.11508 23.8152 13.7497 14.1117
50 1 3 -0.11508 12.7168 7.34203 0.802379
51 1 3 -0.11508 30.9828 17.8879 8.25944
52 1 3 -0.11508 5.54921 3.20384 6.65468
53 1 3 -0.11508 23.8152 17.8879 8.25944
54 1 3 -0.11508 12.7168 3.20384 6.65468
55 1 3 -0.11508 30.9828 13.7497 14.1117
56 1 3 -0.11508 5.54921 7.34203 0.802379
57 1 3 -0.0559 18.266 5.39949 13.5316
58 1 3 -0.0559 18.266 15.6923 1.38254
59 1 3 -0.055903 18.266 14.5575 0.580159
60 1 3 -0.055903 18.266 6.53422 14.334
61 1 3 -0.0559 26.1971 11.1132 7.85825
62 1 3 -0.0559 10.3349 9.9785 7.05587
63 1 3 -0.055903 10.3349 11.1132 7.85825
64 1 3 -0.055903 26.1971 9.9785 7.05587
65 1 3 -0.0559 14.7918 8.54005 0.580159
66 1 3 -0.0559 21.7402 12.5517 14.334
67 1 3 -0.055903 22.7229 13.1191 13.5316
68 1 3 -0.055903 13.8091 7.97268 1.38254
69 1 3 -0.0559 21.7402 3.39366 7.85825
70 1 3 -0.0559 14.7918 17.6981 7.05587
71 1 3 -0.055903 13.8091 17.1307 7.85825
72 1 3 -0.055903 22.7229 3.96103 7.05587
73 1 3 -0.055901 22.7229 17.1307 7.85825
74 1 3 -0.055901 13.8091 3.96103 7.05587
75 1 3 -0.055903 14.7918 3.39366 7.85825
76 1 3 -0.055903 21.7402 17.6981 7.05587
77 1 3 -0.0559 21.7402 8.54005 0.580159
78 1 3 -0.0559 14.7918 12.5517 14.334
79 1 3 -0.055903 13.8091 13.1191 13.5316
80 1 3 -0.055903 22.7229 7.97268 1.38254
81 1 4 -1.26215 27.399 15.8188 11.1856
82 1 4 -1.26215 9.13299 5.27293 3.72853
83 1 4 -0.60118 27.399 18.9383 11.9641
84 1 4 -0.60118 9.13299 2.15347 2.95001
85 1 4 -0.601179 27.399 17.5926 13.8671
86 1 4 -0.601179 9.13299 3.49912 1.04697
87 1 4 -0.601179 26.2336 13.3722 9.45555
88 1 4 -0.601179 10.2984 7.71958 5.45857
89 1 4 -0.60118 28.5643 13.3722 9.45555
90 1 4 -0.60118 7.96762 7.71958 5.45857
91 1 4 -0.60118 25.8628 14.9319 13.8671
92 1 4 -0.60118 10.6692 6.15984 1.04697
93 1 4 -0.601179 24.6974 14.2591 11.9641
94 1 4 -0.601179 11.8345 6.83267 2.95001
95 1 4 -0.60118 28.9351 18.0514 9.45555
96 1 4 -0.60118 7.59682 3.04037 5.45857
97 1 4 -0.601179 30.1005 16.0329 9.45555
98 1 4 -0.601179 6.43145 5.05885 5.45857
99 1 4 -0.601179 24.6974 16.0329 9.45555
100 1 4 -0.601179 11.8345 5.05885 5.45857
101 1 4 -0.60118 25.8628 18.0514 9.45555
102 1 4 -0.60118 10.6692 3.04037 5.45857
103 1 4 -0.60118 28.9351 14.9319 13.8671
104 1 4 -0.60118 7.59682 6.15984 1.04697
105 1 4 -0.60118 30.1005 14.2591 11.9641
106 1 4 -0.60118 6.43145 6.83267 2.95001
32522 10807 5 -0.35 24.3922 7.51718 8.21629
32523 10807 6 0.7 23.5779 7.55049 7.39084
32524 10807 5 -0.35 22.7636 7.58379 6.56538
32531 10810 5 -0.35 15.5537 8.55049 14.5167
32532 10810 6 0.7 15.0437 9.13739 13.6558
32533 10810 5 -0.35 14.5337 9.72429 12.795
32552 10817 5 -0.35 29.5307 10.3476 13.4627
32553 10817 6 0.7 28.9616 10.9086 12.6219
32554 10817 5 -0.35 28.3926 11.4695 11.781
32570 10823 5 -0.35 21.0761 12.5853 0.532496
32571 10823 6 0.7 30.2427 17.8924 14.2876
32572 10823 5 -0.35 30.2763 17.9266 13.1286
32642 10847 5 -0.35 12.835 2.12179 2.49744
32643 10847 6 0.7 12.4223 1.14097 2.95928
32644 10847 5 -0.35 21.1426 15.979 3.42113
32657 10852 5 -0.35 24.2741 10.6239 3.45733
32658 10852 6 0.7 24.1156 11.1476 2.43447
32659 10852 5 -0.35 23.9571 11.6712 1.41161
32672 10857 5 -0.35 9.5702 8.8979 2.57469
32673 10857 6 0.7 9.39714 8.94495 1.42864
32674 10857 5 -0.35 9.22408 8.99201 0.282586
32699 10866 5 -0.35 26.5631 8.91726 13.5289
32700 10866 6 0.7 26.7166 7.98554 12.8552
32701 10866 5 -0.35 26.8702 7.05383 12.1814
32777 10892 5 -0.35 27.0337 11.7105 14.7492
32778 10892 6 0.7 18.023 6.15465 0.953399
32779 10892 5 -0.35 18.1453 5.87176 2.07171
32798 10899 5 -0.35 21.7107 4.6435 2.56702
32799 10899 6 0.7 21.2107 3.98223 1.75561
32800 10899 5 -0.35 2.44482 3.32097 0.944201
32807 10902 5 -0.35 20.2509 5.36649 5.51168
32808 10902 6 0.7 20.3552 6.40352 5.00245
32809 10902 5 -0.35 20.4595 7.44054 4.49323
32819 10906 5 -0.35 13.0116 7.40507 9.81145
32820 10906 6 0.7 12.1662 7.95453 10.3849
32821 10906 5 -0.35 11.3207 8.50399 10.9584
32825 10908 5 -0.35 9.67962 13.4091 4.51663
32826 10908 6 0.7 9.36746 12.5982 3.7481
32827 10908 5 -0.35 9.05531 11.7873 2.97958
32831 10910 5 -0.35 14.7939 5.24631 12.5694
32832 10910 6 0.7 23.727 19.9457 12.7985
32833 10910 5 -0.35 23.5272 18.8262 13.0277
32834 10911 5 -0.35 19.6824 14.5612 11.6114
32835 10911 6 0.7 18.6095 14.884 11.9117
32836 10911 5 -0.35 17.5366 15.2068 12.212
32837 10912 5 -0.35 7.46365 3.79313 10.321
32838 10912 6 0.7 15.5552 19.2049 10.6297
32839 10912 5 -0.35 32.7797 18.7978 10.9384
32840 10913 5 -0.35 20.7057 7.64182 12.0205
32841 10913 6 0.7 21.3977 7.44549 11.1105
32842 10913 5 -0.35 22.0898 7.24916 10.2005
32843 10914 5 -0.35 17.7245 11.1864 12.3764
32844 10914 6 0.7 18.0779 11.2504 11.2734
32845 10914 5 -0.35 18.4313 11.3143 10.1703
32849 10916 5 -0.35 15.7142 8.48661 5.45627
32850 10916 6 0.7 16.5689 7.81962 5.86892
32851 10916 5 -0.35 17.4235 7.15263 6.28158
32852 10917 5 -0.35 14.3057 14.2425 3.19099
32853 10917 6 0.7 13.4713 13.8186 2.50572
32854 10917 5 -0.35 12.6369 13.3946 1.82044
ITEM: TIMESTEP
46000
ITEM: NUMBER OF ATOMS
160
ITEM: BOX BOUNDS xy xz yz pp pp pp
0.0000000000000000e+00 3.6531964750000000e+01 9.1329911900000003e+00
0.0000000000000000e+00 2.1091739680000000e+01 9.1329911900000003e+00
0.0000000000000000e+00 1.4914112149999999e+01 5.2729349200000000e+00
ITEM: ATOMS id mol type q x y z
1 1 1 1.10383 27.399 17.6496 10.5383
2 1 1 1.10383 9.13299 3.44217 4.3758
3 1 1 1.10383 27.399 15.8188 13.1274
4 1 1 1.10383 9.13299 5.27293 1.78671
5 1 1 1.10383 25.8135 14.9034 10.5383
6 1 1 1.10383 10.7185 6.18832 4.3758
7 1 1 1.10383 28.9845 14.9034 10.5383
8 1 1 1.10383 7.5475 6.18832 4.3758
9 1 2 0.115889 18.266 5.48596 12.6084
10 1 2 0.115889 18.266 15.6058 2.30572
11 1 2 0.115888 18.266 13.716 0.969417
12 1 2 0.115888 18.266 7.37578 13.9447
13 1 2 0.11589 25.3934 11.4908 8.12521
14 1 2 0.11589 11.1386 9.60096 6.7889
15 1 2 0.115888 11.1386 11.4908 8.12521
16 1 2 0.115888 25.3934 9.60096 6.7889
17 1 2 0.115889 15.5206 8.96083 0.969417
18 1 2 0.115889 21.0114 12.1309 13.9447
19 1 2 0.115888 22.648 13.0758 12.6084
20 1 2 0.115888 13.884 8.01592 2.30572
21 1 2 0.115889 21.0114 3.90092 8.12521
22 1 2 0.115889 15.5206 17.1908 6.7889
23 1 2 0.115887 13.884 16.2459 8.12521
24 1 2 0.115887 22.648 4.84583 6.7889
25 1 2 0.115889 22.648 16.2459 8.12521
26 1 2 0.115889 13.884 4.84583 6.7889
27 1 2 0.115887 15.5206 3.90092 8.12521
28 1 2 0.115887 21.0114 17.1908 6.7889
29 1 2 0.115889 21.0114 8.96083 0.969417
30 1 2 0.115889 15.5206 12.1309 13.9447
31 1 2 0.115887 13.884 13.0758 12.6084
32 1 2 0.115887 22.648 8.01592 2.30572
33 1 3 0.671939 27.399 18.7442 13.2542
34 1 3 0.671939 9.13299 2.34751 1.65994
35 1 3 0.671939 27.399 12.8934 9.117
36 1 3 0.671939 9.13299 8.19836 5.79712
37 1 3 0.67194 24.8655 14.3561 13.2542
38 1 3 0.67194 11.6665 6.73565 1.65994
39 1 3 0.67194 29.9325 17.2815 9.117
40 1 3 0.67194 6.5995 3.81022 5.79712
41 1 3 0.67194 24.8655 17.2815 9.117
42 1 3 0.67194 11.6665 3.81022 5.79712
43 1 3 0.67194 29.9325 14.3561 13.2542
44 1 3 0.67194 6.5995 6.73565 1.65994
45 1 3 -0.11508 27.399 19.957 14.1117
46 1 3 -0.11508 9.13299 1.13474 0.802379
47 1 3 -0.11508 27.399 11.6806 8.25944
48 1 3 -0.11508 9.13299 9.41113 6.65468
49 1 3 -0.11508 23.8152 13.7497 14.1117
50 1 3 -0.11508 12.7168 7.34203 0.802379
51 1 3 -0.11508 30.9828 17.8879 8.25944
52 1 3 -0.11508 5.54921 3.20384 6.65468
53 1 3 -0.11508 23.8152 17.8879 8.25944
54 1 3 -0.11508 12.7168 3.20384 6.65468
55 1 3 -0.11508 30.9828 13.7497 14.1117
56 1 3 -0.11508 5.54921 7.34203 0.802379
57 1 3 -0.0559 18.266 5.39949 13.5316
58 1 3 -0.0559 18.266 15.6923 1.38254
59 1 3 -0.055903 18.266 14.5575 0.580159
60 1 3 -0.055903 18.266 6.53422 14.334
61 1 3 -0.0559 26.1971 11.1132 7.85825
62 1 3 -0.0559 10.3349 9.9785 7.05587
63 1 3 -0.055903 10.3349 11.1132 7.85825
64 1 3 -0.055903 26.1971 9.9785 7.05587
65 1 3 -0.0559 14.7918 8.54005 0.580159
66 1 3 -0.0559 21.7402 12.5517 14.334
67 1 3 -0.055903 22.7229 13.1191 13.5316
68 1 3 -0.055903 13.8091 7.97268 1.38254
69 1 3 -0.0559 21.7402 3.39366 7.85825
70 1 3 -0.0559 14.7918 17.6981 7.05587
71 1 3 -0.055903 13.8091 17.1307 7.85825
72 1 3 -0.055903 22.7229 3.96103 7.05587
73 1 3 -0.055901 22.7229 17.1307 7.85825
74 1 3 -0.055901 13.8091 3.96103 7.05587
75 1 3 -0.055903 14.7918 3.39366 7.85825
76 1 3 -0.055903 21.7402 17.6981 7.05587
77 1 3 -0.0559 21.7402 8.54005 0.580159
78 1 3 -0.0559 14.7918 12.5517 14.334
79 1 3 -0.055903 13.8091 13.1191 13.5316
80 1 3 -0.055903 22.7229 7.97268 1.38254
81 1 4 -1.26215 27.399 15.8188 11.1856
82 1 4 -1.26215 9.13299 5.27293 3.72853
83 1 4 -0.60118 27.399 18.9383 11.9641
84 1 4 -0.60118 9.13299 2.15347 2.95001
85 1 4 -0.601179 27.399 17.5926 13.8671
86 1 4 -0.601179 9.13299 3.49912 1.04697
87 1 4 -0.601179 26.2336 13.3722 9.45555
88 1 4 -0.601179 10.2984 7.71958 5.45857
89 1 4 -0.60118 28.5643 13.3722 9.45555
90 1 4 -0.60118 7.96762 7.71958 5.45857
91 1 4 -0.60118 25.8628 14.9319 13.8671
92 1 4 -0.60118 10.6692 6.15984 1.04697
93 1 4 -0.601179 24.6974 14.2591 11.9641
94 1 4 -0.601179 11.8345 6.83267 2.95001
95 1 4 -0.60118 28.9351 18.0514 9.45555
96 1 4 -0.60118 7.59682 3.04037 5.45857
97 1 4 -0.601179 30.1005 16.0329 9.45555
98 1 4 -0.601179 6.43145 5.05885 5.45857
99 1 4 -0.601179 24.6974 16.0329 9.45555
100 1 4 -0.601179 11.8345 5.05885 5.45857
101 1 4 -0.60118 25.8628 18.0514 9.45555
102 1 4 -0.60118 10.6692 3.04037 5.45857
103 1 4 -0.60118 28.9351 14.9319 13.8671
104 1 4 -0.60118 7.59682 6.15984 1.04697
105 1 4 -0.60118 30.1005 14.2591 11.9641
106 1 4 -0.60118 6.43145 6.83267 2.95001
33374 11091 5 -0.35 24.094 10.4927 10.981
33375 11091 6 0.7 25.0219 9.79874 10.926
33376 11091 5 -0.35 25.9498 9.10474 10.871
33392 11097 5 -0.35 22.1497 11.8984 2.4205
33393 11097 6 0.7 22.326 12.1566 1.30343
33394 11097 5 -0.35 22.5023 12.4148 0.186366
33431 11110 5 -0.35 24.7132 10.3223 3.60967
33432 11110 6 0.7 7.32894 10.0113 2.92305
33433 11110 5 -0.35 8.21068 9.70035 2.23644
33506 11135 5 -0.35 19.182 10.9567 1.99352
33507 11135 6 0.7 18.0447 11.0934 1.81069
33508 11135 5 -0.35 16.9074 11.23 1.62786
33521 11140 5 -0.35 13.7277 8.96562 13.1986
33522 11140 6 0.7 13.9431 9.01853 14.3371
33523 11140 5 -0.35 5.02564 3.7985 0.561619
33647 11182 5 -0.35 29.3166 10.4642 14.1716
33648 11182 6 0.7 28.2357 10.8021 13.92
33649 11182 5 -0.35 27.1549 11.1399 13.6684
33665 11188 5 -0.35 21.9466 5.94599 3.95887
33666 11188 6 0.7 21.1645 5.74884 3.1252
33667 11188 5 -0.35 20.3824 5.55168 2.29153
33698 11199 5 -0.35 24.4855 18.3534 12.6245
33699 11199 6 0.7 24.0226 19.2578 13.1843
33700 11199 5 -0.35 23.5596 20.1622 13.7441
33704 11201 5 -0.35 19.7176 9.90755 5.07942
33705 11201 6 0.7 19.6381 9.08866 4.26168
33706 11201 5 -0.35 19.5587 8.26976 3.44394
33752 11217 5 -0.35 23.2532 13.3491 6.78315
33753 11217 6 0.7 22.9511 13.6447 5.70289
33754 11217 5 -0.35 22.6489 13.9403 4.62264
33755 11218 5 -0.35 21.9977 18.1391 10.7868
33756 11218 6 0.7 21.7366 17.0193 10.94
33757 11218 5 -0.35 21.4755 15.8995 11.0932
33758 11219 5 -0.35 18.7183 7.87859 8.38226
33759 11219 6 0.7 19.0302 7.38749 7.37869
33760 11219 5 -0.35 19.342 6.89638 6.37511
33767 11222 5 -0.35 16.4742 12.7897 4.31935
33768 11222 6 0.7 16.1375 13.5807 3.54055
33769 11222 5 -0.35 15.8008 14.3717 2.76174
33770 11223 5 -0.35 22.2027 7.09921 14.6225
33771 11223 6 0.7 21.8855 6.00284 14.4151
33772 11223 5 -0.35 30.7014 20.7253 14.2077
33773 11224 5 -0.35 25.7917 14.9436 4.45526
33774 11224 6 0.7 26.5157 15.2489 5.30866
33775 11224 5 -0.35 27.2396 15.5543 6.16206
33776 11225 5 -0.35 17.9073 17.5415 13.4722
33777 11225 6 0.7 17.3832 16.9917 12.5954
33778 11225 5 -0.35 16.8591 16.442 11.7187
33779 11226 5 -0.35 34.3885 19.9828 14.0689
33780 11226 6 0.7 34.101 19.7039 12.9803
33781 11226 5 -0.35 33.8136 19.425 11.8916
33782 11227 5 -0.35 20.9498 14.1786 7.89124
33783 11227 6 0.7 20.494 13.3023 8.49944
33784 11227 5 -0.35 20.0382 12.426 9.10764
ITEM: TIMESTEP
47000
ITEM: NUMBER OF ATOMS
199
ITEM: BOX BOUNDS xy xz yz pp pp pp
0.0000000000000000e+00 3.6531964750000000e+01 9.1329911900000003e+00
0.0000000000000000e+00 2.1091739680000000e+01 9.1329911900000003e+00
0.0000000000000000e+00 1.4914112149999999e+01 5.2729349200000000e+00
ITEM: ATOMS id mol type q x y z
1 1 1 1.10383 27.399 17.6496 10.5383
2 1 1 1.10383 9.13299 3.44217 4.3758
3 1 1 1.10383 27.399 15.8188 13.1274
4 1 1 1.10383 9.13299 5.27293 1.78671
5 1 1 1.10383 25.8135 14.9034 10.5383
6 1 1 1.10383 10.7185 6.18832 4.3758
7 1 1 1.10383 28.9845 14.9034 10.5383
8 1 1 1.10383 7.5475 6.18832 4.3758
9 1 2 0.115889 18.266 5.48596 12.6084
10 1 2 0.115889 18.266 15.6058 2.30572
11 1 2 0.115888 18.266 13.716 0.969417
12 1 2 0.115888 18.266 7.37578 13.9447
13 1 2 0.11589 25.3934 11.4908 8.12521
14 1 2 0.11589 11.1386 9.60096 6.7889
15 1 2 0.115888 11.1386 11.4908 8.12521
16 1 2 0.115888 25.3934 9.60096 6.7889
17 1 2 0.115889 15.5206 8.96083 0.969417
18 1 2 0.115889 21.0114 12.1309 13.9447
19 1 2 0.115888 22.648 13.0758 12.6084
20 1 2 0.115888 13.884 8.01592 2.30572
21 1 2 0.115889 21.0114 3.90092 8.12521
22 1 2 0.115889 15.5206 17.1908 6.7889
23 1 2 0.115887 13.884 16.2459 8.12521
24 1 2 0.115887 22.648 4.84583 6.7889
25 1 2 0.115889 22.648 16.2459 8.12521
26 1 2 0.115889 13.884 4.84583 6.7889
27 1 2 0.115887 15.5206 3.90092 8.12521
28 1 2 0.115887 21.0114 17.1908 6.7889
29 1 2 0.115889 21.0114 8.96083 0.969417
30 1 2 0.115889 15.5206 12.1309 13.9447
31 1 2 0.115887 13.884 13.0758 12.6084
32 1 2 0.115887 22.648 8.01592 2.30572
33 1 3 0.671939 27.399 18.7442 13.2542
34 1 3 0.671939 9.13299 2.34751 1.65994
35 1 3 0.671939 27.399 12.8934 9.117
36 1 3 0.671939 9.13299 8.19836 5.79712
37 1 3 0.67194 24.8655 14.3561 13.2542
38 1 3 0.67194 11.6665 6.73565 1.65994
39 1 3 0.67194 29.9325 17.2815 9.117
40 1 3 0.67194 6.5995 3.81022 5.79712
41 1 3 0.67194 24.8655 17.2815 9.117
42 1 3 0.67194 11.6665 3.81022 5.79712
43 1 3 0.67194 29.9325 14.3561 13.2542
44 1 3 0.67194 6.5995 6.73565 1.65994
45 1 3 -0.11508 27.399 19.957 14.1117
46 1 3 -0.11508 9.13299 1.13474 0.802379
47 1 3 -0.11508 27.399 11.6806 8.25944
48 1 3 -0.11508 9.13299 9.41113 6.65468
49 1 3 -0.11508 23.8152 13.7497 14.1117
50 1 3 -0.11508 12.7168 7.34203 0.802379
51 1 3 -0.11508 30.9828 17.8879 8.25944
52 1 3 -0.11508 5.54921 3.20384 6.65468
53 1 3 -0.11508 23.8152 17.8879 8.25944
54 1 3 -0.11508 12.7168 3.20384 6.65468
55 1 3 -0.11508 30.9828 13.7497 14.1117
56 1 3 -0.11508 5.54921 7.34203 0.802379
57 1 3 -0.0559 18.266 5.39949 13.5316
58 1 3 -0.0559 18.266 15.6923 1.38254
59 1 3 -0.055903 18.266 14.5575 0.580159
60 1 3 -0.055903 18.266 6.53422 14.334
61 1 3 -0.0559 26.1971 11.1132 7.85825
62 1 3 -0.0559 10.3349 9.9785 7.05587
63 1 3 -0.055903 10.3349 11.1132 7.85825
64 1 3 -0.055903 26.1971 9.9785 7.05587
65 1 3 -0.0559 14.7918 8.54005 0.580159
66 1 3 -0.0559 21.7402 12.5517 14.334
67 1 3 -0.055903 22.7229 13.1191 13.5316
68 1 3 -0.055903 13.8091 7.97268 1.38254
69 1 3 -0.0559 21.7402 3.39366 7.85825
70 1 3 -0.0559 14.7918 17.6981 7.05587
71 1 3 -0.055903 13.8091 17.1307 7.85825
72 1 3 -0.055903 22.7229 3.96103 7.05587
73 1 3 -0.055901 22.7229 17.1307 7.85825
74 1 3 -0.055901 13.8091 3.96103 7.05587
75 1 3 -0.055903 14.7918 3.39366 7.85825
76 1 3 -0.055903 21.7402 17.6981 7.05587
77 1 3 -0.0559 21.7402 8.54005 0.580159
78 1 3 -0.0559 14.7918 12.5517 14.334
79 1 3 -0.055903 13.8091 13.1191 13.5316
80 1 3 -0.055903 22.7229 7.97268 1.38254
81 1 4 -1.26215 27.399 15.8188 11.1856
82 1 4 -1.26215 9.13299 5.27293 3.72853
83 1 4 -0.60118 27.399 18.9383 11.9641
84 1 4 -0.60118 9.13299 2.15347 2.95001
85 1 4 -0.601179 27.399 17.5926 13.8671
86 1 4 -0.601179 9.13299 3.49912 1.04697
87 1 4 -0.601179 26.2336 13.3722 9.45555
88 1 4 -0.601179 10.2984 7.71958 5.45857
89 1 4 -0.60118 28.5643 13.3722 9.45555
90 1 4 -0.60118 7.96762 7.71958 5.45857
91 1 4 -0.60118 25.8628 14.9319 13.8671
92 1 4 -0.60118 10.6692 6.15984 1.04697
93 1 4 -0.601179 24.6974 14.2591 11.9641
94 1 4 -0.601179 11.8345 6.83267 2.95001
95 1 4 -0.60118 28.9351 18.0514 9.45555
96 1 4 -0.60118 7.59682 3.04037 5.45857
97 1 4 -0.601179 30.1005 16.0329 9.45555
98 1 4 -0.601179 6.43145 5.05885 5.45857
99 1 4 -0.601179 24.6974 16.0329 9.45555
100 1 4 -0.601179 11.8345 5.05885 5.45857
101 1 4 -0.60118 25.8628 18.0514 9.45555
102 1 4 -0.60118 10.6692 3.04037 5.45857
103 1 4 -0.60118 28.9351 14.9319 13.8671
104 1 4 -0.60118 7.59682 6.15984 1.04697
105 1 4 -0.60118 30.1005 14.2591 11.9641
106 1 4 -0.60118 6.43145 6.83267 2.95001
33521 11140 5 -0.35 6.41415 1.89863 0.306142
33522 11140 6 0.7 5.90844 2.58415 1.09348
33523 11140 5 -0.35 5.40272 3.26968 1.88082
33773 11224 5 -0.35 23.7176 13.6857 5.7587
33774 11224 6 0.7 24.8228 14.0129 5.62874
33775 11224 5 -0.35 25.9281 14.3401 5.49878
34262 11387 5 -0.35 21.4971 5.97739 4.5097
34263 11387 6 0.7 20.7831 6.22197 3.62886
34264 11387 5 -0.35 20.069 6.46656 2.74802
34319 11406 5 -0.35 17.2081 6.70196 1.83519
34320 11406 6 0.7 16.5263 6.0907 1.12303
34321 11406 5 -0.35 15.8446 5.47943 0.410865
34325 11408 5 -0.35 10.5278 7.07566 10.5343
34326 11408 6 0.7 11.2202 7.62215 9.78091
34327 11408 5 -0.35 11.9126 8.16863 9.02757
34328 11409 5 -0.35 17.6285 3.6807 4.61592
34329 11409 6 0.7 16.6905 4.05936 4.04824
34330 11409 5 -0.35 15.7524 4.43802 3.48055
34337 11412 5 -0.35 12.6157 3.40401 2.13596
34338 11412 6 0.7 13.199 2.9551 1.23941
34339 11412 5 -0.35 13.7824 2.5062 0.342866
34358 11419 5 -0.35 28.1236 12.2412 12.1189
34359 11419 6 0.7 28.9217 11.6692 11.5014
34360 11419 5 -0.35 11.4538 11.0971 10.8838
34370 11423 5 -0.35 28.58 17.2009 5.66976
34371 11423 6 0.7 29.3875 17.4349 4.87055
34372 11423 5 -0.35 2.79609 1.85013 4.07134
34376 11425 5 -0.35 21.092 8.6603 11.9993
34377 11425 6 0.7 20.8532 9.47302 11.2068
34378 11425 5 -0.35 20.6144 10.2857 10.4144
34388 11429 5 -0.35 1.85425 0.955285 0.398518
34389 11429 6 0.7 11.5694 15.775 0.305797
34390 11429 5 -0.35 12.1515 14.776 0.213076
34415 11438 5 -0.35 11.3537 11.7255 1.54367
34416 11438 6 0.7 11.9713 11.3924 0.619965
34417 11438 5 -0.35 21.7218 16.3322 14.6104
34421 11440 5 -0.35 14.587 6.70862 10.6757
34422 11440 6 0.7 15.6997 7.03661 10.6771
34423 11440 5 -0.35 16.8123 7.3646 10.6785
34442 11447 5 -0.35 18.2477 5.84563 7.77165
34443 11447 6 0.7 18.4191 6.11199 6.65573
34444 11447 5 -0.35 18.5905 6.37836 5.53981
34457 11452 5 -0.35 32.4813 16.9456 13.3075
34458 11452 6 0.7 15.0527 16.3175 12.8076
34459 11452 5 -0.35 15.8901 15.6895 12.3076
34460 11453 5 -0.35 17.4971 9.40874 4.19927
34461 11453 6 0.7 18.0753 9.5389 3.20209
34462 11453 5 -0.35 18.6535 9.66905 2.20492
34469 11456 5 -0.35 28.2499 9.55715 14.5346
34470 11456 6 0.7 18.8704 4.13836 0.744541
34471 11456 5 -0.35 18.624 3.9925 1.86863
34475 11458 5 -0.35 19.0602 18.2755 14.086
34476 11458 6 0.7 19.2197 18.9381 13.1473
34477 11458 5 -0.35 19.3792 19.6006 12.2085
34478 11459 5 -0.35 14.6441 7.43555 6.44116
34479 11459 6 0.7 14.0678 8.34773 6.01526
34480 11459 5 -0.35 13.4914 9.2599 5.58936
34481 11460 5 -0.35 34.426 19.8758 11.5692
34482 11460 6 0.7 24.8115 4.46899 10.5976
34483 11460 5 -0.35 24.3299 4.881 9.62607
34484 11461 5 -0.35 25.9487 7.12511 14.7886
34485 11461 6 0.7 26.0488 6.99161 13.6406
34486 11461 5 -0.35 26.149 6.85811 12.4927
34490 11463 5 -0.35 20.9124 13.1817 1.89886
34491 11463 6 0.7 21.4137 13.6809 0.979592
34492 11463 5 -0.35 21.9151 14.1801 0.0603195
34493 11464 5 -0.35 19.1921 15.2932 10.3717
34494 11464 6 0.7 19.2634 15.3657 11.5272
34495 11464 5 -0.35 19.3348 15.4382 12.6827
34496 11465 5 -0.35 18.6618 11.1688 7.95584
34497 11465 6 0.7 19.287 10.2329 7.67538
34498 11465 5 -0.35 19.9123 9.29695 7.39492
34502 11467 5 -0.35 14.8857 12.7376 0.816705
34503 11467 6 0.7 24.1435 18.2964 14.6135
34504 11467 5 -0.35 24.2684 18.5821 13.4962
34505 11468 5 -0.35 12.6115 8.06752 13.0752
34506 11468 6 0.7 13.2584 8.90717 12.6039
34507 11468 5 -0.35 13.9052 9.74682 12.1325
34508 11469 5 -0.35 16.5878 12.6176 11.4772
34509 11469 6 0.7 17.3942 12.2201 12.2102
34510 11469 5 -0.35 18.2006 11.8225 12.9432
34511 11470 5 -0.35 22.8788 7.43697 7.11383
34512 11470 6 0.7 22.9816 7.98531 6.0968
34513 11470 5 -0.35 23.0845 8.53366 5.07978
34514 11471 5 -0.35 24.9227 11.5047 11.6294
34515 11471 6 0.7 24.2931 11.051 10.7672
34516 11471 5 -0.35 23.6635 10.5972 9.90503
34517 11472 5 -0.35 10.2221 13.2856 5.88976
34518 11472 6 0.7 10.2056 13.5354 4.75708
34519 11472 5 -0.35 10.1892 13.7852 3.62441
34520 11473 5 -0.35 25.6243 15.3526 2.07143
34521 11473 6 0.7 25.1424 16.0905 2.82569
34522 11473 5 -0.35 24.6606 16.8284 3.57994
ITEM: TIMESTEP
48000
ITEM: NUMBER OF ATOMS
190
ITEM: BOX BOUNDS xy xz yz pp pp pp
0.0000000000000000e+00 3.6531964750000000e+01 9.1329911900000003e+00
0.0000000000000000e+00 2.1091739680000000e+01 9.1329911900000003e+00
0.0000000000000000e+00 1.4914112149999999e+01 5.2729349200000000e+00
ITEM: ATOMS id mol type q x y z
1 1 1 1.10383 27.399 17.6496 10.5383
2 1 1 1.10383 9.13299 3.44217 4.3758
3 1 1 1.10383 27.399 15.8188 13.1274
4 1 1 1.10383 9.13299 5.27293 1.78671
5 1 1 1.10383 25.8135 14.9034 10.5383
6 1 1 1.10383 10.7185 6.18832 4.3758
7 1 1 1.10383 28.9845 14.9034 10.5383
8 1 1 1.10383 7.5475 6.18832 4.3758
9 1 2 0.115889 18.266 5.48596 12.6084
10 1 2 0.115889 18.266 15.6058 2.30572
11 1 2 0.115888 18.266 13.716 0.969417
12 1 2 0.115888 18.266 7.37578 13.9447
13 1 2 0.11589 25.3934 11.4908 8.12521
14 1 2 0.11589 11.1386 9.60096 6.7889
15 1 2 0.115888 11.1386 11.4908 8.12521
16 1 2 0.115888 25.3934 9.60096 6.7889
17 1 2 0.115889 15.5206 8.96083 0.969417
18 1 2 0.115889 21.0114 12.1309 13.9447
19 1 2 0.115888 22.648 13.0758 12.6084
20 1 2 0.115888 13.884 8.01592 2.30572
21 1 2 0.115889 21.0114 3.90092 8.12521
22 1 2 0.115889 15.5206 17.1908 6.7889
23 1 2 0.115887 13.884 16.2459 8.12521
24 1 2 0.115887 22.648 4.84583 6.7889
25 1 2 0.115889 22.648 16.2459 8.12521
26 1 2 0.115889 13.884 4.84583 6.7889
27 1 2 0.115887 15.5206 3.90092 8.12521
28 1 2 0.115887 21.0114 17.1908 6.7889
29 1 2 0.115889 21.0114 8.96083 0.969417
30 1 2 0.115889 15.5206 12.1309 13.9447
31 1 2 0.115887 13.884 13.0758 12.6084
32 1 2 0.115887 22.648 8.01592 2.30572
33 1 3 0.671939 27.399 18.7442 13.2542
34 1 3 0.671939 9.13299 2.34751 1.65994
35 1 3 0.671939 27.399 12.8934 9.117
36 1 3 0.671939 9.13299 8.19836 5.79712
37 1 3 0.67194 24.8655 14.3561 13.2542
38 1 3 0.67194 11.6665 6.73565 1.65994
39 1 3 0.67194 29.9325 17.2815 9.117
40 1 3 0.67194 6.5995 3.81022 5.79712
41 1 3 0.67194 24.8655 17.2815 9.117
42 1 3 0.67194 11.6665 3.81022 5.79712
43 1 3 0.67194 29.9325 14.3561 13.2542
44 1 3 0.67194 6.5995 6.73565 1.65994
45 1 3 -0.11508 27.399 19.957 14.1117
46 1 3 -0.11508 9.13299 1.13474 0.802379
47 1 3 -0.11508 27.399 11.6806 8.25944
48 1 3 -0.11508 9.13299 9.41113 6.65468
49 1 3 -0.11508 23.8152 13.7497 14.1117
50 1 3 -0.11508 12.7168 7.34203 0.802379
51 1 3 -0.11508 30.9828 17.8879 8.25944
52 1 3 -0.11508 5.54921 3.20384 6.65468
53 1 3 -0.11508 23.8152 17.8879 8.25944
54 1 3 -0.11508 12.7168 3.20384 6.65468
55 1 3 -0.11508 30.9828 13.7497 14.1117
56 1 3 -0.11508 5.54921 7.34203 0.802379
57 1 3 -0.0559 18.266 5.39949 13.5316
58 1 3 -0.0559 18.266 15.6923 1.38254
59 1 3 -0.055903 18.266 14.5575 0.580159
60 1 3 -0.055903 18.266 6.53422 14.334
61 1 3 -0.0559 26.1971 11.1132 7.85825
62 1 3 -0.0559 10.3349 9.9785 7.05587
63 1 3 -0.055903 10.3349 11.1132 7.85825
64 1 3 -0.055903 26.1971 9.9785 7.05587
65 1 3 -0.0559 14.7918 8.54005 0.580159
66 1 3 -0.0559 21.7402 12.5517 14.334
67 1 3 -0.055903 22.7229 13.1191 13.5316
68 1 3 -0.055903 13.8091 7.97268 1.38254
69 1 3 -0.0559 21.7402 3.39366 7.85825
70 1 3 -0.0559 14.7918 17.6981 7.05587
71 1 3 -0.055903 13.8091 17.1307 7.85825
72 1 3 -0.055903 22.7229 3.96103 7.05587
73 1 3 -0.055901 22.7229 17.1307 7.85825
74 1 3 -0.055901 13.8091 3.96103 7.05587
75 1 3 -0.055903 14.7918 3.39366 7.85825
76 1 3 -0.055903 21.7402 17.6981 7.05587
77 1 3 -0.0559 21.7402 8.54005 0.580159
78 1 3 -0.0559 14.7918 12.5517 14.334
79 1 3 -0.055903 13.8091 13.1191 13.5316
80 1 3 -0.055903 22.7229 7.97268 1.38254
81 1 4 -1.26215 27.399 15.8188 11.1856
82 1 4 -1.26215 9.13299 5.27293 3.72853
83 1 4 -0.60118 27.399 18.9383 11.9641
84 1 4 -0.60118 9.13299 2.15347 2.95001
85 1 4 -0.601179 27.399 17.5926 13.8671
86 1 4 -0.601179 9.13299 3.49912 1.04697
87 1 4 -0.601179 26.2336 13.3722 9.45555
88 1 4 -0.601179 10.2984 7.71958 5.45857
89 1 4 -0.60118 28.5643 13.3722 9.45555
90 1 4 -0.60118 7.96762 7.71958 5.45857
91 1 4 -0.60118 25.8628 14.9319 13.8671
92 1 4 -0.60118 10.6692 6.15984 1.04697
93 1 4 -0.601179 24.6974 14.2591 11.9641
94 1 4 -0.601179 11.8345 6.83267 2.95001
95 1 4 -0.60118 28.9351 18.0514 9.45555
96 1 4 -0.60118 7.59682 3.04037 5.45857
97 1 4 -0.601179 30.1005 16.0329 9.45555
98 1 4 -0.601179 6.43145 5.05885 5.45857
99 1 4 -0.601179 24.6974 16.0329 9.45555
100 1 4 -0.601179 11.8345 5.05885 5.45857
101 1 4 -0.60118 25.8628 18.0514 9.45555
102 1 4 -0.60118 10.6692 3.04037 5.45857
103 1 4 -0.60118 28.9351 14.9319 13.8671
104 1 4 -0.60118 7.59682 6.15984 1.04697
105 1 4 -0.60118 30.1005 14.2591 11.9641
106 1 4 -0.60118 6.43145 6.83267 2.95001
34337 11412 5 -0.35 12.3557 3.54441 2.70647
34338 11412 6 0.7 13.0394 2.88102 2.04465
34339 11412 5 -0.35 13.7232 2.21762 1.38282
34514 11471 5 -0.35 26.2513 9.33792 10.4832
34515 11471 6 0.7 25.5843 8.75209 9.73651
34516 11471 5 -0.35 24.9173 8.16626 8.98984
34553 11484 5 -0.35 22.9667 15.2585 1.39318
34554 11484 6 0.7 22.7122 15.4006 0.270392
34555 11484 5 -0.35 22.4577 4.99674 14.0617
34697 11532 5 -0.35 20.0175 2.14011 3.50964
34698 11532 6 0.7 19.6293 3.05659 2.91387
34699 11532 5 -0.35 19.241 3.97306 2.3181
34700 11533 5 -0.35 15.051 9.17813 13.6998
34701 11533 6 0.7 15.3893 8.4379 12.8733
34702 11533 5 -0.35 15.7276 7.69766 12.0467
34709 11536 5 -0.35 27.796 11.8877 12.0781
34710 11536 6 0.7 28.7484 11.2259 12.056
34711 11536 5 -0.35 11.4348 10.5641 12.0338
34733 11544 5 -0.35 10.4403 11.4574 3.43335
34734 11544 6 0.7 11.0258 11.0839 2.50425
34735 11544 5 -0.35 11.6114 10.7104 1.57514
34742 11547 5 -0.35 18.246 4.11993 7.69375
34743 11547 6 0.7 18.0651 3.10857 7.15522
34744 11547 5 -0.35 27.0172 17.916 6.61668
34748 11549 5 -0.35 11.2315 14.6298 3.21546
34749 11549 6 0.7 11.1832 15.0404 4.29927
34750 11549 5 -0.35 11.1349 15.451 5.38308
34778 11559 5 -0.35 13.2755 6.82259 7.77854
34779 11559 6 0.7 12.2174 6.78475 8.25255
34780 11559 5 -0.35 11.1593 6.74691 8.72656
34796 11565 5 -0.35 17.9748 6.81845 4.13197
34797 11565 6 0.7 18.2873 7.8758 3.77144
34798 11565 5 -0.35 18.5997 8.93315 3.4109
34805 11568 5 -0.35 16.1749 3.92905 4.51535
34806 11568 6 0.7 15.7791 4.39243 3.52832
34807 11568 5 -0.35 15.3833 4.8558 2.54129
34811 11570 5 -0.35 14.3944 11.7631 0.480938
34812 11570 6 0.7 23.0278 17.6893 14.5769
34813 11570 5 -0.35 22.5283 18.3425 13.7588
34844 11581 5 -0.35 9.25312 4.66487 9.18424
34845 11581 6 0.7 9.96957 4.51917 10.0848
34846 11581 5 -0.35 10.686 4.37346 10.9854
34847 11582 5 -0.35 15.2064 4.85499 13.2788
34848 11582 6 0.7 15.0277 4.9471 12.1363
34849 11582 5 -0.35 14.8489 5.03922 10.9939
34850 11583 5 -0.35 24.2741 16.5184 4.14367
34851 11583 6 0.7 25.355 16.1137 4.02787
34852 11583 5 -0.35 26.4359 15.7089 3.91208
34853 11584 5 -0.35 25.9373 10.6855 14.094
34854 11584 6 0.7 25.0954 10.2603 13.4188
34855 11584 5 -0.35 24.2534 9.8351 12.7436
34856 11585 5 -0.35 20.6359 17.1757 10.0606
34857 11585 6 0.7 21.0078 16.3103 10.7376
34858 11585 5 -0.35 21.3798 15.4448 11.4145
34865 11588 5 -0.35 21.8887 7.33851 5.43002
34866 11588 6 0.7 21.88 6.52282 4.60529
34867 11588 5 -0.35 21.8714 5.70713 3.78056
34871 11590 5 -0.35 24.5106 14.2101 6.86222
34872 11590 6 0.7 25.6539 14.3811 6.76704
34873 11590 5 -0.35 26.7973 14.5522 6.67186
34886 11595 5 -0.35 19.21 10.3953 12.596
34887 11595 6 0.7 19.337 10.449 11.4442
34888 11595 5 -0.35 19.4639 10.5027 10.2925
34901 11600 5 -0.35 21.5444 7.68622 11.8689
34902 11600 6 0.7 22.5906 7.30986 11.5379
34903 11600 5 -0.35 23.6367 6.9335 11.2069
34910 11603 5 -0.35 17.6945 17.5023 12.5465
34911 11603 6 0.7 16.7781 18.199 12.6892
34912 11603 5 -0.35 34.1277 18.8958 12.832
34916 11605 5 -0.35 9.91018 7.40828 11.5292
34917 11605 6 0.7 11.0695 7.37783 11.5029
34918 11605 5 -0.35 12.2288 7.34737 11.4765
34919 11606 5 -0.35 8.50608 5.55291 12.9631
34920 11606 6 0.7 26.2306 6.5007 13.3556
34921 11606 5 -0.35 25.6891 7.4485 13.7481
34922 11607 5 -0.35 15.7959 14.949 11.8195
34923 11607 6 0.7 15.9421 15.0803 10.6763
34924 11607 5 -0.35 16.0884 15.2117 9.53309
34925 11608 5 -0.35 20.2005 15.5947 4.5
34926 11608 6 0.7 19.1956 15.0353 4.65135
34927 11608 5 -0.35 18.1907 14.4759 4.8027
34928 11609 5 -0.35 13.9729 13.7998 2.70182
34929 11609 6 0.7 13.7427 14.5462 1.84412
34930 11609 5 -0.35 13.5126 15.2925 0.986419
ITEM: TIMESTEP
49000
ITEM: NUMBER OF ATOMS
190
ITEM: BOX BOUNDS xy xz yz pp pp pp
0.0000000000000000e+00 3.6531964750000000e+01 9.1329911900000003e+00
0.0000000000000000e+00 2.1091739680000000e+01 9.1329911900000003e+00
0.0000000000000000e+00 1.4914112149999999e+01 5.2729349200000000e+00
ITEM: ATOMS id mol type q x y z
1 1 1 1.10383 27.399 17.6496 10.5383
2 1 1 1.10383 9.13299 3.44217 4.3758
3 1 1 1.10383 27.399 15.8188 13.1274
4 1 1 1.10383 9.13299 5.27293 1.78671
5 1 1 1.10383 25.8135 14.9034 10.5383
6 1 1 1.10383 10.7185 6.18832 4.3758
7 1 1 1.10383 28.9845 14.9034 10.5383
8 1 1 1.10383 7.5475 6.18832 4.3758
9 1 2 0.115889 18.266 5.48596 12.6084
10 1 2 0.115889 18.266 15.6058 2.30572
11 1 2 0.115888 18.266 13.716 0.969417
12 1 2 0.115888 18.266 7.37578 13.9447
13 1 2 0.11589 25.3934 11.4908 8.12521
14 1 2 0.11589 11.1386 9.60096 6.7889
15 1 2 0.115888 11.1386 11.4908 8.12521
16 1 2 0.115888 25.3934 9.60096 6.7889
17 1 2 0.115889 15.5206 8.96083 0.969417
18 1 2 0.115889 21.0114 12.1309 13.9447
19 1 2 0.115888 22.648 13.0758 12.6084
20 1 2 0.115888 13.884 8.01592 2.30572
21 1 2 0.115889 21.0114 3.90092 8.12521
22 1 2 0.115889 15.5206 17.1908 6.7889
23 1 2 0.115887 13.884 16.2459 8.12521
24 1 2 0.115887 22.648 4.84583 6.7889
25 1 2 0.115889 22.648 16.2459 8.12521
26 1 2 0.115889 13.884 4.84583 6.7889
27 1 2 0.115887 15.5206 3.90092 8.12521
28 1 2 0.115887 21.0114 17.1908 6.7889
29 1 2 0.115889 21.0114 8.96083 0.969417
30 1 2 0.115889 15.5206 12.1309 13.9447
31 1 2 0.115887 13.884 13.0758 12.6084
32 1 2 0.115887 22.648 8.01592 2.30572
33 1 3 0.671939 27.399 18.7442 13.2542
34 1 3 0.671939 9.13299 2.34751 1.65994
35 1 3 0.671939 27.399 12.8934 9.117
36 1 3 0.671939 9.13299 8.19836 5.79712
37 1 3 0.67194 24.8655 14.3561 13.2542
38 1 3 0.67194 11.6665 6.73565 1.65994
39 1 3 0.67194 29.9325 17.2815 9.117
40 1 3 0.67194 6.5995 3.81022 5.79712
41 1 3 0.67194 24.8655 17.2815 9.117
42 1 3 0.67194 11.6665 3.81022 5.79712
43 1 3 0.67194 29.9325 14.3561 13.2542
44 1 3 0.67194 6.5995 6.73565 1.65994
45 1 3 -0.11508 27.399 19.957 14.1117
46 1 3 -0.11508 9.13299 1.13474 0.802379
47 1 3 -0.11508 27.399 11.6806 8.25944
48 1 3 -0.11508 9.13299 9.41113 6.65468
49 1 3 -0.11508 23.8152 13.7497 14.1117
50 1 3 -0.11508 12.7168 7.34203 0.802379
51 1 3 -0.11508 30.9828 17.8879 8.25944
52 1 3 -0.11508 5.54921 3.20384 6.65468
53 1 3 -0.11508 23.8152 17.8879 8.25944
54 1 3 -0.11508 12.7168 3.20384 6.65468
55 1 3 -0.11508 30.9828 13.7497 14.1117
56 1 3 -0.11508 5.54921 7.34203 0.802379
57 1 3 -0.0559 18.266 5.39949 13.5316
58 1 3 -0.0559 18.266 15.6923 1.38254
59 1 3 -0.055903 18.266 14.5575 0.580159
60 1 3 -0.055903 18.266 6.53422 14.334
61 1 3 -0.0559 26.1971 11.1132 7.85825
62 1 3 -0.0559 10.3349 9.9785 7.05587
63 1 3 -0.055903 10.3349 11.1132 7.85825
64 1 3 -0.055903 26.1971 9.9785 7.05587
65 1 3 -0.0559 14.7918 8.54005 0.580159
66 1 3 -0.0559 21.7402 12.5517 14.334
67 1 3 -0.055903 22.7229 13.1191 13.5316
68 1 3 -0.055903 13.8091 7.97268 1.38254
69 1 3 -0.0559 21.7402 3.39366 7.85825
70 1 3 -0.0559 14.7918 17.6981 7.05587
71 1 3 -0.055903 13.8091 17.1307 7.85825
72 1 3 -0.055903 22.7229 3.96103 7.05587
73 1 3 -0.055901 22.7229 17.1307 7.85825
74 1 3 -0.055901 13.8091 3.96103 7.05587
75 1 3 -0.055903 14.7918 3.39366 7.85825
76 1 3 -0.055903 21.7402 17.6981 7.05587
77 1 3 -0.0559 21.7402 8.54005 0.580159
78 1 3 -0.0559 14.7918 12.5517 14.334
79 1 3 -0.055903 13.8091 13.1191 13.5316
80 1 3 -0.055903 22.7229 7.97268 1.38254
81 1 4 -1.26215 27.399 15.8188 11.1856
82 1 4 -1.26215 9.13299 5.27293 3.72853
83 1 4 -0.60118 27.399 18.9383 11.9641
84 1 4 -0.60118 9.13299 2.15347 2.95001
85 1 4 -0.601179 27.399 17.5926 13.8671
86 1 4 -0.601179 9.13299 3.49912 1.04697
87 1 4 -0.601179 26.2336 13.3722 9.45555
88 1 4 -0.601179 10.2984 7.71958 5.45857
89 1 4 -0.60118 28.5643 13.3722 9.45555
90 1 4 -0.60118 7.96762 7.71958 5.45857
91 1 4 -0.60118 25.8628 14.9319 13.8671
92 1 4 -0.60118 10.6692 6.15984 1.04697
93 1 4 -0.601179 24.6974 14.2591 11.9641
94 1 4 -0.601179 11.8345 6.83267 2.95001
95 1 4 -0.60118 28.9351 18.0514 9.45555
96 1 4 -0.60118 7.59682 3.04037 5.45857
97 1 4 -0.601179 30.1005 16.0329 9.45555
98 1 4 -0.601179 6.43145 5.05885 5.45857
99 1 4 -0.601179 24.6974 16.0329 9.45555
100 1 4 -0.601179 11.8345 5.05885 5.45857
101 1 4 -0.60118 25.8628 18.0514 9.45555
102 1 4 -0.60118 10.6692 3.04037 5.45857
103 1 4 -0.60118 28.9351 14.9319 13.8671
104 1 4 -0.60118 7.59682 6.15984 1.04697
105 1 4 -0.60118 30.1005 14.2591 11.9641
106 1 4 -0.60118 6.43145 6.83267 2.95001
34514 11471 5 -0.35 26.6668 9.43393 11.7487
34515 11471 6 0.7 25.619 9.27994 11.2755
34516 11471 5 -0.35 24.5711 9.12595 10.8023
34709 11536 5 -0.35 28.9033 11.2717 12.443
34710 11536 6 0.7 11.0352 10.6371 11.5573
34711 11536 5 -0.35 11.4331 10.0024 10.6716
34742 11547 5 -0.35 17.8399 5.49952 9.07547
34743 11547 6 0.7 18.0601 4.74485 8.22249
34744 11547 5 -0.35 18.2803 3.99018 7.3695
34778 11559 5 -0.35 12.5505 7.75821 8.97279
34779 11559 6 0.7 12.0516 6.76339 9.30006
34780 11559 5 -0.35 11.5528 5.76858 9.62733
34844 11581 5 -0.35 8.22481 5.20518 8.28219
34845 11581 6 0.7 8.78862 4.30596 8.7503
34846 11581 5 -0.35 9.35243 3.40674 9.2184
34856 11585 5 -0.35 22.0317 17.7818 11.7684
34857 11585 6 0.7 22.0302 16.6555 11.4906
34858 11585 5 -0.35 22.0286 15.5293 11.2128
34982 11627 5 -0.35 15.1356 11.8056 0.969186
34983 11627 6 0.7 14.1849 11.6004 0.337014
34984 11627 5 -0.35 22.3672 16.6681 14.619
34991 11630 5 -0.35 20.2868 11.0627 11.0151
34992 11630 6 0.7 20.1061 10.4492 11.9829
34993 11630 5 -0.35 19.9255 9.83578 12.9507
35015 11638 5 -0.35 10.7337 9.73671 2.31286
35016 11638 6 0.7 11.4207 10.6676 2.39741
35017 11638 5 -0.35 12.1076 11.5985 2.48197
35024 11641 5 -0.35 18.3393 13.6038 13.0568
35025 11641 6 0.7 18.7285 13.7993 11.9817
35026 11641 5 -0.35 19.1178 13.9948 10.9065
35051 11650 5 -0.35 6.05629 3.45489 2.38503
35052 11650 6 0.7 6.06883 3.37684 1.22773
35053 11650 5 -0.35 6.08138 3.2988 0.0704239
35054 11651 5 -0.35 14.658 4.81675 10.669
35055 11651 6 0.7 24.23 19.8472 11.398
35056 11651 5 -0.35 24.6691 19.0588 12.1269
35072 11657 5 -0.35 19.3943 15.8935 8.80201
35073 11657 6 0.7 18.2959 15.8696 9.17433
35074 11657 5 -0.35 17.1976 15.8458 9.54666
35084 11661 5 -0.35 14.3261 3.43792 4.03078
35085 11661 6 0.7 13.7728 2.57495 3.48788
35086 11661 5 -0.35 13.2195 1.71197 2.94497
35093 11664 5 -0.35 17.8071 5.40497 1.35187
35094 11664 6 0.7 18.7193 5.91815 1.85211
35095 11664 5 -0.35 19.6314 6.43132 2.35235
35099 11666 5 -0.35 18.6681 16.4327 14.7363
35100 11666 6 0.7 18.5301 16.7628 13.6328
35101 11666 5 -0.35 18.3921 17.0929 12.5294
35105 11668 5 -0.35 21.5527 14.0691 6.58068
35106 11668 6 0.7 20.6622 14.3458 5.89063
35107 11668 5 -0.35 19.7718 14.6225 5.20059
35126 11675 5 -0.35 32.8247 17.2989 11.5206
35127 11675 6 0.7 15.275 18.0565 11.0121
35128 11675 5 -0.35 15.9914 18.814 10.5036
35138 11679 5 -0.35 21.7369 7.92936 6.99322
35139 11679 6 0.7 21.2215 7.05609 6.42993
35140 11679 5 -0.35 20.706 6.18282 5.86664
35159 11686 5 -0.35 23.1051 13.078 1.09473
35160 11686 6 0.7 24.0993 12.7008 0.631236
35161 11686 5 -0.35 25.0936 12.3236 0.167747
35180 11693 5 -0.35 21.6483 6.72301 11.7707
35181 11693 6 0.7 21.3765 6.50331 10.6646
35182 11693 5 -0.35 21.1047 6.28361 9.55851
35183 11694 5 -0.35 17.9608 8.67222 10.1843
35184 11694 6 0.7 18.4679 8.3977 9.17778
35185 11694 5 -0.35 18.9749 8.12319 8.17123
35192 11697 5 -0.35 24.0028 13.6155 4.56283
35193 11697 6 0.7 24.4062 13.994 5.58242
35194 11697 5 -0.35 24.8096 14.3726 6.602
35204 11701 5 -0.35 23.6116 7.33199 14.168
35205 11701 6 0.7 23.2176 8.39974 13.9439
35206 11701 5 -0.35 22.8235 9.46749 13.7198
35213 11704 5 -0.35 14.2037 7.47104 5.43563
35214 11704 6 0.7 15.0702 7.19625 4.71499
35215 11704 5 -0.35 15.9367 6.92147 3.99436
35216 11705 5 -0.35 14.6784 10.3482 9.14056
35217 11705 6 0.7 14.8754 9.57023 9.97812
35218 11705 5 -0.35 15.0724 8.79221 10.8157
35225 11708 5 -0.35 21.1652 10.0265 4.71928
35226 11708 6 0.7 21.6404 10.4791 3.76279
35227 11708 5 -0.35 22.1156 10.9317 2.8063
35228 11709 5 -0.35 11.5781 14.4469 3.27618
35229 11709 6 0.7 12.5425 14.4795 2.63234
35230 11709 5 -0.35 13.5069 14.512 1.98851
ITEM: TIMESTEP
50000
ITEM: NUMBER OF ATOMS
148
ITEM: BOX BOUNDS xy xz yz pp pp pp
0.0000000000000000e+00 3.6531964750000000e+01 9.1329911900000003e+00
0.0000000000000000e+00 2.1091739680000000e+01 9.1329911900000003e+00
0.0000000000000000e+00 1.4914112149999999e+01 5.2729349200000000e+00
ITEM: ATOMS id mol type q x y z
1 1 1 1.10383 27.399 17.6496 10.5383
2 1 1 1.10383 9.13299 3.44217 4.3758
3 1 1 1.10383 27.399 15.8188 13.1274
4 1 1 1.10383 9.13299 5.27293 1.78671
5 1 1 1.10383 25.8135 14.9034 10.5383
6 1 1 1.10383 10.7185 6.18832 4.3758
7 1 1 1.10383 28.9845 14.9034 10.5383
8 1 1 1.10383 7.5475 6.18832 4.3758
9 1 2 0.115889 18.266 5.48596 12.6084
10 1 2 0.115889 18.266 15.6058 2.30572
11 1 2 0.115888 18.266 13.716 0.969417
12 1 2 0.115888 18.266 7.37578 13.9447
13 1 2 0.11589 25.3934 11.4908 8.12521
14 1 2 0.11589 11.1386 9.60096 6.7889
15 1 2 0.115888 11.1386 11.4908 8.12521
16 1 2 0.115888 25.3934 9.60096 6.7889
17 1 2 0.115889 15.5206 8.96083 0.969417
18 1 2 0.115889 21.0114 12.1309 13.9447
19 1 2 0.115888 22.648 13.0758 12.6084
20 1 2 0.115888 13.884 8.01592 2.30572
21 1 2 0.115889 21.0114 3.90092 8.12521
22 1 2 0.115889 15.5206 17.1908 6.7889
23 1 2 0.115887 13.884 16.2459 8.12521
24 1 2 0.115887 22.648 4.84583 6.7889
25 1 2 0.115889 22.648 16.2459 8.12521
26 1 2 0.115889 13.884 4.84583 6.7889
27 1 2 0.115887 15.5206 3.90092 8.12521
28 1 2 0.115887 21.0114 17.1908 6.7889
29 1 2 0.115889 21.0114 8.96083 0.969417
30 1 2 0.115889 15.5206 12.1309 13.9447
31 1 2 0.115887 13.884 13.0758 12.6084
32 1 2 0.115887 22.648 8.01592 2.30572
33 1 3 0.671939 27.399 18.7442 13.2542
34 1 3 0.671939 9.13299 2.34751 1.65994
35 1 3 0.671939 27.399 12.8934 9.117
36 1 3 0.671939 9.13299 8.19836 5.79712
37 1 3 0.67194 24.8655 14.3561 13.2542
38 1 3 0.67194 11.6665 6.73565 1.65994
39 1 3 0.67194 29.9325 17.2815 9.117
40 1 3 0.67194 6.5995 3.81022 5.79712
41 1 3 0.67194 24.8655 17.2815 9.117
42 1 3 0.67194 11.6665 3.81022 5.79712
43 1 3 0.67194 29.9325 14.3561 13.2542
44 1 3 0.67194 6.5995 6.73565 1.65994
45 1 3 -0.11508 27.399 19.957 14.1117
46 1 3 -0.11508 9.13299 1.13474 0.802379
47 1 3 -0.11508 27.399 11.6806 8.25944
48 1 3 -0.11508 9.13299 9.41113 6.65468
49 1 3 -0.11508 23.8152 13.7497 14.1117
50 1 3 -0.11508 12.7168 7.34203 0.802379
51 1 3 -0.11508 30.9828 17.8879 8.25944
52 1 3 -0.11508 5.54921 3.20384 6.65468
53 1 3 -0.11508 23.8152 17.8879 8.25944
54 1 3 -0.11508 12.7168 3.20384 6.65468
55 1 3 -0.11508 30.9828 13.7497 14.1117
56 1 3 -0.11508 5.54921 7.34203 0.802379
57 1 3 -0.0559 18.266 5.39949 13.5316
58 1 3 -0.0559 18.266 15.6923 1.38254
59 1 3 -0.055903 18.266 14.5575 0.580159
60 1 3 -0.055903 18.266 6.53422 14.334
61 1 3 -0.0559 26.1971 11.1132 7.85825
62 1 3 -0.0559 10.3349 9.9785 7.05587
63 1 3 -0.055903 10.3349 11.1132 7.85825
64 1 3 -0.055903 26.1971 9.9785 7.05587
65 1 3 -0.0559 14.7918 8.54005 0.580159
66 1 3 -0.0559 21.7402 12.5517 14.334
67 1 3 -0.055903 22.7229 13.1191 13.5316
68 1 3 -0.055903 13.8091 7.97268 1.38254
69 1 3 -0.0559 21.7402 3.39366 7.85825
70 1 3 -0.0559 14.7918 17.6981 7.05587
71 1 3 -0.055903 13.8091 17.1307 7.85825
72 1 3 -0.055903 22.7229 3.96103 7.05587
73 1 3 -0.055901 22.7229 17.1307 7.85825
74 1 3 -0.055901 13.8091 3.96103 7.05587
75 1 3 -0.055903 14.7918 3.39366 7.85825
76 1 3 -0.055903 21.7402 17.6981 7.05587
77 1 3 -0.0559 21.7402 8.54005 0.580159
78 1 3 -0.0559 14.7918 12.5517 14.334
79 1 3 -0.055903 13.8091 13.1191 13.5316
80 1 3 -0.055903 22.7229 7.97268 1.38254
81 1 4 -1.26215 27.399 15.8188 11.1856
82 1 4 -1.26215 9.13299 5.27293 3.72853
83 1 4 -0.60118 27.399 18.9383 11.9641
84 1 4 -0.60118 9.13299 2.15347 2.95001
85 1 4 -0.601179 27.399 17.5926 13.8671
86 1 4 -0.601179 9.13299 3.49912 1.04697
87 1 4 -0.601179 26.2336 13.3722 9.45555
88 1 4 -0.601179 10.2984 7.71958 5.45857
89 1 4 -0.60118 28.5643 13.3722 9.45555
90 1 4 -0.60118 7.96762 7.71958 5.45857
91 1 4 -0.60118 25.8628 14.9319 13.8671
92 1 4 -0.60118 10.6692 6.15984 1.04697
93 1 4 -0.601179 24.6974 14.2591 11.9641
94 1 4 -0.601179 11.8345 6.83267 2.95001
95 1 4 -0.60118 28.9351 18.0514 9.45555
96 1 4 -0.60118 7.59682 3.04037 5.45857
97 1 4 -0.601179 30.1005 16.0329 9.45555
98 1 4 -0.601179 6.43145 5.05885 5.45857
99 1 4 -0.601179 24.6974 16.0329 9.45555
100 1 4 -0.601179 11.8345 5.05885 5.45857
101 1 4 -0.60118 25.8628 18.0514 9.45555
102 1 4 -0.60118 10.6692 3.04037 5.45857
103 1 4 -0.60118 28.9351 14.9319 13.8671
104 1 4 -0.60118 7.59682 6.15984 1.04697
105 1 4 -0.60118 30.1005 14.2591 11.9641
106 1 4 -0.60118 6.43145 6.83267 2.95001
34844 11581 5 -0.35 7.1204 4.87941 9.14089
34845 11581 6 0.7 7.36847 3.79229 9.46062
34846 11581 5 -0.35 16.7495 18.524 9.78034
35054 11651 5 -0.35 16.2296 5.17491 10.6777
35055 11651 6 0.7 15.8334 4.25603 11.2644
35056 11651 5 -0.35 24.5702 19.156 11.8512
35093 11664 5 -0.35 26.9793 11.9588 14.2407
35094 11664 6 0.7 17.9972 7.40207 0.226569
35095 11664 5 -0.35 18.148 8.11826 1.12652
35327 11742 5 -0.35 3.72922 1.46969 2.72935
35328 11742 6 0.7 4.8638 1.69588 2.64473
35329 11742 5 -0.35 5.99838 1.92208 2.5601
35441 11780 5 -0.35 19.6158 4.94428 1.78793
35442 11780 6 0.7 19.4264 5.05905 2.92659
35443 11780 5 -0.35 19.2369 5.17383 4.06525
35642 11847 5 -0.35 23.766 7.48993 7.17713
35643 11847 6 0.7 23.1208 7.65621 6.22757
35644 11847 5 -0.35 22.4756 7.8225 5.27802
35666 11855 5 -0.35 27.0378 15.0875 6.6581
35667 11855 6 0.7 26.1305 14.453 6.31198
35668 11855 5 -0.35 25.2232 13.8186 5.96586
35690 11863 5 -0.35 14.1561 16.4549 11.2822
35691 11863 6 0.7 14.565 15.5231 10.7252
35692 11863 5 -0.35 14.9739 14.5913 10.1683
35765 11888 5 -0.35 9.91635 5.28612 8.10649
35766 11888 6 0.7 10.2895 4.30161 8.59345
35767 11888 5 -0.35 10.6626 3.31709 9.0804
35828 11909 5 -0.35 20.89 16.2783 14.2302
35829 11909 6 0.7 20.8596 15.9963 13.1054
35830 11909 5 -0.35 20.8291 15.7144 11.9806
35834 11911 5 -0.35 18.1932 14.5318 11.1266
35835 11911 6 0.7 18.6729 14.5451 10.0706
35836 11911 5 -0.35 19.1527 14.5584 9.01453
35855 11918 5 -0.35 16.0356 12.8089 1.84467
35856 11918 6 0.7 16.1526 13.3323 2.87327
35857 11918 5 -0.35 16.2696 13.8557 3.90187
35873 11924 5 -0.35 12.836 0.896279 1.72702
35874 11924 6 0.7 21.6996 15.9011 2.5083
35875 11924 5 -0.35 21.4302 15.087 3.28958
35876 11925 5 -0.35 32.2054 20.6696 14.3256
35877 11925 6 0.7 23.4459 5.84804 13.8655
35878 11925 5 -0.35 23.8194 6.84525 13.4054
ITEM: TIMESTEP
51000
ITEM: NUMBER OF ATOMS
154
ITEM: BOX BOUNDS xy xz yz pp pp pp
0.0000000000000000e+00 3.6531964750000000e+01 9.1329911900000003e+00
0.0000000000000000e+00 2.1091739680000000e+01 9.1329911900000003e+00
0.0000000000000000e+00 1.4914112149999999e+01 5.2729349200000000e+00
ITEM: ATOMS id mol type q x y z
1 1 1 1.10383 27.399 17.6496 10.5383
2 1 1 1.10383 9.13299 3.44217 4.3758
3 1 1 1.10383 27.399 15.8188 13.1274
4 1 1 1.10383 9.13299 5.27293 1.78671
5 1 1 1.10383 25.8135 14.9034 10.5383
6 1 1 1.10383 10.7185 6.18832 4.3758
7 1 1 1.10383 28.9845 14.9034 10.5383
8 1 1 1.10383 7.5475 6.18832 4.3758
9 1 2 0.115889 18.266 5.48596 12.6084
10 1 2 0.115889 18.266 15.6058 2.30572
11 1 2 0.115888 18.266 13.716 0.969417
12 1 2 0.115888 18.266 7.37578 13.9447
13 1 2 0.11589 25.3934 11.4908 8.12521
14 1 2 0.11589 11.1386 9.60096 6.7889
15 1 2 0.115888 11.1386 11.4908 8.12521
16 1 2 0.115888 25.3934 9.60096 6.7889
17 1 2 0.115889 15.5206 8.96083 0.969417
18 1 2 0.115889 21.0114 12.1309 13.9447
19 1 2 0.115888 22.648 13.0758 12.6084
20 1 2 0.115888 13.884 8.01592 2.30572
21 1 2 0.115889 21.0114 3.90092 8.12521
22 1 2 0.115889 15.5206 17.1908 6.7889
23 1 2 0.115887 13.884 16.2459 8.12521
24 1 2 0.115887 22.648 4.84583 6.7889
25 1 2 0.115889 22.648 16.2459 8.12521
26 1 2 0.115889 13.884 4.84583 6.7889
27 1 2 0.115887 15.5206 3.90092 8.12521
28 1 2 0.115887 21.0114 17.1908 6.7889
29 1 2 0.115889 21.0114 8.96083 0.969417
30 1 2 0.115889 15.5206 12.1309 13.9447
31 1 2 0.115887 13.884 13.0758 12.6084
32 1 2 0.115887 22.648 8.01592 2.30572
33 1 3 0.671939 27.399 18.7442 13.2542
34 1 3 0.671939 9.13299 2.34751 1.65994
35 1 3 0.671939 27.399 12.8934 9.117
36 1 3 0.671939 9.13299 8.19836 5.79712
37 1 3 0.67194 24.8655 14.3561 13.2542
38 1 3 0.67194 11.6665 6.73565 1.65994
39 1 3 0.67194 29.9325 17.2815 9.117
40 1 3 0.67194 6.5995 3.81022 5.79712
41 1 3 0.67194 24.8655 17.2815 9.117
42 1 3 0.67194 11.6665 3.81022 5.79712
43 1 3 0.67194 29.9325 14.3561 13.2542
44 1 3 0.67194 6.5995 6.73565 1.65994
45 1 3 -0.11508 27.399 19.957 14.1117
46 1 3 -0.11508 9.13299 1.13474 0.802379
47 1 3 -0.11508 27.399 11.6806 8.25944
48 1 3 -0.11508 9.13299 9.41113 6.65468
49 1 3 -0.11508 23.8152 13.7497 14.1117
50 1 3 -0.11508 12.7168 7.34203 0.802379
51 1 3 -0.11508 30.9828 17.8879 8.25944
52 1 3 -0.11508 5.54921 3.20384 6.65468
53 1 3 -0.11508 23.8152 17.8879 8.25944
54 1 3 -0.11508 12.7168 3.20384 6.65468
55 1 3 -0.11508 30.9828 13.7497 14.1117
56 1 3 -0.11508 5.54921 7.34203 0.802379
57 1 3 -0.0559 18.266 5.39949 13.5316
58 1 3 -0.0559 18.266 15.6923 1.38254
59 1 3 -0.055903 18.266 14.5575 0.580159
60 1 3 -0.055903 18.266 6.53422 14.334
61 1 3 -0.0559 26.1971 11.1132 7.85825
62 1 3 -0.0559 10.3349 9.9785 7.05587
63 1 3 -0.055903 10.3349 11.1132 7.85825
64 1 3 -0.055903 26.1971 9.9785 7.05587
65 1 3 -0.0559 14.7918 8.54005 0.580159
66 1 3 -0.0559 21.7402 12.5517 14.334
67 1 3 -0.055903 22.7229 13.1191 13.5316
68 1 3 -0.055903 13.8091 7.97268 1.38254
69 1 3 -0.0559 21.7402 3.39366 7.85825
70 1 3 -0.0559 14.7918 17.6981 7.05587
71 1 3 -0.055903 13.8091 17.1307 7.85825
72 1 3 -0.055903 22.7229 3.96103 7.05587
73 1 3 -0.055901 22.7229 17.1307 7.85825
74 1 3 -0.055901 13.8091 3.96103 7.05587
75 1 3 -0.055903 14.7918 3.39366 7.85825
76 1 3 -0.055903 21.7402 17.6981 7.05587
77 1 3 -0.0559 21.7402 8.54005 0.580159
78 1 3 -0.0559 14.7918 12.5517 14.334
79 1 3 -0.055903 13.8091 13.1191 13.5316
80 1 3 -0.055903 22.7229 7.97268 1.38254
81 1 4 -1.26215 27.399 15.8188 11.1856
82 1 4 -1.26215 9.13299 5.27293 3.72853
83 1 4 -0.60118 27.399 18.9383 11.9641
84 1 4 -0.60118 9.13299 2.15347 2.95001
85 1 4 -0.601179 27.399 17.5926 13.8671
86 1 4 -0.601179 9.13299 3.49912 1.04697
87 1 4 -0.601179 26.2336 13.3722 9.45555
88 1 4 -0.601179 10.2984 7.71958 5.45857
89 1 4 -0.60118 28.5643 13.3722 9.45555
90 1 4 -0.60118 7.96762 7.71958 5.45857
91 1 4 -0.60118 25.8628 14.9319 13.8671
92 1 4 -0.60118 10.6692 6.15984 1.04697
93 1 4 -0.601179 24.6974 14.2591 11.9641
94 1 4 -0.601179 11.8345 6.83267 2.95001
95 1 4 -0.60118 28.9351 18.0514 9.45555
96 1 4 -0.60118 7.59682 3.04037 5.45857
97 1 4 -0.601179 30.1005 16.0329 9.45555
98 1 4 -0.601179 6.43145 5.05885 5.45857
99 1 4 -0.601179 24.6974 16.0329 9.45555
100 1 4 -0.601179 11.8345 5.05885 5.45857
101 1 4 -0.60118 25.8628 18.0514 9.45555
102 1 4 -0.60118 10.6692 3.04037 5.45857
103 1 4 -0.60118 28.9351 14.9319 13.8671
104 1 4 -0.60118 7.59682 6.15984 1.04697
105 1 4 -0.60118 30.1005 14.2591 11.9641
106 1 4 -0.60118 6.43145 6.83267 2.95001
36116 12005 5 -0.35 12.4969 10.156 4.74373
36117 12005 6 0.7 12.1735 10.54 3.69804
36118 12005 5 -0.35 11.8501 10.9241 2.65234
36557 12152 5 -0.35 9.38227 8.67942 2.27169
36558 12152 6 0.7 9.27323 8.86634 1.13206
36559 12152 5 -0.35 18.2972 14.3262 14.9065
36593 12164 5 -0.35 12.7425 8.1076 10.7745
36594 12164 6 0.7 11.9541 7.25977 10.7022
36595 12164 5 -0.35 11.1657 6.41194 10.6299
36641 12180 5 -0.35 14.9359 8.48002 7.92582
36642 12180 6 0.7 13.8899 7.99114 7.81456
36643 12180 5 -0.35 12.8438 7.50226 7.7033
36647 12182 5 -0.35 24.2712 6.5675 10.0452
36648 12182 6 0.7 25.2866 6.94356 10.4611
36649 12182 5 -0.35 26.3021 7.31962 10.8771
36653 12184 5 -0.35 20.574 15.2667 3.78054
36654 12184 6 0.7 21.0002 16.3255 3.57325
36655 12184 5 -0.35 12.2934 1.56547 3.36595
36656 12185 5 -0.35 24.5955 10.5549 11.1857
36657 12185 6 0.7 25.3538 11.0969 11.8762
36658 12185 5 -0.35 26.1121 11.639 12.5667
36680 12193 5 -0.35 27.2283 15.6458 7.77264
36681 12193 6 0.7 26.9026 15.3572 6.69737
36682 12193 5 -0.35 26.577 15.0685 5.6221
36683 12194 5 -0.35 14.6759 2.02194 0.499826
36684 12194 6 0.7 14.0871 2.98247 0.77614
36685 12194 5 -0.35 13.4984 3.943 1.05245
36704 12201 5 -0.35 17.2999 2.28795 5.42176
36705 12201 6 0.7 16.9327 2.38891 4.32604
36706 12201 5 -0.35 16.5656 2.48987 3.23032
36728 12209 5 -0.35 9.07339 12.0443 4.50491
36729 12209 6 0.7 8.36761 11.4224 3.82618
36730 12209 5 -0.35 7.66183 10.8005 3.14746
36737 12212 5 -0.35 23.0751 12.3749 8.99244
36738 12212 6 0.7 23.3389 13.1204 8.14377
36739 12212 5 -0.35 23.6028 13.8659 7.2951
36776 12225 5 -0.35 21.2832 4.37776 1.70437
36777 12225 6 0.7 3.21172 4.19336 0.575763
36778 12225 5 -0.35 12.5393 9.2819 14.3613
36779 12226 5 -0.35 17.8192 10.6548 11.5793
36780 12226 6 0.7 17.5426 11.7811 11.5998
36781 12226 5 -0.35 17.266 12.9075 11.6202
36782 12227 5 -0.35 18.8288 15.2118 8.86419
36783 12227 6 0.7 18.2128 16.1474 9.16541
36784 12227 5 -0.35 17.5968 17.0831 9.46663
36785 12228 5 -0.35 27.6131 15.7619 1.64011
36786 12228 6 0.7 27.4304 15.8642 0.499172
36787 12228 5 -0.35 8.9816 5.42062 14.2723
ITEM: TIMESTEP
52000
ITEM: NUMBER OF ATOMS
136
ITEM: BOX BOUNDS xy xz yz pp pp pp
0.0000000000000000e+00 3.6531964750000000e+01 9.1329911900000003e+00
0.0000000000000000e+00 2.1091739680000000e+01 9.1329911900000003e+00
0.0000000000000000e+00 1.4914112149999999e+01 5.2729349200000000e+00
ITEM: ATOMS id mol type q x y z
1 1 1 1.10383 27.399 17.6496 10.5383
2 1 1 1.10383 9.13299 3.44217 4.3758
3 1 1 1.10383 27.399 15.8188 13.1274
4 1 1 1.10383 9.13299 5.27293 1.78671
5 1 1 1.10383 25.8135 14.9034 10.5383
6 1 1 1.10383 10.7185 6.18832 4.3758
7 1 1 1.10383 28.9845 14.9034 10.5383
8 1 1 1.10383 7.5475 6.18832 4.3758
9 1 2 0.115889 18.266 5.48596 12.6084
10 1 2 0.115889 18.266 15.6058 2.30572
11 1 2 0.115888 18.266 13.716 0.969417
12 1 2 0.115888 18.266 7.37578 13.9447
13 1 2 0.11589 25.3934 11.4908 8.12521
14 1 2 0.11589 11.1386 9.60096 6.7889
15 1 2 0.115888 11.1386 11.4908 8.12521
16 1 2 0.115888 25.3934 9.60096 6.7889
17 1 2 0.115889 15.5206 8.96083 0.969417
18 1 2 0.115889 21.0114 12.1309 13.9447
19 1 2 0.115888 22.648 13.0758 12.6084
20 1 2 0.115888 13.884 8.01592 2.30572
21 1 2 0.115889 21.0114 3.90092 8.12521
22 1 2 0.115889 15.5206 17.1908 6.7889
23 1 2 0.115887 13.884 16.2459 8.12521
24 1 2 0.115887 22.648 4.84583 6.7889
25 1 2 0.115889 22.648 16.2459 8.12521
26 1 2 0.115889 13.884 4.84583 6.7889
27 1 2 0.115887 15.5206 3.90092 8.12521
28 1 2 0.115887 21.0114 17.1908 6.7889
29 1 2 0.115889 21.0114 8.96083 0.969417
30 1 2 0.115889 15.5206 12.1309 13.9447
31 1 2 0.115887 13.884 13.0758 12.6084
32 1 2 0.115887 22.648 8.01592 2.30572
33 1 3 0.671939 27.399 18.7442 13.2542
34 1 3 0.671939 9.13299 2.34751 1.65994
35 1 3 0.671939 27.399 12.8934 9.117
36 1 3 0.671939 9.13299 8.19836 5.79712
37 1 3 0.67194 24.8655 14.3561 13.2542
38 1 3 0.67194 11.6665 6.73565 1.65994
39 1 3 0.67194 29.9325 17.2815 9.117
40 1 3 0.67194 6.5995 3.81022 5.79712
41 1 3 0.67194 24.8655 17.2815 9.117
42 1 3 0.67194 11.6665 3.81022 5.79712
43 1 3 0.67194 29.9325 14.3561 13.2542
44 1 3 0.67194 6.5995 6.73565 1.65994
45 1 3 -0.11508 27.399 19.957 14.1117
46 1 3 -0.11508 9.13299 1.13474 0.802379
47 1 3 -0.11508 27.399 11.6806 8.25944
48 1 3 -0.11508 9.13299 9.41113 6.65468
49 1 3 -0.11508 23.8152 13.7497 14.1117
50 1 3 -0.11508 12.7168 7.34203 0.802379
51 1 3 -0.11508 30.9828 17.8879 8.25944
52 1 3 -0.11508 5.54921 3.20384 6.65468
53 1 3 -0.11508 23.8152 17.8879 8.25944
54 1 3 -0.11508 12.7168 3.20384 6.65468
55 1 3 -0.11508 30.9828 13.7497 14.1117
56 1 3 -0.11508 5.54921 7.34203 0.802379
57 1 3 -0.0559 18.266 5.39949 13.5316
58 1 3 -0.0559 18.266 15.6923 1.38254
59 1 3 -0.055903 18.266 14.5575 0.580159
60 1 3 -0.055903 18.266 6.53422 14.334
61 1 3 -0.0559 26.1971 11.1132 7.85825
62 1 3 -0.0559 10.3349 9.9785 7.05587
63 1 3 -0.055903 10.3349 11.1132 7.85825
64 1 3 -0.055903 26.1971 9.9785 7.05587
65 1 3 -0.0559 14.7918 8.54005 0.580159
66 1 3 -0.0559 21.7402 12.5517 14.334
67 1 3 -0.055903 22.7229 13.1191 13.5316
68 1 3 -0.055903 13.8091 7.97268 1.38254
69 1 3 -0.0559 21.7402 3.39366 7.85825
70 1 3 -0.0559 14.7918 17.6981 7.05587
71 1 3 -0.055903 13.8091 17.1307 7.85825
72 1 3 -0.055903 22.7229 3.96103 7.05587
73 1 3 -0.055901 22.7229 17.1307 7.85825
74 1 3 -0.055901 13.8091 3.96103 7.05587
75 1 3 -0.055903 14.7918 3.39366 7.85825
76 1 3 -0.055903 21.7402 17.6981 7.05587
77 1 3 -0.0559 21.7402 8.54005 0.580159
78 1 3 -0.0559 14.7918 12.5517 14.334
79 1 3 -0.055903 13.8091 13.1191 13.5316
80 1 3 -0.055903 22.7229 7.97268 1.38254
81 1 4 -1.26215 27.399 15.8188 11.1856
82 1 4 -1.26215 9.13299 5.27293 3.72853
83 1 4 -0.60118 27.399 18.9383 11.9641
84 1 4 -0.60118 9.13299 2.15347 2.95001
85 1 4 -0.601179 27.399 17.5926 13.8671
86 1 4 -0.601179 9.13299 3.49912 1.04697
87 1 4 -0.601179 26.2336 13.3722 9.45555
88 1 4 -0.601179 10.2984 7.71958 5.45857
89 1 4 -0.60118 28.5643 13.3722 9.45555
90 1 4 -0.60118 7.96762 7.71958 5.45857
91 1 4 -0.60118 25.8628 14.9319 13.8671
92 1 4 -0.60118 10.6692 6.15984 1.04697
93 1 4 -0.601179 24.6974 14.2591 11.9641
94 1 4 -0.601179 11.8345 6.83267 2.95001
95 1 4 -0.60118 28.9351 18.0514 9.45555
96 1 4 -0.60118 7.59682 3.04037 5.45857
97 1 4 -0.601179 30.1005 16.0329 9.45555
98 1 4 -0.601179 6.43145 5.05885 5.45857
99 1 4 -0.601179 24.6974 16.0329 9.45555
100 1 4 -0.601179 11.8345 5.05885 5.45857
101 1 4 -0.60118 25.8628 18.0514 9.45555
102 1 4 -0.60118 10.6692 3.04037 5.45857
103 1 4 -0.60118 28.9351 14.9319 13.8671
104 1 4 -0.60118 7.59682 6.15984 1.04697
105 1 4 -0.60118 30.1005 14.2591 11.9641
106 1 4 -0.60118 6.43145 6.83267 2.95001
37412 12437 5 -0.35 8.08198 6.78316 8.70051
37413 12437 6 0.7 8.5437 5.93738 8.05471
37414 12437 5 -0.35 9.00543 5.0916 7.4089
37496 12465 5 -0.35 5.18879 3.82846 2.76121
37497 12465 6 0.7 4.48303 4.48271 3.40885
37498 12465 5 -0.35 22.0432 5.13697 4.0565
37685 12528 5 -0.35 18.6414 5.72538 7.66527
37686 12528 6 0.7 17.7974 6.3205 8.19344
37687 12528 5 -0.35 16.9533 6.91562 8.7216
37721 12540 5 -0.35 25.1029 10.8904 11.2299
37722 12540 6 0.7 24.0707 10.6559 11.7044
37723 12540 5 -0.35 23.0385 10.4215 12.1789
37763 12554 5 -0.35 24.148 11.2746 1.0672
37764 12554 6 0.7 33.2084 16.7683 14.8448
37765 12554 5 -0.35 33.1357 16.9891 13.7084
37766 12555 5 -0.35 10.016 9.84804 1.40863
37767 12555 6 0.7 9.2752 9.94468 0.521228
37768 12555 5 -0.35 17.6674 15.3143 14.5479
37778 12559 5 -0.35 22.7789 10.6509 4.56924
37779 12559 6 0.7 21.7328 10.2423 4.27906
37780 12559 5 -0.35 20.6866 9.8338 3.98888
37784 12561 5 -0.35 2.61323 4.26 0.225857
37785 12561 6 0.7 11.494 9.56943 14.0083
37786 12561 5 -0.35 11.2417 9.60592 12.8767
37793 12564 5 -0.35 10.0725 3.92182 10.2219
37794 12564 6 0.7 18.8413 18.8052 9.6405
37795 12564 5 -0.35 18.477 17.8699 9.05911
37796 12565 5 -0.35 20.6625 6.95539 9.58729
37797 12565 6 0.7 21.7902 6.92669 9.31684
37798 12565 5 -0.35 22.9178 6.89799 9.04638
ITEM: TIMESTEP
53000
ITEM: NUMBER OF ATOMS
166
ITEM: BOX BOUNDS xy xz yz pp pp pp
0.0000000000000000e+00 3.6531964750000000e+01 9.1329911900000003e+00
0.0000000000000000e+00 2.1091739680000000e+01 9.1329911900000003e+00
0.0000000000000000e+00 1.4914112149999999e+01 5.2729349200000000e+00
ITEM: ATOMS id mol type q x y z
1 1 1 1.10383 27.399 17.6496 10.5383
2 1 1 1.10383 9.13299 3.44217 4.3758
3 1 1 1.10383 27.399 15.8188 13.1274
4 1 1 1.10383 9.13299 5.27293 1.78671
5 1 1 1.10383 25.8135 14.9034 10.5383
6 1 1 1.10383 10.7185 6.18832 4.3758
7 1 1 1.10383 28.9845 14.9034 10.5383
8 1 1 1.10383 7.5475 6.18832 4.3758
9 1 2 0.115889 18.266 5.48596 12.6084
10 1 2 0.115889 18.266 15.6058 2.30572
11 1 2 0.115888 18.266 13.716 0.969417
12 1 2 0.115888 18.266 7.37578 13.9447
13 1 2 0.11589 25.3934 11.4908 8.12521
14 1 2 0.11589 11.1386 9.60096 6.7889
15 1 2 0.115888 11.1386 11.4908 8.12521
16 1 2 0.115888 25.3934 9.60096 6.7889
17 1 2 0.115889 15.5206 8.96083 0.969417
18 1 2 0.115889 21.0114 12.1309 13.9447
19 1 2 0.115888 22.648 13.0758 12.6084
20 1 2 0.115888 13.884 8.01592 2.30572
21 1 2 0.115889 21.0114 3.90092 8.12521
22 1 2 0.115889 15.5206 17.1908 6.7889
23 1 2 0.115887 13.884 16.2459 8.12521
24 1 2 0.115887 22.648 4.84583 6.7889
25 1 2 0.115889 22.648 16.2459 8.12521
26 1 2 0.115889 13.884 4.84583 6.7889
27 1 2 0.115887 15.5206 3.90092 8.12521
28 1 2 0.115887 21.0114 17.1908 6.7889
29 1 2 0.115889 21.0114 8.96083 0.969417
30 1 2 0.115889 15.5206 12.1309 13.9447
31 1 2 0.115887 13.884 13.0758 12.6084
32 1 2 0.115887 22.648 8.01592 2.30572
33 1 3 0.671939 27.399 18.7442 13.2542
34 1 3 0.671939 9.13299 2.34751 1.65994
35 1 3 0.671939 27.399 12.8934 9.117
36 1 3 0.671939 9.13299 8.19836 5.79712
37 1 3 0.67194 24.8655 14.3561 13.2542
38 1 3 0.67194 11.6665 6.73565 1.65994
39 1 3 0.67194 29.9325 17.2815 9.117
40 1 3 0.67194 6.5995 3.81022 5.79712
41 1 3 0.67194 24.8655 17.2815 9.117
42 1 3 0.67194 11.6665 3.81022 5.79712
43 1 3 0.67194 29.9325 14.3561 13.2542
44 1 3 0.67194 6.5995 6.73565 1.65994
45 1 3 -0.11508 27.399 19.957 14.1117
46 1 3 -0.11508 9.13299 1.13474 0.802379
47 1 3 -0.11508 27.399 11.6806 8.25944
48 1 3 -0.11508 9.13299 9.41113 6.65468
49 1 3 -0.11508 23.8152 13.7497 14.1117
50 1 3 -0.11508 12.7168 7.34203 0.802379
51 1 3 -0.11508 30.9828 17.8879 8.25944
52 1 3 -0.11508 5.54921 3.20384 6.65468
53 1 3 -0.11508 23.8152 17.8879 8.25944
54 1 3 -0.11508 12.7168 3.20384 6.65468
55 1 3 -0.11508 30.9828 13.7497 14.1117
56 1 3 -0.11508 5.54921 7.34203 0.802379
57 1 3 -0.0559 18.266 5.39949 13.5316
58 1 3 -0.0559 18.266 15.6923 1.38254
59 1 3 -0.055903 18.266 14.5575 0.580159
60 1 3 -0.055903 18.266 6.53422 14.334
61 1 3 -0.0559 26.1971 11.1132 7.85825
62 1 3 -0.0559 10.3349 9.9785 7.05587
63 1 3 -0.055903 10.3349 11.1132 7.85825
64 1 3 -0.055903 26.1971 9.9785 7.05587
65 1 3 -0.0559 14.7918 8.54005 0.580159
66 1 3 -0.0559 21.7402 12.5517 14.334
67 1 3 -0.055903 22.7229 13.1191 13.5316
68 1 3 -0.055903 13.8091 7.97268 1.38254
69 1 3 -0.0559 21.7402 3.39366 7.85825
70 1 3 -0.0559 14.7918 17.6981 7.05587
71 1 3 -0.055903 13.8091 17.1307 7.85825
72 1 3 -0.055903 22.7229 3.96103 7.05587
73 1 3 -0.055901 22.7229 17.1307 7.85825
74 1 3 -0.055901 13.8091 3.96103 7.05587
75 1 3 -0.055903 14.7918 3.39366 7.85825
76 1 3 -0.055903 21.7402 17.6981 7.05587
77 1 3 -0.0559 21.7402 8.54005 0.580159
78 1 3 -0.0559 14.7918 12.5517 14.334
79 1 3 -0.055903 13.8091 13.1191 13.5316
80 1 3 -0.055903 22.7229 7.97268 1.38254
81 1 4 -1.26215 27.399 15.8188 11.1856
82 1 4 -1.26215 9.13299 5.27293 3.72853
83 1 4 -0.60118 27.399 18.9383 11.9641
84 1 4 -0.60118 9.13299 2.15347 2.95001
85 1 4 -0.601179 27.399 17.5926 13.8671
86 1 4 -0.601179 9.13299 3.49912 1.04697
87 1 4 -0.601179 26.2336 13.3722 9.45555
88 1 4 -0.601179 10.2984 7.71958 5.45857
89 1 4 -0.60118 28.5643 13.3722 9.45555
90 1 4 -0.60118 7.96762 7.71958 5.45857
91 1 4 -0.60118 25.8628 14.9319 13.8671
92 1 4 -0.60118 10.6692 6.15984 1.04697
93 1 4 -0.601179 24.6974 14.2591 11.9641
94 1 4 -0.601179 11.8345 6.83267 2.95001
95 1 4 -0.60118 28.9351 18.0514 9.45555
96 1 4 -0.60118 7.59682 3.04037 5.45857
97 1 4 -0.601179 30.1005 16.0329 9.45555
98 1 4 -0.601179 6.43145 5.05885 5.45857
99 1 4 -0.601179 24.6974 16.0329 9.45555
100 1 4 -0.601179 11.8345 5.05885 5.45857
101 1 4 -0.60118 25.8628 18.0514 9.45555
102 1 4 -0.60118 10.6692 3.04037 5.45857
103 1 4 -0.60118 28.9351 14.9319 13.8671
104 1 4 -0.60118 7.59682 6.15984 1.04697
105 1 4 -0.60118 30.1005 14.2591 11.9641
106 1 4 -0.60118 6.43145 6.83267 2.95001
38291 12730 5 -0.35 19.0397 10.6198 1.75983
38292 12730 6 0.7 18.5896 9.55171 1.80752
38293 12730 5 -0.35 18.1396 8.48365 1.8552
38312 12737 5 -0.35 18.5336 14.8704 13.183
38313 12737 6 0.7 18.5861 14.8588 14.3417
38314 12737 5 -0.35 9.50563 9.57417 0.586347
38342 12747 5 -0.35 12.0188 3.35986 1.59723
38343 12747 6 0.7 11.894 3.63343 0.476874
38344 12747 5 -0.35 20.9023 9.17994 14.2706
38348 12749 5 -0.35 18.3398 17.0999 7.75796
38349 12749 6 0.7 18.3672 16.6431 6.69202
38350 12749 5 -0.35 18.3947 16.1864 5.62609
38465 12788 5 -0.35 21.9807 13.4309 0.53357
38466 12788 6 0.7 30.9461 18.201 14.4159
38467 12788 5 -0.35 30.7784 17.6982 13.384
38546 12815 5 -0.35 26.5123 10.7564 13.3649
38547 12815 6 0.7 25.3644 10.6148 13.2769
38548 12815 5 -0.35 24.2164 10.4731 13.1889
38558 12819 5 -0.35 8.52044 6.1979 9.27607
38559 12819 6 0.7 8.62682 5.83028 8.18102
38560 12819 5 -0.35 8.7332 5.46266 7.08597
38567 12822 5 -0.35 23.9343 17.2046 13.8422
38568 12822 6 0.7 22.8826 17.6168 14.1058
38569 12822 5 -0.35 21.8308 18.0291 14.3694
38576 12825 5 -0.35 12.9002 13.1939 4.43341
38577 12825 6 0.7 13.3187 13.4253 3.37656
38578 12825 5 -0.35 13.7372 13.6566 2.31971
38582 12827 5 -0.35 17.2912 12.6054 3.62751
38583 12827 6 0.7 18.4297 12.7135 3.82214
38584 12827 5 -0.35 19.5681 12.8217 4.01676
38594 12831 5 -0.35 11.294 9.93679 3.51036
38595 12831 6 0.7 12.4148 10.2214 3.41871
38596 12831 5 -0.35 13.5356 10.506 3.32705
38615 12838 5 -0.35 5.59624 3.21711 2.13894
38616 12838 6 0.7 5.2691 2.14505 1.84016
38617 12838 5 -0.35 4.94195 1.07299 1.54139
38621 12840 5 -0.35 33.2928 19.5984 12.1212
38622 12840 6 0.7 23.7635 4.26873 11.1469
38623 12840 5 -0.35 23.3672 4.7579 10.1726
38627 12842 5 -0.35 15.6663 6.91232 4.53711
38628 12842 6 0.7 14.5881 7.20665 4.8477
38629 12842 5 -0.35 13.5099 7.50098 5.1583
38630 12843 5 -0.35 18.632 10.1334 12.7122
38631 12843 6 0.7 18.893 9.68816 11.6733
38632 12843 5 -0.35 19.154 9.24295 10.6344
38633 12844 5 -0.35 16.7685 8.97834 8.60492
38634 12844 6 0.7 16.457 9.5637 9.55674
38635 12844 5 -0.35 16.1456 10.1491 10.5086
38639 12846 5 -0.35 11.9122 9.99045 12.0385
38640 12846 6 0.7 11.1073 9.6647 11.2692
38641 12846 5 -0.35 10.3025 9.33895 10.5
38651 12850 5 -0.35 12.5638 6.53733 9.76416
38652 12850 6 0.7 12.9227 7.63925 9.71347
38653 12850 5 -0.35 13.2816 8.74116 9.66277
38654 12851 5 -0.35 22.3197 16.2142 2.27963
38655 12851 6 0.7 13.0586 0.605827 1.14608
38656 12851 5 -0.35 12.9305 0.816212 0.0125318
38657 12852 5 -0.35 22.2496 9.17572 7.03953
38658 12852 6 0.7 22.4036 9.49991 5.93646
38659 12852 5 -0.35 22.5576 9.82411 4.83338
ITEM: TIMESTEP
54000
ITEM: NUMBER OF ATOMS
187
ITEM: BOX BOUNDS xy xz yz pp pp pp
0.0000000000000000e+00 3.6531964750000000e+01 9.1329911900000003e+00
0.0000000000000000e+00 2.1091739680000000e+01 9.1329911900000003e+00
0.0000000000000000e+00 1.4914112149999999e+01 5.2729349200000000e+00
ITEM: ATOMS id mol type q x y z
1 1 1 1.10383 27.399 17.6496 10.5383
2 1 1 1.10383 9.13299 3.44217 4.3758
3 1 1 1.10383 27.399 15.8188 13.1274
4 1 1 1.10383 9.13299 5.27293 1.78671
5 1 1 1.10383 25.8135 14.9034 10.5383
6 1 1 1.10383 10.7185 6.18832 4.3758
7 1 1 1.10383 28.9845 14.9034 10.5383
8 1 1 1.10383 7.5475 6.18832 4.3758
9 1 2 0.115889 18.266 5.48596 12.6084
10 1 2 0.115889 18.266 15.6058 2.30572
11 1 2 0.115888 18.266 13.716 0.969417
12 1 2 0.115888 18.266 7.37578 13.9447
13 1 2 0.11589 25.3934 11.4908 8.12521
14 1 2 0.11589 11.1386 9.60096 6.7889
15 1 2 0.115888 11.1386 11.4908 8.12521
16 1 2 0.115888 25.3934 9.60096 6.7889
17 1 2 0.115889 15.5206 8.96083 0.969417
18 1 2 0.115889 21.0114 12.1309 13.9447
19 1 2 0.115888 22.648 13.0758 12.6084
20 1 2 0.115888 13.884 8.01592 2.30572
21 1 2 0.115889 21.0114 3.90092 8.12521
22 1 2 0.115889 15.5206 17.1908 6.7889
23 1 2 0.115887 13.884 16.2459 8.12521
24 1 2 0.115887 22.648 4.84583 6.7889
25 1 2 0.115889 22.648 16.2459 8.12521
26 1 2 0.115889 13.884 4.84583 6.7889
27 1 2 0.115887 15.5206 3.90092 8.12521
28 1 2 0.115887 21.0114 17.1908 6.7889
29 1 2 0.115889 21.0114 8.96083 0.969417
30 1 2 0.115889 15.5206 12.1309 13.9447
31 1 2 0.115887 13.884 13.0758 12.6084
32 1 2 0.115887 22.648 8.01592 2.30572
33 1 3 0.671939 27.399 18.7442 13.2542
34 1 3 0.671939 9.13299 2.34751 1.65994
35 1 3 0.671939 27.399 12.8934 9.117
36 1 3 0.671939 9.13299 8.19836 5.79712
37 1 3 0.67194 24.8655 14.3561 13.2542
38 1 3 0.67194 11.6665 6.73565 1.65994
39 1 3 0.67194 29.9325 17.2815 9.117
40 1 3 0.67194 6.5995 3.81022 5.79712
41 1 3 0.67194 24.8655 17.2815 9.117
42 1 3 0.67194 11.6665 3.81022 5.79712
43 1 3 0.67194 29.9325 14.3561 13.2542
44 1 3 0.67194 6.5995 6.73565 1.65994
45 1 3 -0.11508 27.399 19.957 14.1117
46 1 3 -0.11508 9.13299 1.13474 0.802379
47 1 3 -0.11508 27.399 11.6806 8.25944
48 1 3 -0.11508 9.13299 9.41113 6.65468
49 1 3 -0.11508 23.8152 13.7497 14.1117
50 1 3 -0.11508 12.7168 7.34203 0.802379
51 1 3 -0.11508 30.9828 17.8879 8.25944
52 1 3 -0.11508 5.54921 3.20384 6.65468
53 1 3 -0.11508 23.8152 17.8879 8.25944
54 1 3 -0.11508 12.7168 3.20384 6.65468
55 1 3 -0.11508 30.9828 13.7497 14.1117
56 1 3 -0.11508 5.54921 7.34203 0.802379
57 1 3 -0.0559 18.266 5.39949 13.5316
58 1 3 -0.0559 18.266 15.6923 1.38254
59 1 3 -0.055903 18.266 14.5575 0.580159
60 1 3 -0.055903 18.266 6.53422 14.334
61 1 3 -0.0559 26.1971 11.1132 7.85825
62 1 3 -0.0559 10.3349 9.9785 7.05587
63 1 3 -0.055903 10.3349 11.1132 7.85825
64 1 3 -0.055903 26.1971 9.9785 7.05587
65 1 3 -0.0559 14.7918 8.54005 0.580159
66 1 3 -0.0559 21.7402 12.5517 14.334
67 1 3 -0.055903 22.7229 13.1191 13.5316
68 1 3 -0.055903 13.8091 7.97268 1.38254
69 1 3 -0.0559 21.7402 3.39366 7.85825
70 1 3 -0.0559 14.7918 17.6981 7.05587
71 1 3 -0.055903 13.8091 17.1307 7.85825
72 1 3 -0.055903 22.7229 3.96103 7.05587
73 1 3 -0.055901 22.7229 17.1307 7.85825
74 1 3 -0.055901 13.8091 3.96103 7.05587
75 1 3 -0.055903 14.7918 3.39366 7.85825
76 1 3 -0.055903 21.7402 17.6981 7.05587
77 1 3 -0.0559 21.7402 8.54005 0.580159
78 1 3 -0.0559 14.7918 12.5517 14.334
79 1 3 -0.055903 13.8091 13.1191 13.5316
80 1 3 -0.055903 22.7229 7.97268 1.38254
81 1 4 -1.26215 27.399 15.8188 11.1856
82 1 4 -1.26215 9.13299 5.27293 3.72853
83 1 4 -0.60118 27.399 18.9383 11.9641
84 1 4 -0.60118 9.13299 2.15347 2.95001
85 1 4 -0.601179 27.399 17.5926 13.8671
86 1 4 -0.601179 9.13299 3.49912 1.04697
87 1 4 -0.601179 26.2336 13.3722 9.45555
88 1 4 -0.601179 10.2984 7.71958 5.45857
89 1 4 -0.60118 28.5643 13.3722 9.45555
90 1 4 -0.60118 7.96762 7.71958 5.45857
91 1 4 -0.60118 25.8628 14.9319 13.8671
92 1 4 -0.60118 10.6692 6.15984 1.04697
93 1 4 -0.601179 24.6974 14.2591 11.9641
94 1 4 -0.601179 11.8345 6.83267 2.95001
95 1 4 -0.60118 28.9351 18.0514 9.45555
96 1 4 -0.60118 7.59682 3.04037 5.45857
97 1 4 -0.601179 30.1005 16.0329 9.45555
98 1 4 -0.601179 6.43145 5.05885 5.45857
99 1 4 -0.601179 24.6974 16.0329 9.45555
100 1 4 -0.601179 11.8345 5.05885 5.45857
101 1 4 -0.60118 25.8628 18.0514 9.45555
102 1 4 -0.60118 10.6692 3.04037 5.45857
103 1 4 -0.60118 28.9351 14.9319 13.8671
104 1 4 -0.60118 7.59682 6.15984 1.04697
105 1 4 -0.60118 30.1005 14.2591 11.9641
106 1 4 -0.60118 6.43145 6.83267 2.95001
38756 12885 5 -0.35 23.9473 17.818 14.6638
38757 12885 6 0.7 15.5413 12.3902 0.640223
38758 12885 5 -0.35 16.2684 12.2353 1.53077
39095 12998 5 -0.35 10.4585 9.53983 1.09762
39096 12998 6 0.7 10.9866 10.1293 1.94567
39097 12998 5 -0.35 11.5147 10.7188 2.79372
39188 13029 5 -0.35 8.48383 6.50158 9.6087
39189 13029 6 0.7 8.96434 5.94958 8.7087
39190 13029 5 -0.35 9.44486 5.39758 7.8087
39251 13050 5 -0.35 16.6508 14.2006 3.80808
39252 13050 6 0.7 15.5254 14.245 3.53049
39253 13050 5 -0.35 14.4 14.2894 3.2529
39314 13071 5 -0.35 14.5672 5.89516 4.41637
39315 13071 6 0.7 14.1367 5.06269 3.73278
39316 13071 5 -0.35 13.7062 4.23023 3.04919
39320 13073 5 -0.35 28.8741 11.3114 13.1124
39321 13073 6 0.7 28.0997 12.0361 12.6427
39322 13073 5 -0.35 27.3252 12.7607 12.1729
39332 13077 5 -0.35 22.5147 17.439 11.4782
39333 13077 6 0.7 21.9934 17.1305 12.4675
39334 13077 5 -0.35 21.4722 16.822 13.4568
39338 13079 5 -0.35 12.8952 1.41772 0.843446
39339 13079 6 0.7 21.6713 16.2295 1.29531
39340 13079 5 -0.35 21.3144 15.2226 1.74718
39359 13086 5 -0.35 19.2006 7.84556 5.63665
39360 13086 6 0.7 19.5286 7.2682 6.58781
39361 13086 5 -0.35 19.8565 6.69084 7.53897
39377 13092 5 -0.35 29.089 14.6366 6.66136
39378 13092 6 0.7 11.7701 14.2975 7.23916
39379 13092 5 -0.35 12.7171 13.9585 7.81696
39380 13093 5 -0.35 31.9133 19.86 14.0117
39381 13093 6 0.7 31.4164 18.8119 14.0269
39382 13093 5 -0.35 30.9195 17.7638 14.0421
39383 13094 5 -0.35 17.1498 6.04349 0.376847
39384 13094 6 0.7 17.6152 5.85153 1.42194
39385 13094 5 -0.35 18.0805 5.65957 2.46703
39386 13095 5 -0.35 17.7598 8.8602 2.06715
39387 13095 6 0.7 18.6683 9.49724 2.40536
39388 13095 5 -0.35 19.5768 10.1343 2.74357
39395 13098 5 -0.35 6.67802 3.52643 9.79725
39396 13098 6 0.7 15.2931 18.7756 10.6649
39397 13098 5 -0.35 33.0411 18.2059 11.5325
39398 13099 5 -0.35 18.8874 13.2448 10.7045
39399 13099 6 0.7 18.0027 12.5029 10.8167
39400 13099 5 -0.35 17.1181 11.761 10.9288
39419 13106 5 -0.35 21.3732 7.0238 11.5226
39420 13106 6 0.7 21.6515 5.92647 11.2696
39421 13106 5 -0.35 21.9298 4.82913 11.0166
39431 13110 5 -0.35 18.1731 17.8243 8.3051
39432 13110 6 0.7 18.1908 16.6731 8.16293
39433 13110 5 -0.35 18.2086 15.522 8.02076
39437 13112 5 -0.35 26.5495 16.7446 5.64701
39438 13112 6 0.7 26.7617 15.9182 4.86107
39439 13112 5 -0.35 26.9739 15.0918 4.07513
39440 13113 5 -0.35 20.0683 3.10108 0.584197
39441 13113 6 0.7 10.8599 7.92933 14.4296
39442 13113 5 -0.35 10.7845 7.48465 13.3609
39443 13114 5 -0.35 13.86 4.11058 0.0703992
39444 13114 6 0.7 23.4346 8.60508 14.2465
39445 13114 5 -0.35 23.8762 7.82665 13.5085
39446 13115 5 -0.35 23.1507 7.85542 8.5285
39447 13115 6 0.7 22.8356 8.06558 7.43208
39448 13115 5 -0.35 22.5204 8.27573 6.33567
39449 13116 5 -0.35 11.7989 5.45598 10.9116
39450 13116 6 0.7 11.2341 5.12822 11.8703
39451 13116 5 -0.35 10.6694 4.80047 12.8291
39452 13117 5 -0.35 5.62315 0.668141 0.650936
39453 13117 6 0.7 13.9143 5.89454 14.7684
39454 13117 5 -0.35 13.0724 5.848 13.9717
39455 13118 5 -0.35 18.0833 16.9765 14.3723
39456 13118 6 0.7 17.4664 16.0171 14.5832
39457 13118 5 -0.35 16.8494 15.0578 14.7941
39458 13119 5 -0.35 18.6806 11.9412 5.03146
39459 13119 6 0.7 19.2795 12.842 5.45021
39460 13119 5 -0.35 19.8784 13.7429 5.86895
39461 13120 5 -0.35 16.5114 8.70355 6.85622
39462 13120 6 0.7 16.3089 8.51437 5.72981
39463 13120 5 -0.35 16.1064 8.32519 4.60339
39464 13121 5 -0.35 24.159 10.885 3.96379
39465 13121 6 0.7 23.2614 10.8148 3.23231
39466 13121 5 -0.35 22.3639 10.7447 2.50083
ITEM: TIMESTEP
55000
ITEM: NUMBER OF ATOMS
196
ITEM: BOX BOUNDS xy xz yz pp pp pp
0.0000000000000000e+00 3.6531964750000000e+01 9.1329911900000003e+00
0.0000000000000000e+00 2.1091739680000000e+01 9.1329911900000003e+00
0.0000000000000000e+00 1.4914112149999999e+01 5.2729349200000000e+00
ITEM: ATOMS id mol type q x y z
1 1 1 1.10383 27.399 17.6496 10.5383
2 1 1 1.10383 9.13299 3.44217 4.3758
3 1 1 1.10383 27.399 15.8188 13.1274
4 1 1 1.10383 9.13299 5.27293 1.78671
5 1 1 1.10383 25.8135 14.9034 10.5383
6 1 1 1.10383 10.7185 6.18832 4.3758
7 1 1 1.10383 28.9845 14.9034 10.5383
8 1 1 1.10383 7.5475 6.18832 4.3758
9 1 2 0.115889 18.266 5.48596 12.6084
10 1 2 0.115889 18.266 15.6058 2.30572
11 1 2 0.115888 18.266 13.716 0.969417
12 1 2 0.115888 18.266 7.37578 13.9447
13 1 2 0.11589 25.3934 11.4908 8.12521
14 1 2 0.11589 11.1386 9.60096 6.7889
15 1 2 0.115888 11.1386 11.4908 8.12521
16 1 2 0.115888 25.3934 9.60096 6.7889
17 1 2 0.115889 15.5206 8.96083 0.969417
18 1 2 0.115889 21.0114 12.1309 13.9447
19 1 2 0.115888 22.648 13.0758 12.6084
20 1 2 0.115888 13.884 8.01592 2.30572
21 1 2 0.115889 21.0114 3.90092 8.12521
22 1 2 0.115889 15.5206 17.1908 6.7889
23 1 2 0.115887 13.884 16.2459 8.12521
24 1 2 0.115887 22.648 4.84583 6.7889
25 1 2 0.115889 22.648 16.2459 8.12521
26 1 2 0.115889 13.884 4.84583 6.7889
27 1 2 0.115887 15.5206 3.90092 8.12521
28 1 2 0.115887 21.0114 17.1908 6.7889
29 1 2 0.115889 21.0114 8.96083 0.969417
30 1 2 0.115889 15.5206 12.1309 13.9447
31 1 2 0.115887 13.884 13.0758 12.6084
32 1 2 0.115887 22.648 8.01592 2.30572
33 1 3 0.671939 27.399 18.7442 13.2542
34 1 3 0.671939 9.13299 2.34751 1.65994
35 1 3 0.671939 27.399 12.8934 9.117
36 1 3 0.671939 9.13299 8.19836 5.79712
37 1 3 0.67194 24.8655 14.3561 13.2542
38 1 3 0.67194 11.6665 6.73565 1.65994
39 1 3 0.67194 29.9325 17.2815 9.117
40 1 3 0.67194 6.5995 3.81022 5.79712
41 1 3 0.67194 24.8655 17.2815 9.117
42 1 3 0.67194 11.6665 3.81022 5.79712
43 1 3 0.67194 29.9325 14.3561 13.2542
44 1 3 0.67194 6.5995 6.73565 1.65994
45 1 3 -0.11508 27.399 19.957 14.1117
46 1 3 -0.11508 9.13299 1.13474 0.802379
47 1 3 -0.11508 27.399 11.6806 8.25944
48 1 3 -0.11508 9.13299 9.41113 6.65468
49 1 3 -0.11508 23.8152 13.7497 14.1117
50 1 3 -0.11508 12.7168 7.34203 0.802379
51 1 3 -0.11508 30.9828 17.8879 8.25944
52 1 3 -0.11508 5.54921 3.20384 6.65468
53 1 3 -0.11508 23.8152 17.8879 8.25944
54 1 3 -0.11508 12.7168 3.20384 6.65468
55 1 3 -0.11508 30.9828 13.7497 14.1117
56 1 3 -0.11508 5.54921 7.34203 0.802379
57 1 3 -0.0559 18.266 5.39949 13.5316
58 1 3 -0.0559 18.266 15.6923 1.38254
59 1 3 -0.055903 18.266 14.5575 0.580159
60 1 3 -0.055903 18.266 6.53422 14.334
61 1 3 -0.0559 26.1971 11.1132 7.85825
62 1 3 -0.0559 10.3349 9.9785 7.05587
63 1 3 -0.055903 10.3349 11.1132 7.85825
64 1 3 -0.055903 26.1971 9.9785 7.05587
65 1 3 -0.0559 14.7918 8.54005 0.580159
66 1 3 -0.0559 21.7402 12.5517 14.334
67 1 3 -0.055903 22.7229 13.1191 13.5316
68 1 3 -0.055903 13.8091 7.97268 1.38254
69 1 3 -0.0559 21.7402 3.39366 7.85825
70 1 3 -0.0559 14.7918 17.6981 7.05587
71 1 3 -0.055903 13.8091 17.1307 7.85825
72 1 3 -0.055903 22.7229 3.96103 7.05587
73 1 3 -0.055901 22.7229 17.1307 7.85825
74 1 3 -0.055901 13.8091 3.96103 7.05587
75 1 3 -0.055903 14.7918 3.39366 7.85825
76 1 3 -0.055903 21.7402 17.6981 7.05587
77 1 3 -0.0559 21.7402 8.54005 0.580159
78 1 3 -0.0559 14.7918 12.5517 14.334
79 1 3 -0.055903 13.8091 13.1191 13.5316
80 1 3 -0.055903 22.7229 7.97268 1.38254
81 1 4 -1.26215 27.399 15.8188 11.1856
82 1 4 -1.26215 9.13299 5.27293 3.72853
83 1 4 -0.60118 27.399 18.9383 11.9641
84 1 4 -0.60118 9.13299 2.15347 2.95001
85 1 4 -0.601179 27.399 17.5926 13.8671
86 1 4 -0.601179 9.13299 3.49912 1.04697
87 1 4 -0.601179 26.2336 13.3722 9.45555
88 1 4 -0.601179 10.2984 7.71958 5.45857
89 1 4 -0.60118 28.5643 13.3722 9.45555
90 1 4 -0.60118 7.96762 7.71958 5.45857
91 1 4 -0.60118 25.8628 14.9319 13.8671
92 1 4 -0.60118 10.6692 6.15984 1.04697
93 1 4 -0.601179 24.6974 14.2591 11.9641
94 1 4 -0.601179 11.8345 6.83267 2.95001
95 1 4 -0.60118 28.9351 18.0514 9.45555
96 1 4 -0.60118 7.59682 3.04037 5.45857
97 1 4 -0.601179 30.1005 16.0329 9.45555
98 1 4 -0.601179 6.43145 5.05885 5.45857
99 1 4 -0.601179 24.6974 16.0329 9.45555
100 1 4 -0.601179 11.8345 5.05885 5.45857
101 1 4 -0.60118 25.8628 18.0514 9.45555
102 1 4 -0.60118 10.6692 3.04037 5.45857
103 1 4 -0.60118 28.9351 14.9319 13.8671
104 1 4 -0.60118 7.59682 6.15984 1.04697
105 1 4 -0.60118 30.1005 14.2591 11.9641
106 1 4 -0.60118 6.43145 6.83267 2.95001
39320 13073 5 -0.35 26.9543 8.69192 10.5675
39321 13073 6 0.7 26.5859 9.68801 11.034
39322 13073 5 -0.35 26.2174 10.6841 11.5005
39332 13077 5 -0.35 19.9977 17.389 11.0231
39333 13077 6 0.7 19.7523 16.8759 12.0341
39334 13077 5 -0.35 19.507 16.3629 13.0451
39599 13166 5 -0.35 16.6465 15.5858 9.16571
39600 13166 6 0.7 16.7442 16.731 9.32293
39601 13166 5 -0.35 16.8419 17.8761 9.48015
39617 13172 5 -0.35 21.4111 6.63573 14.7324
39618 13172 6 0.7 12.3404 0.248786 0.13564
39619 13172 5 -0.35 21.5358 14.9536 0.452969
39671 13190 5 -0.35 23.1466 15.6128 4.23225
39672 13190 6 0.7 24.1435 15.5924 4.82502
39673 13190 5 -0.35 25.1404 15.5719 5.4178
39677 13192 5 -0.35 14.7375 15.545 4.34868
39678 13192 6 0.7 14.5896 15.1946 3.25281
39679 13192 5 -0.35 14.4416 14.8442 2.15695
39707 13202 5 -0.35 31.6454 18.5972 11.8576
39708 13202 6 0.7 32.6679 18.1167 12.1209
39709 13202 5 -0.35 15.4243 17.6361 12.3841
39716 13205 5 -0.35 25.0237 9.92385 3.10266
39717 13205 6 0.7 25.1711 11.0626 3.26766
39718 13205 5 -0.35 25.3185 12.2013 3.43266
39725 13208 5 -0.35 22.5747 11.7271 2.27416
39726 13208 6 0.7 22.7236 11.7081 1.12391
39727 13208 5 -0.35 32.0055 16.9621 14.8878
39731 13210 5 -0.35 5.62925 2.79635 1.60723
39732 13210 6 0.7 5.65361 3.34174 0.583725
39733 13210 5 -0.35 14.811 9.16007 14.4743
39734 13211 5 -0.35 21.1413 3.06195 3.63989
39735 13211 6 0.7 21.1427 4.02938 2.99983
39736 13211 5 -0.35 21.1441 4.99681 2.35977
39761 13220 5 -0.35 17.832 6.16096 5.39278
39762 13220 6 0.7 17.1625 6.38251 4.47179
39763 13220 5 -0.35 16.4929 6.60406 3.55081
39770 13223 5 -0.35 11.7182 3.6917 2.87302
39771 13223 6 0.7 12.8514 3.83111 3.07764
39772 13223 5 -0.35 13.9847 3.97053 3.28227
39773 13224 5 -0.35 7.41835 10.7444 0.335609
39774 13224 6 0.7 16.4424 15.4954 14.2195
39775 13224 5 -0.35 16.3335 14.9735 13.1893
39782 13227 5 -0.35 12.89 12.7631 5.78979
39783 13227 6 0.7 12.0933 13.5749 6.01758
39784 13227 5 -0.35 11.2966 14.3867 6.24538
39827 13242 5 -0.35 9.15872 4.74408 7.80496
39828 13242 6 0.7 8.92773 4.77444 8.94133
39829 13242 5 -0.35 8.69675 4.80479 10.0777
39830 13243 5 -0.35 24.4698 7.1876 14.7366
39831 13243 6 0.7 24.4185 7.6026 13.6546
39832 13243 5 -0.35 24.3671 8.0176 12.5726
39839 13246 5 -0.35 18.0907 2.08661 4.89156
39840 13246 6 0.7 27.3448 17.3733 5.91517
39841 13246 5 -0.35 27.466 16.8412 6.93879
39866 13255 5 -0.35 10.5167 6.47173 12.4713
39867 13255 6 0.7 10.9336 6.27593 11.4067
39868 13255 5 -0.35 11.3506 6.08012 10.3421
39878 13259 5 -0.35 10.6866 14.7986 1.29408
39879 13259 6 0.7 10.7054 14.5135 0.169806
39880 13259 5 -0.35 19.8572 19.5014 13.9596
39890 13263 5 -0.35 24.7444 14.5155 1.31709
39891 13263 6 0.7 25.2796 14.8729 0.352025
39892 13263 5 -0.35 34.9479 20.5032 14.3011
39893 13264 5 -0.35 12.0872 8.34461 14.3958
39894 13264 6 0.7 11.3001 9.02061 13.877
39895 13264 5 -0.35 28.779 9.69661 13.3583
39896 13265 5 -0.35 10.7362 11.8195 3.96401
39897 13265 6 0.7 10.6378 11.9132 2.812
39898 13265 5 -0.35 10.5393 12.0069 1.65999
39902 13267 5 -0.35 24.7626 7.33656 8.92042
39903 13267 6 0.7 23.8343 7.38123 8.22623
39904 13267 5 -0.35 22.906 7.4259 7.53204
39911 13270 5 -0.35 22.5962 9.7352 5.9923
39912 13270 6 0.7 22.8509 10.8669 5.99909
39913 13270 5 -0.35 23.1057 11.9985 6.00587
39917 13272 5 -0.35 17.129 10.3544 4.88153
39918 13272 6 0.7 16.385 11.0524 4.32942
39919 13272 5 -0.35 15.641 11.7505 3.77731
39920 13273 5 -0.35 19.1227 13.2339 6.44049
39921 13273 6 0.7 19.1603 13.0085 7.57775
39922 13273 5 -0.35 19.198 12.7831 8.71501
39923 13274 5 -0.35 13.386 7.23926 7.88477
39924 13274 6 0.7 13.696 7.25805 6.76713
39925 13274 5 -0.35 14.006 7.27683 5.64949
39926 13275 5 -0.35 13.5859 11.2054 9.8246
39927 13275 6 0.7 13.8709 11.1276 8.70287
39928 13275 5 -0.35 14.156 11.0498 7.58114
39929 13276 5 -0.35 21.7068 11.253 8.74646
39930 13276 6 0.7 21.9531 10.3067 9.37046
39931 13276 5 -0.35 22.1995 9.36037 9.99447
ITEM: TIMESTEP
56000
ITEM: NUMBER OF ATOMS
160
ITEM: BOX BOUNDS xy xz yz pp pp pp
0.0000000000000000e+00 3.6531964750000000e+01 9.1329911900000003e+00
0.0000000000000000e+00 2.1091739680000000e+01 9.1329911900000003e+00
0.0000000000000000e+00 1.4914112149999999e+01 5.2729349200000000e+00
ITEM: ATOMS id mol type q x y z
1 1 1 1.10383 27.399 17.6496 10.5383
2 1 1 1.10383 9.13299 3.44217 4.3758
3 1 1 1.10383 27.399 15.8188 13.1274
4 1 1 1.10383 9.13299 5.27293 1.78671
5 1 1 1.10383 25.8135 14.9034 10.5383
6 1 1 1.10383 10.7185 6.18832 4.3758
7 1 1 1.10383 28.9845 14.9034 10.5383
8 1 1 1.10383 7.5475 6.18832 4.3758
9 1 2 0.115889 18.266 5.48596 12.6084
10 1 2 0.115889 18.266 15.6058 2.30572
11 1 2 0.115888 18.266 13.716 0.969417
12 1 2 0.115888 18.266 7.37578 13.9447
13 1 2 0.11589 25.3934 11.4908 8.12521
14 1 2 0.11589 11.1386 9.60096 6.7889
15 1 2 0.115888 11.1386 11.4908 8.12521
16 1 2 0.115888 25.3934 9.60096 6.7889
17 1 2 0.115889 15.5206 8.96083 0.969417
18 1 2 0.115889 21.0114 12.1309 13.9447
19 1 2 0.115888 22.648 13.0758 12.6084
20 1 2 0.115888 13.884 8.01592 2.30572
21 1 2 0.115889 21.0114 3.90092 8.12521
22 1 2 0.115889 15.5206 17.1908 6.7889
23 1 2 0.115887 13.884 16.2459 8.12521
24 1 2 0.115887 22.648 4.84583 6.7889
25 1 2 0.115889 22.648 16.2459 8.12521
26 1 2 0.115889 13.884 4.84583 6.7889
27 1 2 0.115887 15.5206 3.90092 8.12521
28 1 2 0.115887 21.0114 17.1908 6.7889
29 1 2 0.115889 21.0114 8.96083 0.969417
30 1 2 0.115889 15.5206 12.1309 13.9447
31 1 2 0.115887 13.884 13.0758 12.6084
32 1 2 0.115887 22.648 8.01592 2.30572
33 1 3 0.671939 27.399 18.7442 13.2542
34 1 3 0.671939 9.13299 2.34751 1.65994
35 1 3 0.671939 27.399 12.8934 9.117
36 1 3 0.671939 9.13299 8.19836 5.79712
37 1 3 0.67194 24.8655 14.3561 13.2542
38 1 3 0.67194 11.6665 6.73565 1.65994
39 1 3 0.67194 29.9325 17.2815 9.117
40 1 3 0.67194 6.5995 3.81022 5.79712
41 1 3 0.67194 24.8655 17.2815 9.117
42 1 3 0.67194 11.6665 3.81022 5.79712
43 1 3 0.67194 29.9325 14.3561 13.2542
44 1 3 0.67194 6.5995 6.73565 1.65994
45 1 3 -0.11508 27.399 19.957 14.1117
46 1 3 -0.11508 9.13299 1.13474 0.802379
47 1 3 -0.11508 27.399 11.6806 8.25944
48 1 3 -0.11508 9.13299 9.41113 6.65468
49 1 3 -0.11508 23.8152 13.7497 14.1117
50 1 3 -0.11508 12.7168 7.34203 0.802379
51 1 3 -0.11508 30.9828 17.8879 8.25944
52 1 3 -0.11508 5.54921 3.20384 6.65468
53 1 3 -0.11508 23.8152 17.8879 8.25944
54 1 3 -0.11508 12.7168 3.20384 6.65468
55 1 3 -0.11508 30.9828 13.7497 14.1117
56 1 3 -0.11508 5.54921 7.34203 0.802379
57 1 3 -0.0559 18.266 5.39949 13.5316
58 1 3 -0.0559 18.266 15.6923 1.38254
59 1 3 -0.055903 18.266 14.5575 0.580159
60 1 3 -0.055903 18.266 6.53422 14.334
61 1 3 -0.0559 26.1971 11.1132 7.85825
62 1 3 -0.0559 10.3349 9.9785 7.05587
63 1 3 -0.055903 10.3349 11.1132 7.85825
64 1 3 -0.055903 26.1971 9.9785 7.05587
65 1 3 -0.0559 14.7918 8.54005 0.580159
66 1 3 -0.0559 21.7402 12.5517 14.334
67 1 3 -0.055903 22.7229 13.1191 13.5316
68 1 3 -0.055903 13.8091 7.97268 1.38254
69 1 3 -0.0559 21.7402 3.39366 7.85825
70 1 3 -0.0559 14.7918 17.6981 7.05587
71 1 3 -0.055903 13.8091 17.1307 7.85825
72 1 3 -0.055903 22.7229 3.96103 7.05587
73 1 3 -0.055901 22.7229 17.1307 7.85825
74 1 3 -0.055901 13.8091 3.96103 7.05587
75 1 3 -0.055903 14.7918 3.39366 7.85825
76 1 3 -0.055903 21.7402 17.6981 7.05587
77 1 3 -0.0559 21.7402 8.54005 0.580159
78 1 3 -0.0559 14.7918 12.5517 14.334
79 1 3 -0.055903 13.8091 13.1191 13.5316
80 1 3 -0.055903 22.7229 7.97268 1.38254
81 1 4 -1.26215 27.399 15.8188 11.1856
82 1 4 -1.26215 9.13299 5.27293 3.72853
83 1 4 -0.60118 27.399 18.9383 11.9641
84 1 4 -0.60118 9.13299 2.15347 2.95001
85 1 4 -0.601179 27.399 17.5926 13.8671
86 1 4 -0.601179 9.13299 3.49912 1.04697
87 1 4 -0.601179 26.2336 13.3722 9.45555
88 1 4 -0.601179 10.2984 7.71958 5.45857
89 1 4 -0.60118 28.5643 13.3722 9.45555
90 1 4 -0.60118 7.96762 7.71958 5.45857
91 1 4 -0.60118 25.8628 14.9319 13.8671
92 1 4 -0.60118 10.6692 6.15984 1.04697
93 1 4 -0.601179 24.6974 14.2591 11.9641
94 1 4 -0.601179 11.8345 6.83267 2.95001
95 1 4 -0.60118 28.9351 18.0514 9.45555
96 1 4 -0.60118 7.59682 3.04037 5.45857
97 1 4 -0.601179 30.1005 16.0329 9.45555
98 1 4 -0.601179 6.43145 5.05885 5.45857
99 1 4 -0.601179 24.6974 16.0329 9.45555
100 1 4 -0.601179 11.8345 5.05885 5.45857
101 1 4 -0.60118 25.8628 18.0514 9.45555
102 1 4 -0.60118 10.6692 3.04037 5.45857
103 1 4 -0.60118 28.9351 14.9319 13.8671
104 1 4 -0.60118 7.59682 6.15984 1.04697
105 1 4 -0.60118 30.1005 14.2591 11.9641
106 1 4 -0.60118 6.43145 6.83267 2.95001
40010 13303 5 -0.35 14.5344 13.9211 9.92032
40011 13303 6 0.7 14.0812 13.6263 8.89404
40012 13303 5 -0.35 13.6279 13.3315 7.86776
40031 13310 5 -0.35 27.9016 14.6693 6.52507
40032 13310 6 0.7 26.93 15.3029 6.51511
40033 13310 5 -0.35 25.9584 15.9366 6.50514
40301 13400 5 -0.35 15.3645 15.9634 14.1538
40302 13400 6 0.7 32.6657 16.5682 14.3752
40303 13400 5 -0.35 31.7009 17.173 14.5966
40346 13415 5 -0.35 4.17746 4.46212 1.44039
40347 13415 6 0.7 5.13341 3.82305 1.28763
40348 13415 5 -0.35 6.08936 3.18397 1.13487
40391 13430 5 -0.35 23.0195 17.0959 11.6158
40392 13430 6 0.7 22.3964 16.2857 11.0673
40393 13430 5 -0.35 21.7732 15.4755 10.5188
40424 13441 5 -0.35 3.76751 2.01553 2.6608
40425 13441 6 0.7 2.89061 1.38913 3.09007
40426 13441 5 -0.35 11.1467 16.5815 3.51934
40445 13448 5 -0.35 13.8289 15.1944 4.21481
40446 13448 6 0.7 14.5359 14.8616 3.35746
40447 13448 5 -0.35 15.2428 14.5289 2.50012
40472 13457 5 -0.35 16.2278 16.9142 10.8935
40473 13457 6 0.7 16.7385 15.8894 11.0794
40474 13457 5 -0.35 17.2492 14.8646 11.2653
40484 13461 5 -0.35 26.7625 11.9292 12.082
40485 13461 6 0.7 26.3434 11.1596 12.842
40486 13461 5 -0.35 25.9243 10.39 13.6021
40559 13486 5 -0.35 8.40735 3.07911 8.13032
40560 13486 6 0.7 18.1004 17.9117 8.37387
40561 13486 5 -0.35 18.6605 16.9255 8.61741
40565 13488 5 -0.35 7.91108 6.29617 8.02327
40566 13488 6 0.7 25.0691 6.3743 8.35787
40567 13488 5 -0.35 23.9612 6.45244 8.69248
40577 13492 5 -0.35 14.7688 6.50129 10.1599
40578 13492 6 0.7 15.9219 6.39071 10.0977
40579 13492 5 -0.35 17.0749 6.28013 10.0356
40589 13496 5 -0.35 14.4272 10.3685 6.94609
40590 13496 6 0.7 13.9336 10.9218 6.05395
40591 13496 5 -0.35 13.4401 11.4751 5.1618
40592 13497 5 -0.35 11.4219 9.68291 10.9675
40593 13497 6 0.7 11.4724 9.23546 12.0366
40594 13497 5 -0.35 11.5229 8.78801 13.1056
40598 13499 5 -0.35 12.0689 5.09071 9.53585
40599 13499 6 0.7 11.2897 4.28975 9.84739
40600 13499 5 -0.35 19.6436 19.3076 10.1589
40604 13501 5 -0.35 19.5198 4.05772 4.68041
40605 13501 6 0.7 18.4849 4.55005 4.85966
40606 13501 5 -0.35 17.45 5.04238 5.03892
40607 13502 5 -0.35 3.73216 0.839148 0.0916124
40608 13502 6 0.7 22.2262 20.8187 14.7676
40609 13502 5 -0.35 22.4543 19.7066 14.5294
40610 13503 5 -0.35 17.8886 13.6146 5.90384
40611 13503 6 0.7 17.6832 13.2838 4.81116
40612 13503 5 -0.35 17.4779 12.9529 3.71848
ITEM: TIMESTEP
57000
ITEM: NUMBER OF ATOMS
175
ITEM: BOX BOUNDS xy xz yz pp pp pp
0.0000000000000000e+00 3.6531964750000000e+01 9.1329911900000003e+00
0.0000000000000000e+00 2.1091739680000000e+01 9.1329911900000003e+00
0.0000000000000000e+00 1.4914112149999999e+01 5.2729349200000000e+00
ITEM: ATOMS id mol type q x y z
1 1 1 1.10383 27.399 17.6496 10.5383
2 1 1 1.10383 9.13299 3.44217 4.3758
3 1 1 1.10383 27.399 15.8188 13.1274
4 1 1 1.10383 9.13299 5.27293 1.78671
5 1 1 1.10383 25.8135 14.9034 10.5383
6 1 1 1.10383 10.7185 6.18832 4.3758
7 1 1 1.10383 28.9845 14.9034 10.5383
8 1 1 1.10383 7.5475 6.18832 4.3758
9 1 2 0.115889 18.266 5.48596 12.6084
10 1 2 0.115889 18.266 15.6058 2.30572
11 1 2 0.115888 18.266 13.716 0.969417
12 1 2 0.115888 18.266 7.37578 13.9447
13 1 2 0.11589 25.3934 11.4908 8.12521
14 1 2 0.11589 11.1386 9.60096 6.7889
15 1 2 0.115888 11.1386 11.4908 8.12521
16 1 2 0.115888 25.3934 9.60096 6.7889
17 1 2 0.115889 15.5206 8.96083 0.969417
18 1 2 0.115889 21.0114 12.1309 13.9447
19 1 2 0.115888 22.648 13.0758 12.6084
20 1 2 0.115888 13.884 8.01592 2.30572
21 1 2 0.115889 21.0114 3.90092 8.12521
22 1 2 0.115889 15.5206 17.1908 6.7889
23 1 2 0.115887 13.884 16.2459 8.12521
24 1 2 0.115887 22.648 4.84583 6.7889
25 1 2 0.115889 22.648 16.2459 8.12521
26 1 2 0.115889 13.884 4.84583 6.7889
27 1 2 0.115887 15.5206 3.90092 8.12521
28 1 2 0.115887 21.0114 17.1908 6.7889
29 1 2 0.115889 21.0114 8.96083 0.969417
30 1 2 0.115889 15.5206 12.1309 13.9447
31 1 2 0.115887 13.884 13.0758 12.6084
32 1 2 0.115887 22.648 8.01592 2.30572
33 1 3 0.671939 27.399 18.7442 13.2542
34 1 3 0.671939 9.13299 2.34751 1.65994
35 1 3 0.671939 27.399 12.8934 9.117
36 1 3 0.671939 9.13299 8.19836 5.79712
37 1 3 0.67194 24.8655 14.3561 13.2542
38 1 3 0.67194 11.6665 6.73565 1.65994
39 1 3 0.67194 29.9325 17.2815 9.117
40 1 3 0.67194 6.5995 3.81022 5.79712
41 1 3 0.67194 24.8655 17.2815 9.117
42 1 3 0.67194 11.6665 3.81022 5.79712
43 1 3 0.67194 29.9325 14.3561 13.2542
44 1 3 0.67194 6.5995 6.73565 1.65994
45 1 3 -0.11508 27.399 19.957 14.1117
46 1 3 -0.11508 9.13299 1.13474 0.802379
47 1 3 -0.11508 27.399 11.6806 8.25944
48 1 3 -0.11508 9.13299 9.41113 6.65468
49 1 3 -0.11508 23.8152 13.7497 14.1117
50 1 3 -0.11508 12.7168 7.34203 0.802379
51 1 3 -0.11508 30.9828 17.8879 8.25944
52 1 3 -0.11508 5.54921 3.20384 6.65468
53 1 3 -0.11508 23.8152 17.8879 8.25944
54 1 3 -0.11508 12.7168 3.20384 6.65468
55 1 3 -0.11508 30.9828 13.7497 14.1117
56 1 3 -0.11508 5.54921 7.34203 0.802379
57 1 3 -0.0559 18.266 5.39949 13.5316
58 1 3 -0.0559 18.266 15.6923 1.38254
59 1 3 -0.055903 18.266 14.5575 0.580159
60 1 3 -0.055903 18.266 6.53422 14.334
61 1 3 -0.0559 26.1971 11.1132 7.85825
62 1 3 -0.0559 10.3349 9.9785 7.05587
63 1 3 -0.055903 10.3349 11.1132 7.85825
64 1 3 -0.055903 26.1971 9.9785 7.05587
65 1 3 -0.0559 14.7918 8.54005 0.580159
66 1 3 -0.0559 21.7402 12.5517 14.334
67 1 3 -0.055903 22.7229 13.1191 13.5316
68 1 3 -0.055903 13.8091 7.97268 1.38254
69 1 3 -0.0559 21.7402 3.39366 7.85825
70 1 3 -0.0559 14.7918 17.6981 7.05587
71 1 3 -0.055903 13.8091 17.1307 7.85825
72 1 3 -0.055903 22.7229 3.96103 7.05587
73 1 3 -0.055901 22.7229 17.1307 7.85825
74 1 3 -0.055901 13.8091 3.96103 7.05587
75 1 3 -0.055903 14.7918 3.39366 7.85825
76 1 3 -0.055903 21.7402 17.6981 7.05587
77 1 3 -0.0559 21.7402 8.54005 0.580159
78 1 3 -0.0559 14.7918 12.5517 14.334
79 1 3 -0.055903 13.8091 13.1191 13.5316
80 1 3 -0.055903 22.7229 7.97268 1.38254
81 1 4 -1.26215 27.399 15.8188 11.1856
82 1 4 -1.26215 9.13299 5.27293 3.72853
83 1 4 -0.60118 27.399 18.9383 11.9641
84 1 4 -0.60118 9.13299 2.15347 2.95001
85 1 4 -0.601179 27.399 17.5926 13.8671
86 1 4 -0.601179 9.13299 3.49912 1.04697
87 1 4 -0.601179 26.2336 13.3722 9.45555
88 1 4 -0.601179 10.2984 7.71958 5.45857
89 1 4 -0.60118 28.5643 13.3722 9.45555
90 1 4 -0.60118 7.96762 7.71958 5.45857
91 1 4 -0.60118 25.8628 14.9319 13.8671
92 1 4 -0.60118 10.6692 6.15984 1.04697
93 1 4 -0.601179 24.6974 14.2591 11.9641
94 1 4 -0.601179 11.8345 6.83267 2.95001
95 1 4 -0.60118 28.9351 18.0514 9.45555
96 1 4 -0.60118 7.59682 3.04037 5.45857
97 1 4 -0.601179 30.1005 16.0329 9.45555
98 1 4 -0.601179 6.43145 5.05885 5.45857
99 1 4 -0.601179 24.6974 16.0329 9.45555
100 1 4 -0.601179 11.8345 5.05885 5.45857
101 1 4 -0.60118 25.8628 18.0514 9.45555
102 1 4 -0.60118 10.6692 3.04037 5.45857
103 1 4 -0.60118 28.9351 14.9319 13.8671
104 1 4 -0.60118 7.59682 6.15984 1.04697
105 1 4 -0.60118 30.1005 14.2591 11.9641
106 1 4 -0.60118 6.43145 6.83267 2.95001
40301 13400 5 -0.35 15.9736 15.2865 10.9036
40302 13400 6 0.7 15.1834 15.8508 11.5383
40303 13400 5 -0.35 32.6593 16.4151 12.173
41069 13656 5 -0.35 18.2252 14.3874 14.8007
41070 13656 6 0.7 18.2929 13.4498 14.1211
41071 13656 5 -0.35 18.3605 12.5122 13.4415
41093 13664 5 -0.35 14.1929 14.7308 5.63984
41094 13664 6 0.7 13.0823 15.025 5.7997
41095 13664 5 -0.35 11.9716 15.3191 5.95956
41183 13694 5 -0.35 24.7276 17.7042 12.3624
41184 13694 6 0.7 23.5699 17.7704 12.3941
41185 13694 5 -0.35 22.4122 17.8366 12.4259
41195 13698 5 -0.35 15.1838 7.91807 14.7997
41196 13698 6 0.7 15.8552 8.5578 14.1028
41197 13698 5 -0.35 16.5266 9.19753 13.406
41222 13707 5 -0.35 22.1566 13.8485 9.83227
41223 13707 6 0.7 22.6381 13.2934 8.93466
41224 13707 5 -0.35 23.1196 12.7384 8.03705
41267 13722 5 -0.35 14.6695 11.9633 10.1083
41268 13722 6 0.7 14.2214 12.4179 9.13971
41269 13722 5 -0.35 13.7733 12.8725 8.17115
41303 13734 5 -0.35 11.8817 3.81524 10.5724
41304 13734 6 0.7 20.2241 18.8992 10.1474
41305 13734 5 -0.35 19.4335 18.1644 9.72236
41309 13736 5 -0.35 18.9434 17.9895 14.6161
41310 13736 6 0.7 18.544 18.1242 13.5354
41311 13736 5 -0.35 18.1446 18.259 12.4547
41321 13740 5 -0.35 15.5587 19.1407 10.4424
41322 13740 6 0.7 7.19133 4.17266 10.6308
41323 13740 5 -0.35 7.957 5.02346 10.8192
41324 13741 5 -0.35 23.3818 11.704 5.49337
41325 13741 6 0.7 23.5555 12.8353 5.30486
41326 13741 5 -0.35 23.7293 13.9666 5.11636
41339 13746 5 -0.35 12.0175 3.36749 2.64528
41340 13746 6 0.7 12.3925 3.56553 1.56558
41341 13746 5 -0.35 12.7675 3.76357 0.485869
41342 13747 5 -0.35 11.337 9.83316 10.898
41343 13747 6 0.7 11.4986 8.69363 11.0427
41344 13747 5 -0.35 11.6601 7.55409 11.1874
41351 13750 5 -0.35 24.877 11.2844 2.11579
41352 13750 6 0.7 24.9853 11.4504 0.972856
41353 13750 5 -0.35 15.9606 16.8894 14.744
41357 13752 5 -0.35 14.3583 5.0665 12.0429
41358 13752 6 0.7 14.3632 5.64705 11.0386
41359 13752 5 -0.35 14.3681 6.22759 10.0343
41390 13763 5 -0.35 23.196 11.0333 10.993
41391 13763 6 0.7 24.157 10.8 11.5993
41392 13763 5 -0.35 25.1181 10.5667 12.2056
41396 13765 5 -0.35 15.6952 7.67387 7.61506
41397 13765 6 0.7 14.9349 8.46471 7.99206
41398 13765 5 -0.35 14.1746 9.25554 8.36906
41399 13766 5 -0.35 12.9067 11.0321 5.4125
41400 13766 6 0.7 12.6504 11.3123 4.31643
41401 13766 5 -0.35 12.3941 11.5925 3.22035
41402 13767 5 -0.35 13.7022 15.4343 1.98664
41403 13767 6 0.7 14.219 14.9825 1.05157
41404 13767 5 -0.35 14.7359 14.5307 0.116503
41408 13769 5 -0.35 16.8676 10.2412 10.3864
41409 13769 6 0.7 17.1518 11.3309 10.6645
41410 13769 5 -0.35 17.4361 12.4206 10.9426
41411 13770 5 -0.35 17.6693 13.7378 4.56267
41412 13770 6 0.7 18.5241 14.3713 5.02462
41413 13770 5 -0.35 19.379 15.0049 5.48658
41417 13772 5 -0.35 16.2091 11.8662 1.58983
41418 13772 6 0.7 15.7144 11.7046 2.62652
41419 13772 5 -0.35 15.2196 11.5431 3.66321
41420 13773 5 -0.35 22.1404 4.41092 3.47832
41421 13773 6 0.7 21.126 4.82998 3.10271
41422 13773 5 -0.35 20.1117 5.24905 2.72711
ITEM: TIMESTEP
58000
ITEM: NUMBER OF ATOMS
172
ITEM: BOX BOUNDS xy xz yz pp pp pp
0.0000000000000000e+00 3.6531964750000000e+01 9.1329911900000003e+00
0.0000000000000000e+00 2.1091739680000000e+01 9.1329911900000003e+00
0.0000000000000000e+00 1.4914112149999999e+01 5.2729349200000000e+00
ITEM: ATOMS id mol type q x y z
1 1 1 1.10383 27.399 17.6496 10.5383
2 1 1 1.10383 9.13299 3.44217 4.3758
3 1 1 1.10383 27.399 15.8188 13.1274
4 1 1 1.10383 9.13299 5.27293 1.78671
5 1 1 1.10383 25.8135 14.9034 10.5383
6 1 1 1.10383 10.7185 6.18832 4.3758
7 1 1 1.10383 28.9845 14.9034 10.5383
8 1 1 1.10383 7.5475 6.18832 4.3758
9 1 2 0.115889 18.266 5.48596 12.6084
10 1 2 0.115889 18.266 15.6058 2.30572
11 1 2 0.115888 18.266 13.716 0.969417
12 1 2 0.115888 18.266 7.37578 13.9447
13 1 2 0.11589 25.3934 11.4908 8.12521
14 1 2 0.11589 11.1386 9.60096 6.7889
15 1 2 0.115888 11.1386 11.4908 8.12521
16 1 2 0.115888 25.3934 9.60096 6.7889
17 1 2 0.115889 15.5206 8.96083 0.969417
18 1 2 0.115889 21.0114 12.1309 13.9447
19 1 2 0.115888 22.648 13.0758 12.6084
20 1 2 0.115888 13.884 8.01592 2.30572
21 1 2 0.115889 21.0114 3.90092 8.12521
22 1 2 0.115889 15.5206 17.1908 6.7889
23 1 2 0.115887 13.884 16.2459 8.12521
24 1 2 0.115887 22.648 4.84583 6.7889
25 1 2 0.115889 22.648 16.2459 8.12521
26 1 2 0.115889 13.884 4.84583 6.7889
27 1 2 0.115887 15.5206 3.90092 8.12521
28 1 2 0.115887 21.0114 17.1908 6.7889
29 1 2 0.115889 21.0114 8.96083 0.969417
30 1 2 0.115889 15.5206 12.1309 13.9447
31 1 2 0.115887 13.884 13.0758 12.6084
32 1 2 0.115887 22.648 8.01592 2.30572
33 1 3 0.671939 27.399 18.7442 13.2542
34 1 3 0.671939 9.13299 2.34751 1.65994
35 1 3 0.671939 27.399 12.8934 9.117
36 1 3 0.671939 9.13299 8.19836 5.79712
37 1 3 0.67194 24.8655 14.3561 13.2542
38 1 3 0.67194 11.6665 6.73565 1.65994
39 1 3 0.67194 29.9325 17.2815 9.117
40 1 3 0.67194 6.5995 3.81022 5.79712
41 1 3 0.67194 24.8655 17.2815 9.117
42 1 3 0.67194 11.6665 3.81022 5.79712
43 1 3 0.67194 29.9325 14.3561 13.2542
44 1 3 0.67194 6.5995 6.73565 1.65994
45 1 3 -0.11508 27.399 19.957 14.1117
46 1 3 -0.11508 9.13299 1.13474 0.802379
47 1 3 -0.11508 27.399 11.6806 8.25944
48 1 3 -0.11508 9.13299 9.41113 6.65468
49 1 3 -0.11508 23.8152 13.7497 14.1117
50 1 3 -0.11508 12.7168 7.34203 0.802379
51 1 3 -0.11508 30.9828 17.8879 8.25944
52 1 3 -0.11508 5.54921 3.20384 6.65468
53 1 3 -0.11508 23.8152 17.8879 8.25944
54 1 3 -0.11508 12.7168 3.20384 6.65468
55 1 3 -0.11508 30.9828 13.7497 14.1117
56 1 3 -0.11508 5.54921 7.34203 0.802379
57 1 3 -0.0559 18.266 5.39949 13.5316
58 1 3 -0.0559 18.266 15.6923 1.38254
59 1 3 -0.055903 18.266 14.5575 0.580159
60 1 3 -0.055903 18.266 6.53422 14.334
61 1 3 -0.0559 26.1971 11.1132 7.85825
62 1 3 -0.0559 10.3349 9.9785 7.05587
63 1 3 -0.055903 10.3349 11.1132 7.85825
64 1 3 -0.055903 26.1971 9.9785 7.05587
65 1 3 -0.0559 14.7918 8.54005 0.580159
66 1 3 -0.0559 21.7402 12.5517 14.334
67 1 3 -0.055903 22.7229 13.1191 13.5316
68 1 3 -0.055903 13.8091 7.97268 1.38254
69 1 3 -0.0559 21.7402 3.39366 7.85825
70 1 3 -0.0559 14.7918 17.6981 7.05587
71 1 3 -0.055903 13.8091 17.1307 7.85825
72 1 3 -0.055903 22.7229 3.96103 7.05587
73 1 3 -0.055901 22.7229 17.1307 7.85825
74 1 3 -0.055901 13.8091 3.96103 7.05587
75 1 3 -0.055903 14.7918 3.39366 7.85825
76 1 3 -0.055903 21.7402 17.6981 7.05587
77 1 3 -0.0559 21.7402 8.54005 0.580159
78 1 3 -0.0559 14.7918 12.5517 14.334
79 1 3 -0.055903 13.8091 13.1191 13.5316
80 1 3 -0.055903 22.7229 7.97268 1.38254
81 1 4 -1.26215 27.399 15.8188 11.1856
82 1 4 -1.26215 9.13299 5.27293 3.72853
83 1 4 -0.60118 27.399 18.9383 11.9641
84 1 4 -0.60118 9.13299 2.15347 2.95001
85 1 4 -0.601179 27.399 17.5926 13.8671
86 1 4 -0.601179 9.13299 3.49912 1.04697
87 1 4 -0.601179 26.2336 13.3722 9.45555
88 1 4 -0.601179 10.2984 7.71958 5.45857
89 1 4 -0.60118 28.5643 13.3722 9.45555
90 1 4 -0.60118 7.96762 7.71958 5.45857
91 1 4 -0.60118 25.8628 14.9319 13.8671
92 1 4 -0.60118 10.6692 6.15984 1.04697
93 1 4 -0.601179 24.6974 14.2591 11.9641
94 1 4 -0.601179 11.8345 6.83267 2.95001
95 1 4 -0.60118 28.9351 18.0514 9.45555
96 1 4 -0.60118 7.59682 3.04037 5.45857
97 1 4 -0.601179 30.1005 16.0329 9.45555
98 1 4 -0.601179 6.43145 5.05885 5.45857
99 1 4 -0.601179 24.6974 16.0329 9.45555
100 1 4 -0.601179 11.8345 5.05885 5.45857
101 1 4 -0.60118 25.8628 18.0514 9.45555
102 1 4 -0.60118 10.6692 3.04037 5.45857
103 1 4 -0.60118 28.9351 14.9319 13.8671
104 1 4 -0.60118 7.59682 6.15984 1.04697
105 1 4 -0.60118 30.1005 14.2591 11.9641
106 1 4 -0.60118 6.43145 6.83267 2.95001
41390 13763 5 -0.35 23.2591 10.27 11.4723
41391 13763 6 0.7 23.7166 10.3775 12.5328
41392 13763 5 -0.35 24.1741 10.485 13.5934
41573 13824 5 -0.35 27.4006 16.3107 7.22601
41574 13824 6 0.7 27.0276 17.1485 6.51563
41575 13824 5 -0.35 17.5216 2.16745 5.80525
41660 13853 5 -0.35 24.7015 14.0284 6.61324
41661 13853 6 0.7 23.9505 13.6264 7.40064
41662 13853 5 -0.35 23.1996 13.2244 8.18805
41687 13862 5 -0.35 19.0874 11.2514 11.6579
41688 13862 6 0.7 17.9899 10.9222 11.8386
41689 13862 5 -0.35 16.8924 10.593 12.0192
41756 13885 5 -0.35 12.4275 9.35107 9.77121
41757 13885 6 0.7 13.2683 10.15 9.78709
41758 13885 5 -0.35 14.1091 10.949 9.80297
41795 13898 5 -0.35 21.7164 6.55922 14.6253
41796 13898 6 0.7 12.4984 0.767904 0.745386
41797 13898 5 -0.35 21.5464 16.0683 1.77963
41825 13908 5 -0.35 15.4202 3.73419 3.38776
41826 13908 6 0.7 14.3826 4.15274 3.08152
41827 13908 5 -0.35 13.3449 4.57129 2.77528
41885 13928 5 -0.35 13.387 7.64163 6.43961
41886 13928 6 0.7 13.9648 8.34774 5.72328
41887 13928 5 -0.35 14.5426 9.05384 5.00694
41888 13929 5 -0.35 7.76673 5.71767 9.24606
41889 13929 6 0.7 8.33783 5.26475 8.34368
41890 13929 5 -0.35 8.90894 4.81183 7.44129
41894 13931 5 -0.35 24.3368 17.8762 14.4221
41895 13931 6 0.7 24.6372 17.6459 13.3256
41896 13931 5 -0.35 24.9376 17.4156 12.2291
41900 13933 5 -0.35 10.9138 11.7477 3.01068
41901 13933 6 0.7 11.3434 12.4389 2.18413
41902 13933 5 -0.35 11.7731 13.1301 1.35757
41903 13934 5 -0.35 13.7415 9.02633 14.7706
41904 13934 6 0.7 13.2719 9.30106 13.7461
41905 13934 5 -0.35 12.8023 9.5758 12.7216
41918 13939 5 -0.35 17.0665 6.07753 4.58011
41919 13939 6 0.7 16.7483 6.11765 3.46532
41920 13939 5 -0.35 16.4302 6.15776 2.35054
41921 13940 5 -0.35 14.3272 5.79945 14.7153
41922 13940 6 0.7 5.22322 0.679791 0.950696
41923 13940 5 -0.35 5.25226 0.833065 2.10016
41924 13941 5 -0.35 24.6429 11.6567 4.37107
41925 13941 6 0.7 24.3234 10.5437 4.43984
41926 13941 5 -0.35 24.0039 9.43074 4.5086
41930 13943 5 -0.35 27.2803 11.0175 12.7899
41931 13943 6 0.7 27.6869 11.2781 13.8446
41932 13943 5 -0.35 28.0936 11.5387 14.8992
41936 13945 5 -0.35 11.2608 13.9613 6.23154
41937 13945 6 0.7 10.8444 14.2644 5.19215
41938 13945 5 -0.35 10.428 14.5675 4.15276
41939 13946 5 -0.35 20.5197 10.5193 4.0671
41940 13946 6 0.7 19.503 9.99918 3.86353
41941 13946 5 -0.35 18.4863 9.4791 3.65996
41942 13947 5 -0.35 24.4179 10.6114 1.36954
41943 13947 6 0.7 24.4106 10.6583 0.210514
41944 13947 5 -0.35 15.2703 15.9781 13.9656
41948 13949 5 -0.35 16.7612 12.1648 4.70165
41949 13949 6 0.7 16.3454 12.6652 3.74129
41950 13949 5 -0.35 15.9295 13.1656 2.78094
41951 13950 5 -0.35 30.5312 18.1349 13.3132
41952 13950 6 0.7 31.2674 18.9752 13.0012
41953 13950 5 -0.35 32.0037 19.8156 12.6891
41954 13951 5 -0.35 18.1699 13.8435 8.88333
41955 13951 6 0.7 17.5015 14.1922 9.76497
41956 13951 5 -0.35 16.8332 14.5409 10.6466
ITEM: TIMESTEP
59000
ITEM: NUMBER OF ATOMS
205
ITEM: BOX BOUNDS xy xz yz pp pp pp
0.0000000000000000e+00 3.6531964750000000e+01 9.1329911900000003e+00
0.0000000000000000e+00 2.1091739680000000e+01 9.1329911900000003e+00
0.0000000000000000e+00 1.4914112149999999e+01 5.2729349200000000e+00
ITEM: ATOMS id mol type q x y z
1 1 1 1.10383 27.399 17.6496 10.5383
2 1 1 1.10383 9.13299 3.44217 4.3758
3 1 1 1.10383 27.399 15.8188 13.1274
4 1 1 1.10383 9.13299 5.27293 1.78671
5 1 1 1.10383 25.8135 14.9034 10.5383
6 1 1 1.10383 10.7185 6.18832 4.3758
7 1 1 1.10383 28.9845 14.9034 10.5383
8 1 1 1.10383 7.5475 6.18832 4.3758
9 1 2 0.115889 18.266 5.48596 12.6084
10 1 2 0.115889 18.266 15.6058 2.30572
11 1 2 0.115888 18.266 13.716 0.969417
12 1 2 0.115888 18.266 7.37578 13.9447
13 1 2 0.11589 25.3934 11.4908 8.12521
14 1 2 0.11589 11.1386 9.60096 6.7889
15 1 2 0.115888 11.1386 11.4908 8.12521
16 1 2 0.115888 25.3934 9.60096 6.7889
17 1 2 0.115889 15.5206 8.96083 0.969417
18 1 2 0.115889 21.0114 12.1309 13.9447
19 1 2 0.115888 22.648 13.0758 12.6084
20 1 2 0.115888 13.884 8.01592 2.30572
21 1 2 0.115889 21.0114 3.90092 8.12521
22 1 2 0.115889 15.5206 17.1908 6.7889
23 1 2 0.115887 13.884 16.2459 8.12521
24 1 2 0.115887 22.648 4.84583 6.7889
25 1 2 0.115889 22.648 16.2459 8.12521
26 1 2 0.115889 13.884 4.84583 6.7889
27 1 2 0.115887 15.5206 3.90092 8.12521
28 1 2 0.115887 21.0114 17.1908 6.7889
29 1 2 0.115889 21.0114 8.96083 0.969417
30 1 2 0.115889 15.5206 12.1309 13.9447
31 1 2 0.115887 13.884 13.0758 12.6084
32 1 2 0.115887 22.648 8.01592 2.30572
33 1 3 0.671939 27.399 18.7442 13.2542
34 1 3 0.671939 9.13299 2.34751 1.65994
35 1 3 0.671939 27.399 12.8934 9.117
36 1 3 0.671939 9.13299 8.19836 5.79712
37 1 3 0.67194 24.8655 14.3561 13.2542
38 1 3 0.67194 11.6665 6.73565 1.65994
39 1 3 0.67194 29.9325 17.2815 9.117
40 1 3 0.67194 6.5995 3.81022 5.79712
41 1 3 0.67194 24.8655 17.2815 9.117
42 1 3 0.67194 11.6665 3.81022 5.79712
43 1 3 0.67194 29.9325 14.3561 13.2542
44 1 3 0.67194 6.5995 6.73565 1.65994
45 1 3 -0.11508 27.399 19.957 14.1117
46 1 3 -0.11508 9.13299 1.13474 0.802379
47 1 3 -0.11508 27.399 11.6806 8.25944
48 1 3 -0.11508 9.13299 9.41113 6.65468
49 1 3 -0.11508 23.8152 13.7497 14.1117
50 1 3 -0.11508 12.7168 7.34203 0.802379
51 1 3 -0.11508 30.9828 17.8879 8.25944
52 1 3 -0.11508 5.54921 3.20384 6.65468
53 1 3 -0.11508 23.8152 17.8879 8.25944
54 1 3 -0.11508 12.7168 3.20384 6.65468
55 1 3 -0.11508 30.9828 13.7497 14.1117
56 1 3 -0.11508 5.54921 7.34203 0.802379
57 1 3 -0.0559 18.266 5.39949 13.5316
58 1 3 -0.0559 18.266 15.6923 1.38254
59 1 3 -0.055903 18.266 14.5575 0.580159
60 1 3 -0.055903 18.266 6.53422 14.334
61 1 3 -0.0559 26.1971 11.1132 7.85825
62 1 3 -0.0559 10.3349 9.9785 7.05587
63 1 3 -0.055903 10.3349 11.1132 7.85825
64 1 3 -0.055903 26.1971 9.9785 7.05587
65 1 3 -0.0559 14.7918 8.54005 0.580159
66 1 3 -0.0559 21.7402 12.5517 14.334
67 1 3 -0.055903 22.7229 13.1191 13.5316
68 1 3 -0.055903 13.8091 7.97268 1.38254
69 1 3 -0.0559 21.7402 3.39366 7.85825
70 1 3 -0.0559 14.7918 17.6981 7.05587
71 1 3 -0.055903 13.8091 17.1307 7.85825
72 1 3 -0.055903 22.7229 3.96103 7.05587
73 1 3 -0.055901 22.7229 17.1307 7.85825
74 1 3 -0.055901 13.8091 3.96103 7.05587
75 1 3 -0.055903 14.7918 3.39366 7.85825
76 1 3 -0.055903 21.7402 17.6981 7.05587
77 1 3 -0.0559 21.7402 8.54005 0.580159
78 1 3 -0.0559 14.7918 12.5517 14.334
79 1 3 -0.055903 13.8091 13.1191 13.5316
80 1 3 -0.055903 22.7229 7.97268 1.38254
81 1 4 -1.26215 27.399 15.8188 11.1856
82 1 4 -1.26215 9.13299 5.27293 3.72853
83 1 4 -0.60118 27.399 18.9383 11.9641
84 1 4 -0.60118 9.13299 2.15347 2.95001
85 1 4 -0.601179 27.399 17.5926 13.8671
86 1 4 -0.601179 9.13299 3.49912 1.04697
87 1 4 -0.601179 26.2336 13.3722 9.45555
88 1 4 -0.601179 10.2984 7.71958 5.45857
89 1 4 -0.60118 28.5643 13.3722 9.45555
90 1 4 -0.60118 7.96762 7.71958 5.45857
91 1 4 -0.60118 25.8628 14.9319 13.8671
92 1 4 -0.60118 10.6692 6.15984 1.04697
93 1 4 -0.601179 24.6974 14.2591 11.9641
94 1 4 -0.601179 11.8345 6.83267 2.95001
95 1 4 -0.60118 28.9351 18.0514 9.45555
96 1 4 -0.60118 7.59682 3.04037 5.45857
97 1 4 -0.601179 30.1005 16.0329 9.45555
98 1 4 -0.601179 6.43145 5.05885 5.45857
99 1 4 -0.601179 24.6974 16.0329 9.45555
100 1 4 -0.601179 11.8345 5.05885 5.45857
101 1 4 -0.60118 25.8628 18.0514 9.45555
102 1 4 -0.60118 10.6692 3.04037 5.45857
103 1 4 -0.60118 28.9351 14.9319 13.8671
104 1 4 -0.60118 7.59682 6.15984 1.04697
105 1 4 -0.60118 30.1005 14.2591 11.9641
106 1 4 -0.60118 6.43145 6.83267 2.95001
41888 13929 5 -0.35 7.92652 4.59855 8.8038
41889 13929 6 0.7 8.50775 5.02209 7.89364
41890 13929 5 -0.35 9.08898 5.44563 6.98349
41894 13931 5 -0.35 15.1509 13.1506 0.815302
41895 13931 6 0.7 24.0597 18.016 14.6667
41896 13931 5 -0.35 23.8355 17.6084 13.6041
42098 13999 5 -0.35 31.1241 17.4236 12.1755
42099 13999 6 0.7 32.2624 17.6127 12.0568
42100 13999 5 -0.35 33.4007 17.8019 11.9381
42125 14008 5 -0.35 22.9617 8.67543 8.97324
42126 14008 6 0.7 22.8645 9.10629 7.90061
42127 14008 5 -0.35 22.7674 9.53715 6.82798
42128 14009 5 -0.35 24.253 10.925 0.402695
42129 14009 6 0.7 23.1837 11.1732 0.777725
42130 14009 5 -0.35 22.1145 11.4215 1.15276
42161 14020 5 -0.35 22.8582 10.0807 12.8974
42162 14020 6 0.7 23.9506 10.3714 12.6371
42163 14020 5 -0.35 25.043 10.6622 12.3768
42170 14023 5 -0.35 27.6774 9.12877 14.3751
42171 14023 6 0.7 17.7355 3.50274 0.213665
42172 14023 5 -0.35 16.9266 3.14965 0.966389
42179 14026 5 -0.35 8.84873 10.5503 2.84101
42180 14026 6 0.7 8.93534 9.39434 2.79686
42181 14026 5 -0.35 9.02194 8.23842 2.75272
42221 14040 5 -0.35 20.6432 15.7261 12.747
42222 14040 6 0.7 20.7495 16.2318 13.7856
42223 14040 5 -0.35 20.8558 16.7375 14.8241
42230 14043 5 -0.35 18.7445 5.19547 5.10402
42231 14043 6 0.7 19.4593 5.87219 5.71779
42232 14043 5 -0.35 20.1741 6.5489 6.33156
42263 14054 5 -0.35 24.5781 7.70308 11.4303
42264 14054 6 0.7 24.0343 6.72394 11.7323
42265 14054 5 -0.35 23.4906 5.7448 12.0343
42281 14060 5 -0.35 12.305 13.8488 2.66468
42282 14060 6 0.7 11.8381 13.0742 3.39113
42283 14060 5 -0.35 11.3712 12.2997 4.11757
42287 14062 5 -0.35 12.0138 3.6946 2.84447
42288 14062 6 0.7 12.8771 4.00983 2.13665
42289 14062 5 -0.35 13.7403 4.32505 1.42883
42293 14064 5 -0.35 9.76121 8.83913 10.9705
42294 14064 6 0.7 9.26818 8.18495 10.1492
42295 14064 5 -0.35 8.77514 7.53078 9.32787
42308 14069 5 -0.35 18.7711 15.3653 10.4579
42309 14069 6 0.7 19.1571 16.4309 10.2107
42310 14069 5 -0.35 19.5431 17.4965 9.96349
42311 14070 5 -0.35 18.906 13.9641 14.1783
42312 14070 6 0.7 18.1203 13.9048 13.327
42313 14070 5 -0.35 17.3345 13.8456 12.4757
42320 14073 5 -0.35 4.49001 2.87533 3.38238
42321 14073 6 0.7 3.61408 2.50276 4.04536
42322 14073 5 -0.35 21.0041 2.13019 4.70833
42338 14079 5 -0.35 18.6011 18.7525 12.7651
42339 14079 6 0.7 18.3606 19.7984 12.3249
42340 14079 5 -0.35 8.98716 5.02558 11.8847
42347 14082 5 -0.35 18.0617 10.633 12.5899
42348 14082 6 0.7 18.9916 10.0529 12.21
42349 14082 5 -0.35 19.9215 9.47281 11.8301
42350 14083 5 -0.35 2.40328 1.3211 1.12988
42351 14083 6 0.7 2.30342 0.76087 0.119047
42352 14083 5 -0.35 11.3366 5.47358 14.0223
42371 14090 5 -0.35 13.3917 5.21944 9.96305
42372 14090 6 0.7 12.3648 5.11442 9.43391
42373 14090 5 -0.35 11.3379 5.00941 8.90478
42374 14091 5 -0.35 27.3756 15.7519 7.79042
42375 14091 6 0.7 27.8969 15.192 6.91836
42376 14091 5 -0.35 28.4181 14.6322 6.04629
42377 14092 5 -0.35 19.651 5.39394 10.0253
42378 14092 6 0.7 19.0723 6.17617 9.39381
42379 14092 5 -0.35 18.4935 6.95839 8.76231
42380 14093 5 -0.35 16.8781 12.3852 3.40922
42381 14093 6 0.7 16.2891 13.3556 3.64814
42382 14093 5 -0.35 15.7002 14.326 3.88705
42392 14097 5 -0.35 16.1651 2.98384 4.79172
42393 14097 6 0.7 15.7921 3.89962 4.1852
42394 14097 5 -0.35 15.4192 4.8154 3.57869
42395 14098 5 -0.35 17.0524 9.85123 8.72656
42396 14098 6 0.7 17.5653 9.5777 7.72274
42397 14098 5 -0.35 18.0783 9.30417 6.71891
42404 14101 5 -0.35 19.638 11.417 4.90322
42405 14101 6 0.7 19.7412 10.4903 4.2132
42406 14101 5 -0.35 19.8445 9.56356 3.52319
42407 14102 5 -0.35 17.3562 13.3214 8.56842
42408 14102 6 0.7 16.8632 14.3479 8.78945
42409 14102 5 -0.35 16.3702 15.3745 9.01047
42410 14103 5 -0.35 21.2547 13.526 6.89206
42411 14103 6 0.7 21.9682 12.9751 6.16202
42412 14103 5 -0.35 22.6817 12.4241 5.43198
42419 14106 5 -0.35 14.1065 8.55471 9.5056
42420 14106 6 0.7 14.1157 9.31232 8.62723
42421 14106 5 -0.35 14.125 10.0699 7.74886
42425 14108 5 -0.35 13.4991 13.2153 8.46724
42426 14108 6 0.7 13.6298 13.4561 7.34008
42427 14108 5 -0.35 13.7605 13.697 6.21292
42428 14109 5 -0.35 9.33345 14.7964 0.736032
42429 14109 6 0.7 9.22449 13.648 0.613742
42430 14109 5 -0.35 9.11552 12.4996 0.491452
42431 14110 5 -0.35 12.156 10.3073 13.3099
42432 14110 6 0.7 12.7894 9.37469 13.5833
42433 14110 5 -0.35 13.4228 8.44211 13.8566
ITEM: TIMESTEP
60000
ITEM: NUMBER OF ATOMS
160
ITEM: BOX BOUNDS xy xz yz pp pp pp
0.0000000000000000e+00 3.6531964750000000e+01 9.1329911900000003e+00
0.0000000000000000e+00 2.1091739680000000e+01 9.1329911900000003e+00
0.0000000000000000e+00 1.4914112149999999e+01 5.2729349200000000e+00
ITEM: ATOMS id mol type q x y z
1 1 1 1.10383 27.399 17.6496 10.5383
2 1 1 1.10383 9.13299 3.44217 4.3758
3 1 1 1.10383 27.399 15.8188 13.1274
4 1 1 1.10383 9.13299 5.27293 1.78671
5 1 1 1.10383 25.8135 14.9034 10.5383
6 1 1 1.10383 10.7185 6.18832 4.3758
7 1 1 1.10383 28.9845 14.9034 10.5383
8 1 1 1.10383 7.5475 6.18832 4.3758
9 1 2 0.115889 18.266 5.48596 12.6084
10 1 2 0.115889 18.266 15.6058 2.30572
11 1 2 0.115888 18.266 13.716 0.969417
12 1 2 0.115888 18.266 7.37578 13.9447
13 1 2 0.11589 25.3934 11.4908 8.12521
14 1 2 0.11589 11.1386 9.60096 6.7889
15 1 2 0.115888 11.1386 11.4908 8.12521
16 1 2 0.115888 25.3934 9.60096 6.7889
17 1 2 0.115889 15.5206 8.96083 0.969417
18 1 2 0.115889 21.0114 12.1309 13.9447
19 1 2 0.115888 22.648 13.0758 12.6084
20 1 2 0.115888 13.884 8.01592 2.30572
21 1 2 0.115889 21.0114 3.90092 8.12521
22 1 2 0.115889 15.5206 17.1908 6.7889
23 1 2 0.115887 13.884 16.2459 8.12521
24 1 2 0.115887 22.648 4.84583 6.7889
25 1 2 0.115889 22.648 16.2459 8.12521
26 1 2 0.115889 13.884 4.84583 6.7889
27 1 2 0.115887 15.5206 3.90092 8.12521
28 1 2 0.115887 21.0114 17.1908 6.7889
29 1 2 0.115889 21.0114 8.96083 0.969417
30 1 2 0.115889 15.5206 12.1309 13.9447
31 1 2 0.115887 13.884 13.0758 12.6084
32 1 2 0.115887 22.648 8.01592 2.30572
33 1 3 0.671939 27.399 18.7442 13.2542
34 1 3 0.671939 9.13299 2.34751 1.65994
35 1 3 0.671939 27.399 12.8934 9.117
36 1 3 0.671939 9.13299 8.19836 5.79712
37 1 3 0.67194 24.8655 14.3561 13.2542
38 1 3 0.67194 11.6665 6.73565 1.65994
39 1 3 0.67194 29.9325 17.2815 9.117
40 1 3 0.67194 6.5995 3.81022 5.79712
41 1 3 0.67194 24.8655 17.2815 9.117
42 1 3 0.67194 11.6665 3.81022 5.79712
43 1 3 0.67194 29.9325 14.3561 13.2542
44 1 3 0.67194 6.5995 6.73565 1.65994
45 1 3 -0.11508 27.399 19.957 14.1117
46 1 3 -0.11508 9.13299 1.13474 0.802379
47 1 3 -0.11508 27.399 11.6806 8.25944
48 1 3 -0.11508 9.13299 9.41113 6.65468
49 1 3 -0.11508 23.8152 13.7497 14.1117
50 1 3 -0.11508 12.7168 7.34203 0.802379
51 1 3 -0.11508 30.9828 17.8879 8.25944
52 1 3 -0.11508 5.54921 3.20384 6.65468
53 1 3 -0.11508 23.8152 17.8879 8.25944
54 1 3 -0.11508 12.7168 3.20384 6.65468
55 1 3 -0.11508 30.9828 13.7497 14.1117
56 1 3 -0.11508 5.54921 7.34203 0.802379
57 1 3 -0.0559 18.266 5.39949 13.5316
58 1 3 -0.0559 18.266 15.6923 1.38254
59 1 3 -0.055903 18.266 14.5575 0.580159
60 1 3 -0.055903 18.266 6.53422 14.334
61 1 3 -0.0559 26.1971 11.1132 7.85825
62 1 3 -0.0559 10.3349 9.9785 7.05587
63 1 3 -0.055903 10.3349 11.1132 7.85825
64 1 3 -0.055903 26.1971 9.9785 7.05587
65 1 3 -0.0559 14.7918 8.54005 0.580159
66 1 3 -0.0559 21.7402 12.5517 14.334
67 1 3 -0.055903 22.7229 13.1191 13.5316
68 1 3 -0.055903 13.8091 7.97268 1.38254
69 1 3 -0.0559 21.7402 3.39366 7.85825
70 1 3 -0.0559 14.7918 17.6981 7.05587
71 1 3 -0.055903 13.8091 17.1307 7.85825
72 1 3 -0.055903 22.7229 3.96103 7.05587
73 1 3 -0.055901 22.7229 17.1307 7.85825
74 1 3 -0.055901 13.8091 3.96103 7.05587
75 1 3 -0.055903 14.7918 3.39366 7.85825
76 1 3 -0.055903 21.7402 17.6981 7.05587
77 1 3 -0.0559 21.7402 8.54005 0.580159
78 1 3 -0.0559 14.7918 12.5517 14.334
79 1 3 -0.055903 13.8091 13.1191 13.5316
80 1 3 -0.055903 22.7229 7.97268 1.38254
81 1 4 -1.26215 27.399 15.8188 11.1856
82 1 4 -1.26215 9.13299 5.27293 3.72853
83 1 4 -0.60118 27.399 18.9383 11.9641
84 1 4 -0.60118 9.13299 2.15347 2.95001
85 1 4 -0.601179 27.399 17.5926 13.8671
86 1 4 -0.601179 9.13299 3.49912 1.04697
87 1 4 -0.601179 26.2336 13.3722 9.45555
88 1 4 -0.601179 10.2984 7.71958 5.45857
89 1 4 -0.60118 28.5643 13.3722 9.45555
90 1 4 -0.60118 7.96762 7.71958 5.45857
91 1 4 -0.60118 25.8628 14.9319 13.8671
92 1 4 -0.60118 10.6692 6.15984 1.04697
93 1 4 -0.601179 24.6974 14.2591 11.9641
94 1 4 -0.601179 11.8345 6.83267 2.95001
95 1 4 -0.60118 28.9351 18.0514 9.45555
96 1 4 -0.60118 7.59682 3.04037 5.45857
97 1 4 -0.601179 30.1005 16.0329 9.45555
98 1 4 -0.601179 6.43145 5.05885 5.45857
99 1 4 -0.601179 24.6974 16.0329 9.45555
100 1 4 -0.601179 11.8345 5.05885 5.45857
101 1 4 -0.60118 25.8628 18.0514 9.45555
102 1 4 -0.60118 10.6692 3.04037 5.45857
103 1 4 -0.60118 28.9351 14.9319 13.8671
104 1 4 -0.60118 7.59682 6.15984 1.04697
105 1 4 -0.60118 30.1005 14.2591 11.9641
106 1 4 -0.60118 6.43145 6.83267 2.95001
42755 14218 5 -0.35 12.2299 3.15554 2.45923
42756 14218 6 0.7 12.216 2.67297 1.40446
42757 14218 5 -0.35 12.202 2.19041 0.349692
42824 14241 5 -0.35 5.59972 1.14503 1.80691
42825 14241 6 0.7 14.9734 16.0023 2.40947
42826 14241 5 -0.35 15.2141 15.0407 3.01204
42845 14248 5 -0.35 13.2789 8.88398 13.0627
42846 14248 6 0.7 13.971 8.32039 12.3217
42847 14248 5 -0.35 14.663 7.7568 11.5808
42872 14257 5 -0.35 27.6965 11.2734 12.2046
42873 14257 6 0.7 28.4015 10.6765 11.503
42874 14257 5 -0.35 10.8405 10.0795 10.8014
42905 14268 5 -0.35 15.9453 4.19584 1.9489
42906 14268 6 0.7 15.9983 4.23169 0.790663
42907 14268 5 -0.35 25.1843 9.54048 14.5465
42908 14269 5 -0.35 11.5746 5.80266 11.6309
42909 14269 6 0.7 12.0802 6.26579 10.6953
42910 14269 5 -0.35 12.5859 6.72893 9.75963
42929 14276 5 -0.35 19.7819 5.55389 6.58328
42930 14276 6 0.7 19.4837 5.07769 5.56845
42931 14276 5 -0.35 19.1854 4.6015 4.55362
42965 14288 5 -0.35 20.5096 5.41482 0.557825
42966 14288 6 0.7 21.1472 5.41324 1.52684
42967 14288 5 -0.35 21.7849 5.41166 2.49585
42974 14291 5 -0.35 9.68661 9.00773 2.82303
42975 14291 6 0.7 10.2381 9.96524 3.17604
42976 14291 5 -0.35 10.7896 10.9228 3.52905
42983 14294 5 -0.35 15.0312 5.08706 13.4127
42984 14294 6 0.7 24.2284 19.8479 12.9413
42985 14294 5 -0.35 24.2926 18.7899 12.47
42986 14295 5 -0.35 24.0624 10.5724 2.3444
42987 14295 6 0.7 24.8763 10.6955 3.16172
42988 14295 5 -0.35 25.6902 10.8186 3.97904
42998 14299 5 -0.35 10.1546 3.76519 9.40811
42999 14299 6 0.7 9.67736 4.47741 8.6267
43000 14299 5 -0.35 9.20014 5.18963 7.84528
43031 14310 5 -0.35 25.1454 5.22384 9.99371
43032 14310 6 0.7 24.9161 6.33379 9.74662
43033 14310 5 -0.35 24.6869 7.44375 9.49953
43049 14316 5 -0.35 17.8323 7.68994 5.4866
43050 14316 6 0.7 18.638 8.52374 5.45154
43051 14316 5 -0.35 19.4437 9.35753 5.41647
43052 14317 5 -0.35 18.0875 12.6605 12.5417
43053 14317 6 0.7 18.0308 12.59 11.3853
43054 14317 5 -0.35 17.974 12.5196 10.2288
43058 14319 5 -0.35 18.4049 8.79326 10.5852
43059 14319 6 0.7 18.132 8.68382 9.46307
43060 14319 5 -0.35 17.8591 8.57439 8.34095
43064 14321 5 -0.35 14.9352 14.0815 6.22496
43065 14321 6 0.7 14.2772 13.1872 6.56111
43066 14321 5 -0.35 13.6192 12.293 6.89726
43067 14322 5 -0.35 17.1942 16.4901 11.0714
43068 14322 6 0.7 16.9678 15.9706 10.0592
43069 14322 5 -0.35 16.7415 15.4512 9.04696
ITEM: TIMESTEP
61000
ITEM: NUMBER OF ATOMS
196
ITEM: BOX BOUNDS xy xz yz pp pp pp
0.0000000000000000e+00 3.6531964750000000e+01 9.1329911900000003e+00
0.0000000000000000e+00 2.1091739680000000e+01 9.1329911900000003e+00
0.0000000000000000e+00 1.4914112149999999e+01 5.2729349200000000e+00
ITEM: ATOMS id mol type q x y z
1 1 1 1.10383 27.399 17.6496 10.5383
2 1 1 1.10383 9.13299 3.44217 4.3758
3 1 1 1.10383 27.399 15.8188 13.1274
4 1 1 1.10383 9.13299 5.27293 1.78671
5 1 1 1.10383 25.8135 14.9034 10.5383
6 1 1 1.10383 10.7185 6.18832 4.3758
7 1 1 1.10383 28.9845 14.9034 10.5383
8 1 1 1.10383 7.5475 6.18832 4.3758
9 1 2 0.115889 18.266 5.48596 12.6084
10 1 2 0.115889 18.266 15.6058 2.30572
11 1 2 0.115888 18.266 13.716 0.969417
12 1 2 0.115888 18.266 7.37578 13.9447
13 1 2 0.11589 25.3934 11.4908 8.12521
14 1 2 0.11589 11.1386 9.60096 6.7889
15 1 2 0.115888 11.1386 11.4908 8.12521
16 1 2 0.115888 25.3934 9.60096 6.7889
17 1 2 0.115889 15.5206 8.96083 0.969417
18 1 2 0.115889 21.0114 12.1309 13.9447
19 1 2 0.115888 22.648 13.0758 12.6084
20 1 2 0.115888 13.884 8.01592 2.30572
21 1 2 0.115889 21.0114 3.90092 8.12521
22 1 2 0.115889 15.5206 17.1908 6.7889
23 1 2 0.115887 13.884 16.2459 8.12521
24 1 2 0.115887 22.648 4.84583 6.7889
25 1 2 0.115889 22.648 16.2459 8.12521
26 1 2 0.115889 13.884 4.84583 6.7889
27 1 2 0.115887 15.5206 3.90092 8.12521
28 1 2 0.115887 21.0114 17.1908 6.7889
29 1 2 0.115889 21.0114 8.96083 0.969417
30 1 2 0.115889 15.5206 12.1309 13.9447
31 1 2 0.115887 13.884 13.0758 12.6084
32 1 2 0.115887 22.648 8.01592 2.30572
33 1 3 0.671939 27.399 18.7442 13.2542
34 1 3 0.671939 9.13299 2.34751 1.65994
35 1 3 0.671939 27.399 12.8934 9.117
36 1 3 0.671939 9.13299 8.19836 5.79712
37 1 3 0.67194 24.8655 14.3561 13.2542
38 1 3 0.67194 11.6665 6.73565 1.65994
39 1 3 0.67194 29.9325 17.2815 9.117
40 1 3 0.67194 6.5995 3.81022 5.79712
41 1 3 0.67194 24.8655 17.2815 9.117
42 1 3 0.67194 11.6665 3.81022 5.79712
43 1 3 0.67194 29.9325 14.3561 13.2542
44 1 3 0.67194 6.5995 6.73565 1.65994
45 1 3 -0.11508 27.399 19.957 14.1117
46 1 3 -0.11508 9.13299 1.13474 0.802379
47 1 3 -0.11508 27.399 11.6806 8.25944
48 1 3 -0.11508 9.13299 9.41113 6.65468
49 1 3 -0.11508 23.8152 13.7497 14.1117
50 1 3 -0.11508 12.7168 7.34203 0.802379
51 1 3 -0.11508 30.9828 17.8879 8.25944
52 1 3 -0.11508 5.54921 3.20384 6.65468
53 1 3 -0.11508 23.8152 17.8879 8.25944
54 1 3 -0.11508 12.7168 3.20384 6.65468
55 1 3 -0.11508 30.9828 13.7497 14.1117
56 1 3 -0.11508 5.54921 7.34203 0.802379
57 1 3 -0.0559 18.266 5.39949 13.5316
58 1 3 -0.0559 18.266 15.6923 1.38254
59 1 3 -0.055903 18.266 14.5575 0.580159
60 1 3 -0.055903 18.266 6.53422 14.334
61 1 3 -0.0559 26.1971 11.1132 7.85825
62 1 3 -0.0559 10.3349 9.9785 7.05587
63 1 3 -0.055903 10.3349 11.1132 7.85825
64 1 3 -0.055903 26.1971 9.9785 7.05587
65 1 3 -0.0559 14.7918 8.54005 0.580159
66 1 3 -0.0559 21.7402 12.5517 14.334
67 1 3 -0.055903 22.7229 13.1191 13.5316
68 1 3 -0.055903 13.8091 7.97268 1.38254
69 1 3 -0.0559 21.7402 3.39366 7.85825
70 1 3 -0.0559 14.7918 17.6981 7.05587
71 1 3 -0.055903 13.8091 17.1307 7.85825
72 1 3 -0.055903 22.7229 3.96103 7.05587
73 1 3 -0.055901 22.7229 17.1307 7.85825
74 1 3 -0.055901 13.8091 3.96103 7.05587
75 1 3 -0.055903 14.7918 3.39366 7.85825
76 1 3 -0.055903 21.7402 17.6981 7.05587
77 1 3 -0.0559 21.7402 8.54005 0.580159
78 1 3 -0.0559 14.7918 12.5517 14.334
79 1 3 -0.055903 13.8091 13.1191 13.5316
80 1 3 -0.055903 22.7229 7.97268 1.38254
81 1 4 -1.26215 27.399 15.8188 11.1856
82 1 4 -1.26215 9.13299 5.27293 3.72853
83 1 4 -0.60118 27.399 18.9383 11.9641
84 1 4 -0.60118 9.13299 2.15347 2.95001
85 1 4 -0.601179 27.399 17.5926 13.8671
86 1 4 -0.601179 9.13299 3.49912 1.04697
87 1 4 -0.601179 26.2336 13.3722 9.45555
88 1 4 -0.601179 10.2984 7.71958 5.45857
89 1 4 -0.60118 28.5643 13.3722 9.45555
90 1 4 -0.60118 7.96762 7.71958 5.45857
91 1 4 -0.60118 25.8628 14.9319 13.8671
92 1 4 -0.60118 10.6692 6.15984 1.04697
93 1 4 -0.601179 24.6974 14.2591 11.9641
94 1 4 -0.601179 11.8345 6.83267 2.95001
95 1 4 -0.60118 28.9351 18.0514 9.45555
96 1 4 -0.60118 7.59682 3.04037 5.45857
97 1 4 -0.601179 30.1005 16.0329 9.45555
98 1 4 -0.601179 6.43145 5.05885 5.45857
99 1 4 -0.601179 24.6974 16.0329 9.45555
100 1 4 -0.601179 11.8345 5.05885 5.45857
101 1 4 -0.60118 25.8628 18.0514 9.45555
102 1 4 -0.60118 10.6692 3.04037 5.45857
103 1 4 -0.60118 28.9351 14.9319 13.8671
104 1 4 -0.60118 7.59682 6.15984 1.04697
105 1 4 -0.60118 30.1005 14.2591 11.9641
106 1 4 -0.60118 6.43145 6.83267 2.95001
42755 14218 5 -0.35 12.9749 2.64889 2.70309
42756 14218 6 0.7 12.6326 2.05194 1.76923
42757 14218 5 -0.35 12.2903 1.455 0.835379
43091 14330 5 -0.35 12.2953 7.23996 7.58297
43092 14330 6 0.7 12.8404 7.50288 6.59339
43093 14330 5 -0.35 13.3856 7.76579 5.60382
43103 14334 5 -0.35 21.2206 14.1471 0.218626
43104 14334 6 0.7 30.6539 18.6218 14.3465
43105 14334 5 -0.35 30.9542 17.8236 13.5602
43520 14473 5 -0.35 21.2108 15.1021 11.4731
43521 14473 6 0.7 21.6629 16.1696 11.5121
43522 14473 5 -0.35 22.1151 17.2372 11.5511
43544 14481 5 -0.35 24.1244 18.9828 12.0537
43545 14481 6 0.7 23.5917 19.8415 11.4841
43546 14481 5 -0.35 13.9261 4.88144 10.9144
43547 14482 5 -0.35 15.5528 3.32462 1.45965
43548 14482 6 0.7 15.8004 4.42196 1.17657
43549 14482 5 -0.35 16.048 5.5193 0.893493
43556 14485 5 -0.35 8.66899 4.25442 10.0889
43557 14485 6 0.7 8.76558 4.48096 8.95539
43558 14485 5 -0.35 8.86217 4.70751 7.82184
43643 14514 5 -0.35 20.4337 8.55291 13.4805
43644 14514 6 0.7 21.5879 8.44115 13.4513
43645 14514 5 -0.35 22.7421 8.3294 13.422
43670 14523 5 -0.35 11.0505 9.69886 11.2657
43671 14523 6 0.7 11.9063 10.3506 10.8318
43672 14523 5 -0.35 12.7622 11.0024 10.3979
43694 14531 5 -0.35 16.46 6.56168 10.5433
43695 14531 6 0.7 15.9115 6.88484 9.57363
43696 14531 5 -0.35 15.363 7.208 8.60391
43703 14534 5 -0.35 27.5554 15.7231 7.83453
43704 14534 6 0.7 27.7512 16.5009 6.99657
43705 14534 5 -0.35 27.9469 17.2788 6.1586
43718 14539 5 -0.35 18.4602 13.898 14.583
43719 14539 6 0.7 18.4679 13.1329 13.7111
43720 14539 5 -0.35 18.4755 12.3679 12.8391
43727 14542 5 -0.35 17.4237 5.05817 6.17272
43728 14542 6 0.7 17.6055 5.14093 5.03005
43729 14542 5 -0.35 17.7873 5.22368 3.88738
43733 14544 5 -0.35 24.4475 15.1738 5.86202
43734 14544 6 0.7 24.0403 14.8618 4.82159
43735 14544 5 -0.35 23.6331 14.5499 3.78115
43742 14547 5 -0.35 9.87044 10.5109 3.10773
43743 14547 6 0.7 10.5291 10.4678 2.15382
43744 14547 5 -0.35 11.1877 10.4246 1.1999
43763 14554 5 -0.35 21.9141 9.40809 4.91496
43764 14554 6 0.7 22.4428 10.2549 5.50575
43765 14554 5 -0.35 22.9715 11.1017 6.09653
43769 14556 5 -0.35 23.8697 10.584 2.12483
43770 14556 6 0.7 24.5311 10.471 1.1786
43771 14556 5 -0.35 6.92654 10.358 0.232375
43781 14560 5 -0.35 15.4603 17.7632 10.1783
43782 14560 6 0.7 15.5683 17.9798 11.3128
43783 14560 5 -0.35 15.6764 18.1964 12.4473
43796 14565 5 -0.35 21.5416 10.8007 11.6408
43797 14565 6 0.7 20.7379 11.135 10.8741
43798 14565 5 -0.35 19.9342 11.4693 10.1074
43820 14573 5 -0.35 19.06 17.6688 13.5586
43821 14573 6 0.7 18.7393 17.481 12.4597
43822 14573 5 -0.35 18.4186 17.2931 11.3609
43838 14579 5 -0.35 21.4767 13.3219 7.66798
43839 14579 6 0.7 22.2314 12.9357 8.45972
43840 14579 5 -0.35 22.9861 12.5494 9.25147
43850 14583 5 -0.35 16.3433 14.0045 11.1167
43851 14583 6 0.7 16.846 14.4744 10.1829
43852 14583 5 -0.35 17.3487 14.9444 9.24907
43856 14585 5 -0.35 32.9729 20.5981 14.5414
43857 14585 6 0.7 24.7133 5.52728 14.388
43858 14585 5 -0.35 25.5866 6.27523 14.2347
43862 14587 5 -0.35 16.3215 10.4796 11.9623
43863 14587 6 0.7 15.973 10.4974 10.8561
43864 14587 5 -0.35 15.6245 10.5152 9.7498
43871 14590 5 -0.35 19.2538 7.69315 2.33162
43872 14590 6 0.7 19.5814 6.76218 1.72204
43873 14590 5 -0.35 19.909 5.83121 1.11246
43886 14595 5 -0.35 13.0188 13.2302 6.64336
43887 14595 6 0.7 13.7269 13.3713 7.55127
43888 14595 5 -0.35 14.435 13.5125 8.45917
43889 14596 5 -0.35 18.5821 9.60903 7.91721
43890 14596 6 0.7 17.9549 10.5506 7.66085
43891 14596 5 -0.35 17.3277 11.4921 7.4045
43892 14597 5 -0.35 15.8351 13.5028 5.18442
43893 14597 6 0.7 15.3886 12.4842 4.85495
43894 14597 5 -0.35 14.942 11.4655 4.52547
43895 14598 5 -0.35 12.8626 8.07603 14.3607
43896 14598 6 0.7 13.1011 7.0085 13.9745
43897 14598 5 -0.35 13.3396 5.94098 13.5884
43898 14599 5 -0.35 26.4844 16.2215 3.82448
43899 14599 6 0.7 26.8566 15.3409 3.16744
43900 14599 5 -0.35 27.2289 14.4604 2.51041
ITEM: TIMESTEP
62000
ITEM: NUMBER OF ATOMS
175
ITEM: BOX BOUNDS xy xz yz pp pp pp
0.0000000000000000e+00 3.6531964750000000e+01 9.1329911900000003e+00
0.0000000000000000e+00 2.1091739680000000e+01 9.1329911900000003e+00
0.0000000000000000e+00 1.4914112149999999e+01 5.2729349200000000e+00
ITEM: ATOMS id mol type q x y z
1 1 1 1.10383 27.399 17.6496 10.5383
2 1 1 1.10383 9.13299 3.44217 4.3758
3 1 1 1.10383 27.399 15.8188 13.1274
4 1 1 1.10383 9.13299 5.27293 1.78671
5 1 1 1.10383 25.8135 14.9034 10.5383
6 1 1 1.10383 10.7185 6.18832 4.3758
7 1 1 1.10383 28.9845 14.9034 10.5383
8 1 1 1.10383 7.5475 6.18832 4.3758
9 1 2 0.115889 18.266 5.48596 12.6084
10 1 2 0.115889 18.266 15.6058 2.30572
11 1 2 0.115888 18.266 13.716 0.969417
12 1 2 0.115888 18.266 7.37578 13.9447
13 1 2 0.11589 25.3934 11.4908 8.12521
14 1 2 0.11589 11.1386 9.60096 6.7889
15 1 2 0.115888 11.1386 11.4908 8.12521
16 1 2 0.115888 25.3934 9.60096 6.7889
17 1 2 0.115889 15.5206 8.96083 0.969417
18 1 2 0.115889 21.0114 12.1309 13.9447
19 1 2 0.115888 22.648 13.0758 12.6084
20 1 2 0.115888 13.884 8.01592 2.30572
21 1 2 0.115889 21.0114 3.90092 8.12521
22 1 2 0.115889 15.5206 17.1908 6.7889
23 1 2 0.115887 13.884 16.2459 8.12521
24 1 2 0.115887 22.648 4.84583 6.7889
25 1 2 0.115889 22.648 16.2459 8.12521
26 1 2 0.115889 13.884 4.84583 6.7889
27 1 2 0.115887 15.5206 3.90092 8.12521
28 1 2 0.115887 21.0114 17.1908 6.7889
29 1 2 0.115889 21.0114 8.96083 0.969417
30 1 2 0.115889 15.5206 12.1309 13.9447
31 1 2 0.115887 13.884 13.0758 12.6084
32 1 2 0.115887 22.648 8.01592 2.30572
33 1 3 0.671939 27.399 18.7442 13.2542
34 1 3 0.671939 9.13299 2.34751 1.65994
35 1 3 0.671939 27.399 12.8934 9.117
36 1 3 0.671939 9.13299 8.19836 5.79712
37 1 3 0.67194 24.8655 14.3561 13.2542
38 1 3 0.67194 11.6665 6.73565 1.65994
39 1 3 0.67194 29.9325 17.2815 9.117
40 1 3 0.67194 6.5995 3.81022 5.79712
41 1 3 0.67194 24.8655 17.2815 9.117
42 1 3 0.67194 11.6665 3.81022 5.79712
43 1 3 0.67194 29.9325 14.3561 13.2542
44 1 3 0.67194 6.5995 6.73565 1.65994
45 1 3 -0.11508 27.399 19.957 14.1117
46 1 3 -0.11508 9.13299 1.13474 0.802379
47 1 3 -0.11508 27.399 11.6806 8.25944
48 1 3 -0.11508 9.13299 9.41113 6.65468
49 1 3 -0.11508 23.8152 13.7497 14.1117
50 1 3 -0.11508 12.7168 7.34203 0.802379
51 1 3 -0.11508 30.9828 17.8879 8.25944
52 1 3 -0.11508 5.54921 3.20384 6.65468
53 1 3 -0.11508 23.8152 17.8879 8.25944
54 1 3 -0.11508 12.7168 3.20384 6.65468
55 1 3 -0.11508 30.9828 13.7497 14.1117
56 1 3 -0.11508 5.54921 7.34203 0.802379
57 1 3 -0.0559 18.266 5.39949 13.5316
58 1 3 -0.0559 18.266 15.6923 1.38254
59 1 3 -0.055903 18.266 14.5575 0.580159
60 1 3 -0.055903 18.266 6.53422 14.334
61 1 3 -0.0559 26.1971 11.1132 7.85825
62 1 3 -0.0559 10.3349 9.9785 7.05587
63 1 3 -0.055903 10.3349 11.1132 7.85825
64 1 3 -0.055903 26.1971 9.9785 7.05587
65 1 3 -0.0559 14.7918 8.54005 0.580159
66 1 3 -0.0559 21.7402 12.5517 14.334
67 1 3 -0.055903 22.7229 13.1191 13.5316
68 1 3 -0.055903 13.8091 7.97268 1.38254
69 1 3 -0.0559 21.7402 3.39366 7.85825
70 1 3 -0.0559 14.7918 17.6981 7.05587
71 1 3 -0.055903 13.8091 17.1307 7.85825
72 1 3 -0.055903 22.7229 3.96103 7.05587
73 1 3 -0.055901 22.7229 17.1307 7.85825
74 1 3 -0.055901 13.8091 3.96103 7.05587
75 1 3 -0.055903 14.7918 3.39366 7.85825
76 1 3 -0.055903 21.7402 17.6981 7.05587
77 1 3 -0.0559 21.7402 8.54005 0.580159
78 1 3 -0.0559 14.7918 12.5517 14.334
79 1 3 -0.055903 13.8091 13.1191 13.5316
80 1 3 -0.055903 22.7229 7.97268 1.38254
81 1 4 -1.26215 27.399 15.8188 11.1856
82 1 4 -1.26215 9.13299 5.27293 3.72853
83 1 4 -0.60118 27.399 18.9383 11.9641
84 1 4 -0.60118 9.13299 2.15347 2.95001
85 1 4 -0.601179 27.399 17.5926 13.8671
86 1 4 -0.601179 9.13299 3.49912 1.04697
87 1 4 -0.601179 26.2336 13.3722 9.45555
88 1 4 -0.601179 10.2984 7.71958 5.45857
89 1 4 -0.60118 28.5643 13.3722 9.45555
90 1 4 -0.60118 7.96762 7.71958 5.45857
91 1 4 -0.60118 25.8628 14.9319 13.8671
92 1 4 -0.60118 10.6692 6.15984 1.04697
93 1 4 -0.601179 24.6974 14.2591 11.9641
94 1 4 -0.601179 11.8345 6.83267 2.95001
95 1 4 -0.60118 28.9351 18.0514 9.45555
96 1 4 -0.60118 7.59682 3.04037 5.45857
97 1 4 -0.601179 30.1005 16.0329 9.45555
98 1 4 -0.601179 6.43145 5.05885 5.45857
99 1 4 -0.601179 24.6974 16.0329 9.45555
100 1 4 -0.601179 11.8345 5.05885 5.45857
101 1 4 -0.60118 25.8628 18.0514 9.45555
102 1 4 -0.60118 10.6692 3.04037 5.45857
103 1 4 -0.60118 28.9351 14.9319 13.8671
104 1 4 -0.60118 7.59682 6.15984 1.04697
105 1 4 -0.60118 30.1005 14.2591 11.9641
106 1 4 -0.60118 6.43145 6.83267 2.95001
43544 14481 5 -0.35 24.2626 17.4495 11.9909
43545 14481 6 0.7 23.8921 18.5459 11.9119
43546 14481 5 -0.35 23.5217 19.6423 11.8328
44132 14677 5 -0.35 31.8108 17.3607 14.6869
44133 14677 6 0.7 31.0415 17.5078 13.8312
44134 14677 5 -0.35 30.2721 17.6548 12.9756
44213 14704 5 -0.35 15.982 8.30601 5.07668
44214 14704 6 0.7 16.7131 7.53114 4.61769
44215 14704 5 -0.35 17.4442 6.75627 4.15869
44270 14723 5 -0.35 16.2553 15.5624 14.7657
44271 14723 6 0.7 16.5661 16.5702 14.2825
44272 14723 5 -0.35 16.8769 17.578 13.7994
44315 14738 5 -0.35 20.9778 5.18828 1.23569
44316 14738 6 0.7 20.0485 4.94036 0.587227
44317 14738 5 -0.35 28.2522 9.96537 14.8529
44321 14740 5 -0.35 13.8976 1.6977 1.91172
44322 14740 6 0.7 12.9879 2.2379 2.38749
44323 14740 5 -0.35 12.0783 2.77811 2.86327
44330 14743 5 -0.35 23.2809 9.57584 14.8407
44331 14743 6 0.7 24.0139 9.69566 13.9497
44332 14743 5 -0.35 24.747 9.81548 13.0587
44339 14746 5 -0.35 15.0336 3.13535 4.26352
44340 14746 6 0.7 16.0635 3.34537 3.77287
44341 14746 5 -0.35 17.0934 3.55538 3.28222
44360 14753 5 -0.35 10.1954 12.9744 5.09283
44361 14753 6 0.7 10.6935 12.7823 4.063
44362 14753 5 -0.35 11.1916 12.5901 3.03316
44366 14755 5 -0.35 15.0312 9.60836 13.0869
44367 14755 6 0.7 15.3737 8.50007 13.0881
44368 14755 5 -0.35 15.7161 7.39177 13.0894
44369 14756 5 -0.35 18.5222 6.73437 8.39594
44370 14756 6 0.7 17.3865 6.69279 8.1634
44371 14756 5 -0.35 16.2508 6.65121 7.93086
44375 14758 5 -0.35 25.1533 14.8306 0.892696
44376 14758 6 0.7 25.6352 13.8853 1.36147
44377 14758 5 -0.35 26.1172 12.94 1.83024
44384 14761 5 -0.35 11.0989 15.9092 3.35214
44385 14761 6 0.7 11.5491 16.63 2.56258
44386 14761 5 -0.35 2.86634 1.53193 1.77302
44390 14763 5 -0.35 13.8778 11.4994 0.647528
44391 14763 6 0.7 22.423 17.3678 14.7583
44392 14763 5 -0.35 21.8351 17.9633 13.9549
44393 14764 5 -0.35 16.3941 14.5068 11.5361
44394 14764 6 0.7 16.1779 14.906 10.4686
44395 14764 5 -0.35 15.9617 15.3051 9.4011
44396 14765 5 -0.35 23.4205 15.1526 5.63
44397 14765 6 0.7 23.9826 14.3159 5.05597
44398 14765 5 -0.35 24.5447 13.4792 4.48194
44405 14768 5 -0.35 27.6838 7.07846 13.0911
44406 14768 6 0.7 27.2644 7.29389 12.0313
44407 14768 5 -0.35 26.8449 7.50931 10.9714
44408 14769 5 -0.35 20.9625 10.0242 8.11028
44409 14769 6 0.7 21.0285 9.37207 7.15323
44410 14769 5 -0.35 21.0946 8.71993 6.19617
44417 14772 5 -0.35 10.8753 4.76264 11.3317
44418 14772 6 0.7 11.0459 4.9465 10.1992
44419 14772 5 -0.35 11.2166 5.13037 9.06661
44420 14773 5 -0.35 19.6919 2.40339 5.90086
44421 14773 6 0.7 18.8712 3.16758 6.19754
44422 14773 5 -0.35 18.0504 3.93178 6.49423
44423 14774 5 -0.35 13.5785 12.1618 6.55128
44424 14774 6 0.7 13.9174 12.6784 5.56954
44425 14774 5 -0.35 14.2563 13.1951 4.58779
44426 14775 5 -0.35 33.0329 17.7051 11.9616
44427 14775 6 0.7 15.7944 17.6712 11.4242
44428 14775 5 -0.35 16.8218 17.6374 10.8868
44429 14776 5 -0.35 16.9778 9.90252 7.43235
44430 14776 6 0.7 17.6508 10.3375 6.59367
44431 14776 5 -0.35 18.3239 10.7725 5.75498
ITEM: TIMESTEP
63000
ITEM: NUMBER OF ATOMS
187
ITEM: BOX BOUNDS xy xz yz pp pp pp
0.0000000000000000e+00 3.6531964750000000e+01 9.1329911900000003e+00
0.0000000000000000e+00 2.1091739680000000e+01 9.1329911900000003e+00
0.0000000000000000e+00 1.4914112149999999e+01 5.2729349200000000e+00
ITEM: ATOMS id mol type q x y z
1 1 1 1.10383 27.399 17.6496 10.5383
2 1 1 1.10383 9.13299 3.44217 4.3758
3 1 1 1.10383 27.399 15.8188 13.1274
4 1 1 1.10383 9.13299 5.27293 1.78671
5 1 1 1.10383 25.8135 14.9034 10.5383
6 1 1 1.10383 10.7185 6.18832 4.3758
7 1 1 1.10383 28.9845 14.9034 10.5383
8 1 1 1.10383 7.5475 6.18832 4.3758
9 1 2 0.115889 18.266 5.48596 12.6084
10 1 2 0.115889 18.266 15.6058 2.30572
11 1 2 0.115888 18.266 13.716 0.969417
12 1 2 0.115888 18.266 7.37578 13.9447
13 1 2 0.11589 25.3934 11.4908 8.12521
14 1 2 0.11589 11.1386 9.60096 6.7889
15 1 2 0.115888 11.1386 11.4908 8.12521
16 1 2 0.115888 25.3934 9.60096 6.7889
17 1 2 0.115889 15.5206 8.96083 0.969417
18 1 2 0.115889 21.0114 12.1309 13.9447
19 1 2 0.115888 22.648 13.0758 12.6084
20 1 2 0.115888 13.884 8.01592 2.30572
21 1 2 0.115889 21.0114 3.90092 8.12521
22 1 2 0.115889 15.5206 17.1908 6.7889
23 1 2 0.115887 13.884 16.2459 8.12521
24 1 2 0.115887 22.648 4.84583 6.7889
25 1 2 0.115889 22.648 16.2459 8.12521
26 1 2 0.115889 13.884 4.84583 6.7889
27 1 2 0.115887 15.5206 3.90092 8.12521
28 1 2 0.115887 21.0114 17.1908 6.7889
29 1 2 0.115889 21.0114 8.96083 0.969417
30 1 2 0.115889 15.5206 12.1309 13.9447
31 1 2 0.115887 13.884 13.0758 12.6084
32 1 2 0.115887 22.648 8.01592 2.30572
33 1 3 0.671939 27.399 18.7442 13.2542
34 1 3 0.671939 9.13299 2.34751 1.65994
35 1 3 0.671939 27.399 12.8934 9.117
36 1 3 0.671939 9.13299 8.19836 5.79712
37 1 3 0.67194 24.8655 14.3561 13.2542
38 1 3 0.67194 11.6665 6.73565 1.65994
39 1 3 0.67194 29.9325 17.2815 9.117
40 1 3 0.67194 6.5995 3.81022 5.79712
41 1 3 0.67194 24.8655 17.2815 9.117
42 1 3 0.67194 11.6665 3.81022 5.79712
43 1 3 0.67194 29.9325 14.3561 13.2542
44 1 3 0.67194 6.5995 6.73565 1.65994
45 1 3 -0.11508 27.399 19.957 14.1117
46 1 3 -0.11508 9.13299 1.13474 0.802379
47 1 3 -0.11508 27.399 11.6806 8.25944
48 1 3 -0.11508 9.13299 9.41113 6.65468
49 1 3 -0.11508 23.8152 13.7497 14.1117
50 1 3 -0.11508 12.7168 7.34203 0.802379
51 1 3 -0.11508 30.9828 17.8879 8.25944
52 1 3 -0.11508 5.54921 3.20384 6.65468
53 1 3 -0.11508 23.8152 17.8879 8.25944
54 1 3 -0.11508 12.7168 3.20384 6.65468
55 1 3 -0.11508 30.9828 13.7497 14.1117
56 1 3 -0.11508 5.54921 7.34203 0.802379
57 1 3 -0.0559 18.266 5.39949 13.5316
58 1 3 -0.0559 18.266 15.6923 1.38254
59 1 3 -0.055903 18.266 14.5575 0.580159
60 1 3 -0.055903 18.266 6.53422 14.334
61 1 3 -0.0559 26.1971 11.1132 7.85825
62 1 3 -0.0559 10.3349 9.9785 7.05587
63 1 3 -0.055903 10.3349 11.1132 7.85825
64 1 3 -0.055903 26.1971 9.9785 7.05587
65 1 3 -0.0559 14.7918 8.54005 0.580159
66 1 3 -0.0559 21.7402 12.5517 14.334
67 1 3 -0.055903 22.7229 13.1191 13.5316
68 1 3 -0.055903 13.8091 7.97268 1.38254
69 1 3 -0.0559 21.7402 3.39366 7.85825
70 1 3 -0.0559 14.7918 17.6981 7.05587
71 1 3 -0.055903 13.8091 17.1307 7.85825
72 1 3 -0.055903 22.7229 3.96103 7.05587
73 1 3 -0.055901 22.7229 17.1307 7.85825
74 1 3 -0.055901 13.8091 3.96103 7.05587
75 1 3 -0.055903 14.7918 3.39366 7.85825
76 1 3 -0.055903 21.7402 17.6981 7.05587
77 1 3 -0.0559 21.7402 8.54005 0.580159
78 1 3 -0.0559 14.7918 12.5517 14.334
79 1 3 -0.055903 13.8091 13.1191 13.5316
80 1 3 -0.055903 22.7229 7.97268 1.38254
81 1 4 -1.26215 27.399 15.8188 11.1856
82 1 4 -1.26215 9.13299 5.27293 3.72853
83 1 4 -0.60118 27.399 18.9383 11.9641
84 1 4 -0.60118 9.13299 2.15347 2.95001
85 1 4 -0.601179 27.399 17.5926 13.8671
86 1 4 -0.601179 9.13299 3.49912 1.04697
87 1 4 -0.601179 26.2336 13.3722 9.45555
88 1 4 -0.601179 10.2984 7.71958 5.45857
89 1 4 -0.60118 28.5643 13.3722 9.45555
90 1 4 -0.60118 7.96762 7.71958 5.45857
91 1 4 -0.60118 25.8628 14.9319 13.8671
92 1 4 -0.60118 10.6692 6.15984 1.04697
93 1 4 -0.601179 24.6974 14.2591 11.9641
94 1 4 -0.601179 11.8345 6.83267 2.95001
95 1 4 -0.60118 28.9351 18.0514 9.45555
96 1 4 -0.60118 7.59682 3.04037 5.45857
97 1 4 -0.601179 30.1005 16.0329 9.45555
98 1 4 -0.601179 6.43145 5.05885 5.45857
99 1 4 -0.601179 24.6974 16.0329 9.45555
100 1 4 -0.601179 11.8345 5.05885 5.45857
101 1 4 -0.60118 25.8628 18.0514 9.45555
102 1 4 -0.60118 10.6692 3.04037 5.45857
103 1 4 -0.60118 28.9351 14.9319 13.8671
104 1 4 -0.60118 7.59682 6.15984 1.04697
105 1 4 -0.60118 30.1005 14.2591 11.9641
106 1 4 -0.60118 6.43145 6.83267 2.95001
45359 15086 5 -0.35 12.3289 2.15499 1.20834
45360 15086 6 0.7 12.3636 1.91601 0.0737576
45361 15086 5 -0.35 21.5313 6.94996 13.8533
45368 15089 5 -0.35 22.6201 17.0493 14.0694
45369 15089 6 0.7 23.5333 17.2052 13.3714
45370 15089 5 -0.35 24.4466 17.361 12.6733
45386 15095 5 -0.35 5.59712 2.01681 0.783817
45387 15095 6 0.7 5.5712 0.863309 0.663983
45388 15095 5 -0.35 14.6783 15.5286 0.544148
45401 15100 5 -0.35 21.517 15.6082 10.9177
45402 15100 6 0.7 21.563 16.7671 10.8955
45403 15100 5 -0.35 21.609 17.926 10.8732
45449 15116 5 -0.35 17.4805 7.44005 2.25243
45450 15116 6 0.7 17.4013 6.96538 1.19696
45451 15116 5 -0.35 17.3221 6.49072 0.141487
45482 15127 5 -0.35 15.0196 11.5769 10.7377
45483 15127 6 0.7 14.6058 11.3711 9.67374
45484 15127 5 -0.35 14.192 11.1653 8.60978
45485 15128 5 -0.35 25.0041 14.7612 6.20359
45486 15128 6 0.7 25.9916 15.1285 6.68888
45487 15128 5 -0.35 26.9791 15.4958 7.17418
45491 15130 5 -0.35 26.0477 11.188 11.5428
45492 15130 6 0.7 25.01 11.4133 11.0759
45493 15130 5 -0.35 23.9722 11.6385 10.6091
45494 15131 5 -0.35 9.39752 8.65936 0.171238
45495 15131 6 0.7 18.8095 14.2372 14.0015
45496 15131 5 -0.35 19.0884 14.5421 12.9176
45497 15132 5 -0.35 23.3149 9.56386 14.1752
45498 15132 6 0.7 14.6955 4.37979 0.297411
45499 15132 5 -0.35 15.209 4.46864 1.33373
45500 15133 5 -0.35 28.6688 11.2973 12.5581
45501 15133 6 0.7 29.402 11.0211 11.7027
45502 15133 5 -0.35 11.8692 10.7448 10.8473
45506 15135 5 -0.35 9.40053 12.0319 3.70364
45507 15135 6 0.7 9.63462 10.92 3.47038
45508 15135 5 -0.35 9.86871 9.80802 3.23712
45521 15140 5 -0.35 11.3683 7.10348 11.0692
45522 15140 6 0.7 10.36 7.65449 10.9101
45523 15140 5 -0.35 9.35167 8.20551 10.7511
45524 15141 5 -0.35 14.6426 11.8872 2.34251
45525 15141 6 0.7 14.1284 11.2576 3.17004
45526 15141 5 -0.35 13.6142 10.628 3.99757
45530 15143 5 -0.35 15.9011 14.6891 11.8311
45531 15143 6 0.7 16.569 14.7746 10.8866
45532 15143 5 -0.35 17.237 14.8601 9.94203
45539 15146 5 -0.35 31.1402 16.8709 13.3241
45540 15146 6 0.7 31.7093 16.978 12.319
45541 15146 5 -0.35 32.2784 17.0851 11.3139
45545 15148 5 -0.35 21.6846 4.3196 11.417
45546 15148 6 0.7 22.1967 4.98633 10.6177
45547 15148 5 -0.35 22.7088 5.65306 9.81846
45551 15150 5 -0.35 17.9272 18.4693 9.59395
45552 15150 6 0.7 9.21687 3.4703 8.89049
45553 15150 5 -0.35 9.63948 4.29015 8.18704
45554 15151 5 -0.35 17.8018 11.9781 12.206
45555 15151 6 0.7 17.8873 10.8242 12.1233
45556 15151 5 -0.35 17.9727 9.67029 12.0405
45563 15154 5 -0.35 15.5937 4.36786 4.73527
45564 15154 6 0.7 16.2531 3.49504 4.34924
45565 15154 5 -0.35 16.9125 2.62222 3.9632
45566 15155 5 -0.35 19.8742 6.30593 7.07894
45567 15155 6 0.7 20.1243 6.62233 5.99132
45568 15155 5 -0.35 20.3745 6.93873 4.90371
45575 15158 5 -0.35 10.8638 11.4087 0.856863
45576 15158 6 0.7 10.7705 12.3544 0.191657
45577 15158 5 -0.35 19.8102 18.5731 14.4406
45578 15159 5 -0.35 25.2494 10.297 2.63063
45579 15159 6 0.7 24.4519 10.9608 2.11209
45580 15159 5 -0.35 23.6543 11.6246 1.59355
45587 15162 5 -0.35 15.2678 4.92201 11.7636
45588 15162 6 0.7 15.0822 5.46527 10.7556
45589 15162 5 -0.35 14.8966 6.00853 9.74766
45590 15163 5 -0.35 10.0736 5.98798 13.486
45591 15163 6 0.7 9.43043 5.48948 14.3127
45592 15163 5 -0.35 27.0533 15.5369 0.225316
45593 15164 5 -0.35 23.4033 14.5132 3.22238
45594 15164 6 0.7 23.5932 14.6106 2.08218
45595 15164 5 -0.35 23.7831 14.708 0.941984
45596 15165 5 -0.35 19.6317 2.98533 4.12771
45597 15165 6 0.7 19.2729 2.98961 3.02463
45598 15165 5 -0.35 18.914 2.99389 1.92154
ITEM: TIMESTEP
64000
ITEM: NUMBER OF ATOMS
181
ITEM: BOX BOUNDS xy xz yz pp pp pp
0.0000000000000000e+00 3.6531964750000000e+01 9.1329911900000003e+00
0.0000000000000000e+00 2.1091739680000000e+01 9.1329911900000003e+00
0.0000000000000000e+00 1.4914112149999999e+01 5.2729349200000000e+00
ITEM: ATOMS id mol type q x y z
1 1 1 1.10383 27.399 17.6496 10.5383
2 1 1 1.10383 9.13299 3.44217 4.3758
3 1 1 1.10383 27.399 15.8188 13.1274
4 1 1 1.10383 9.13299 5.27293 1.78671
5 1 1 1.10383 25.8135 14.9034 10.5383
6 1 1 1.10383 10.7185 6.18832 4.3758
7 1 1 1.10383 28.9845 14.9034 10.5383
8 1 1 1.10383 7.5475 6.18832 4.3758
9 1 2 0.115889 18.266 5.48596 12.6084
10 1 2 0.115889 18.266 15.6058 2.30572
11 1 2 0.115888 18.266 13.716 0.969417
12 1 2 0.115888 18.266 7.37578 13.9447
13 1 2 0.11589 25.3934 11.4908 8.12521
14 1 2 0.11589 11.1386 9.60096 6.7889
15 1 2 0.115888 11.1386 11.4908 8.12521
16 1 2 0.115888 25.3934 9.60096 6.7889
17 1 2 0.115889 15.5206 8.96083 0.969417
18 1 2 0.115889 21.0114 12.1309 13.9447
19 1 2 0.115888 22.648 13.0758 12.6084
20 1 2 0.115888 13.884 8.01592 2.30572
21 1 2 0.115889 21.0114 3.90092 8.12521
22 1 2 0.115889 15.5206 17.1908 6.7889
23 1 2 0.115887 13.884 16.2459 8.12521
24 1 2 0.115887 22.648 4.84583 6.7889
25 1 2 0.115889 22.648 16.2459 8.12521
26 1 2 0.115889 13.884 4.84583 6.7889
27 1 2 0.115887 15.5206 3.90092 8.12521
28 1 2 0.115887 21.0114 17.1908 6.7889
29 1 2 0.115889 21.0114 8.96083 0.969417
30 1 2 0.115889 15.5206 12.1309 13.9447
31 1 2 0.115887 13.884 13.0758 12.6084
32 1 2 0.115887 22.648 8.01592 2.30572
33 1 3 0.671939 27.399 18.7442 13.2542
34 1 3 0.671939 9.13299 2.34751 1.65994
35 1 3 0.671939 27.399 12.8934 9.117
36 1 3 0.671939 9.13299 8.19836 5.79712
37 1 3 0.67194 24.8655 14.3561 13.2542
38 1 3 0.67194 11.6665 6.73565 1.65994
39 1 3 0.67194 29.9325 17.2815 9.117
40 1 3 0.67194 6.5995 3.81022 5.79712
41 1 3 0.67194 24.8655 17.2815 9.117
42 1 3 0.67194 11.6665 3.81022 5.79712
43 1 3 0.67194 29.9325 14.3561 13.2542
44 1 3 0.67194 6.5995 6.73565 1.65994
45 1 3 -0.11508 27.399 19.957 14.1117
46 1 3 -0.11508 9.13299 1.13474 0.802379
47 1 3 -0.11508 27.399 11.6806 8.25944
48 1 3 -0.11508 9.13299 9.41113 6.65468
49 1 3 -0.11508 23.8152 13.7497 14.1117
50 1 3 -0.11508 12.7168 7.34203 0.802379
51 1 3 -0.11508 30.9828 17.8879 8.25944
52 1 3 -0.11508 5.54921 3.20384 6.65468
53 1 3 -0.11508 23.8152 17.8879 8.25944
54 1 3 -0.11508 12.7168 3.20384 6.65468
55 1 3 -0.11508 30.9828 13.7497 14.1117
56 1 3 -0.11508 5.54921 7.34203 0.802379
57 1 3 -0.0559 18.266 5.39949 13.5316
58 1 3 -0.0559 18.266 15.6923 1.38254
59 1 3 -0.055903 18.266 14.5575 0.580159
60 1 3 -0.055903 18.266 6.53422 14.334
61 1 3 -0.0559 26.1971 11.1132 7.85825
62 1 3 -0.0559 10.3349 9.9785 7.05587
63 1 3 -0.055903 10.3349 11.1132 7.85825
64 1 3 -0.055903 26.1971 9.9785 7.05587
65 1 3 -0.0559 14.7918 8.54005 0.580159
66 1 3 -0.0559 21.7402 12.5517 14.334
67 1 3 -0.055903 22.7229 13.1191 13.5316
68 1 3 -0.055903 13.8091 7.97268 1.38254
69 1 3 -0.0559 21.7402 3.39366 7.85825
70 1 3 -0.0559 14.7918 17.6981 7.05587
71 1 3 -0.055903 13.8091 17.1307 7.85825
72 1 3 -0.055903 22.7229 3.96103 7.05587
73 1 3 -0.055901 22.7229 17.1307 7.85825
74 1 3 -0.055901 13.8091 3.96103 7.05587
75 1 3 -0.055903 14.7918 3.39366 7.85825
76 1 3 -0.055903 21.7402 17.6981 7.05587
77 1 3 -0.0559 21.7402 8.54005 0.580159
78 1 3 -0.0559 14.7918 12.5517 14.334
79 1 3 -0.055903 13.8091 13.1191 13.5316
80 1 3 -0.055903 22.7229 7.97268 1.38254
81 1 4 -1.26215 27.399 15.8188 11.1856
82 1 4 -1.26215 9.13299 5.27293 3.72853
83 1 4 -0.60118 27.399 18.9383 11.9641
84 1 4 -0.60118 9.13299 2.15347 2.95001
85 1 4 -0.601179 27.399 17.5926 13.8671
86 1 4 -0.601179 9.13299 3.49912 1.04697
87 1 4 -0.601179 26.2336 13.3722 9.45555
88 1 4 -0.601179 10.2984 7.71958 5.45857
89 1 4 -0.60118 28.5643 13.3722 9.45555
90 1 4 -0.60118 7.96762 7.71958 5.45857
91 1 4 -0.60118 25.8628 14.9319 13.8671
92 1 4 -0.60118 10.6692 6.15984 1.04697
93 1 4 -0.601179 24.6974 14.2591 11.9641
94 1 4 -0.601179 11.8345 6.83267 2.95001
95 1 4 -0.60118 28.9351 18.0514 9.45555
96 1 4 -0.60118 7.59682 3.04037 5.45857
97 1 4 -0.601179 30.1005 16.0329 9.45555
98 1 4 -0.601179 6.43145 5.05885 5.45857
99 1 4 -0.601179 24.6974 16.0329 9.45555
100 1 4 -0.601179 11.8345 5.05885 5.45857
101 1 4 -0.60118 25.8628 18.0514 9.45555
102 1 4 -0.60118 10.6692 3.04037 5.45857
103 1 4 -0.60118 28.9351 14.9319 13.8671
104 1 4 -0.60118 7.59682 6.15984 1.04697
105 1 4 -0.60118 30.1005 14.2591 11.9641
106 1 4 -0.60118 6.43145 6.83267 2.95001
45368 15089 5 -0.35 15.5453 12.302 0.765471
45369 15089 6 0.7 24.3699 17.5222 14.5626
45370 15089 5 -0.35 24.0615 17.4695 13.4456
46019 15306 5 -0.35 16.0868 4.83619 0.596918
46020 15306 6 0.7 16.6899 5.44925 1.37542
46021 15306 5 -0.35 17.293 6.0623 2.15392
46058 15319 5 -0.35 10.4042 7.4801 9.67059
46059 15319 6 0.7 10.3243 6.49497 9.06336
46060 15319 5 -0.35 10.2443 5.50984 8.45613
46124 15341 5 -0.35 21.49 12.3687 1.29075
46125 15341 6 0.7 21.63 12.2799 0.142654
46126 15341 5 -0.35 30.9029 17.4639 13.9087
46142 15347 5 -0.35 8.19796 11.1998 2.91878
46143 15347 6 0.7 7.76682 10.5033 2.0974
46144 15347 5 -0.35 7.33568 9.80686 1.27602
46181 15360 5 -0.35 12.904 3.58043 1.23507
46182 15360 6 0.7 12.6575 3.79427 0.121933
46183 15360 5 -0.35 21.5439 9.28105 13.9229
46214 15371 5 -0.35 21.0183 11.4698 10.9417
46215 15371 6 0.7 21.9938 11.0246 10.499
46216 15371 5 -0.35 22.9692 10.5794 10.0564
46238 15379 5 -0.35 12.1201 10.4911 12.6704
46239 15379 6 0.7 12.2217 10.7178 11.5373
46240 15379 5 -0.35 12.3233 10.9445 10.4042
46244 15381 5 -0.35 27.3201 16.4728 7.1903
46245 15381 6 0.7 27.8276 15.724 6.4641
46246 15381 5 -0.35 28.335 14.9752 5.7379
46250 15383 5 -0.35 11.5742 10.9268 4.16047
46251 15383 6 0.7 11.7149 11.1211 3.02555
46252 15383 5 -0.35 11.8555 11.3155 1.89063
46253 15384 5 -0.35 22.4434 9.55295 5.75571
46254 15384 6 0.7 23.1955 10.2854 5.26222
46255 15384 5 -0.35 23.9475 11.0179 4.76873
46265 15388 5 -0.35 20.6955 18.0927 13.9999
46266 15388 6 0.7 19.5743 18.0018 14.2831
46267 15388 5 -0.35 18.4531 17.9108 14.5664
46268 15389 5 -0.35 22.9228 13.567 9.16734
46269 15389 6 0.7 22.653 13.1634 8.11379
46270 15389 5 -0.35 22.3832 12.7599 7.06024
46274 15391 5 -0.35 15.3015 3.92329 3.96429
46275 15391 6 0.7 15.2649 2.85088 3.52361
46276 15391 5 -0.35 15.2282 1.77847 3.08294
46280 15393 5 -0.35 22.7339 14.4451 3.37764
46281 15393 6 0.7 23.4591 14.684 2.50433
46282 15393 5 -0.35 24.1842 14.923 1.63103
46286 15395 5 -0.35 15.7618 15.0505 4.66343
46287 15395 6 0.7 15.3882 15.6605 3.75023
46288 15395 5 -0.35 15.0146 16.2705 2.83703
46292 15397 5 -0.35 24.4953 9.26856 12.5014
46293 15397 6 0.7 25.5576 9.57335 12.149
46294 15397 5 -0.35 26.6198 9.87814 11.7965
46304 15401 5 -0.35 24.5966 5.6979 11.1013
46305 15401 6 0.7 25.2029 4.71311 11.1916
46306 15401 5 -0.35 16.6763 19.5471 11.2819
46310 15403 5 -0.35 18.3764 16.5609 10.6558
46311 15403 6 0.7 18.6293 17.4191 9.91747
46312 15403 5 -0.35 18.8822 18.2774 9.17914
46313 15404 5 -0.35 19.3554 4.00483 5.60365
46314 15404 6 0.7 18.2937 4.32556 5.94359
46315 15404 5 -0.35 17.232 4.6463 6.28353
46316 15405 5 -0.35 5.22747 1.86748 0.226814
46317 15405 6 0.7 14.8527 6.80253 14.1464
46318 15405 5 -0.35 15.3449 6.46464 13.1518
46319 15406 5 -0.35 17.6589 1.82659 0.935958
46320 15406 6 0.7 18.363 1.07693 1.47244
46321 15406 5 -0.35 28.2001 16.1461 2.00892
46322 15407 5 -0.35 18.5968 8.42992 10.1217
46323 15407 6 0.7 19.6008 8.28047 10.6832
46324 15407 5 -0.35 20.6048 8.13102 11.2447
46325 15408 5 -0.35 19.4678 7.71469 4.27227
46326 15408 6 0.7 19.0966 8.77397 3.97936
46327 15408 5 -0.35 18.7255 9.83324 3.68646
46328 15409 5 -0.35 21.294 6.76285 7.65225
46329 15409 6 0.7 22.4411 6.93473 7.64143
46330 15409 5 -0.35 23.5883 7.10661 7.63061
ITEM: TIMESTEP
65000
ITEM: NUMBER OF ATOMS
184
ITEM: BOX BOUNDS xy xz yz pp pp pp
0.0000000000000000e+00 3.6531964750000000e+01 9.1329911900000003e+00
0.0000000000000000e+00 2.1091739680000000e+01 9.1329911900000003e+00
0.0000000000000000e+00 1.4914112149999999e+01 5.2729349200000000e+00
ITEM: ATOMS id mol type q x y z
1 1 1 1.10383 27.399 17.6496 10.5383
2 1 1 1.10383 9.13299 3.44217 4.3758
3 1 1 1.10383 27.399 15.8188 13.1274
4 1 1 1.10383 9.13299 5.27293 1.78671
5 1 1 1.10383 25.8135 14.9034 10.5383
6 1 1 1.10383 10.7185 6.18832 4.3758
7 1 1 1.10383 28.9845 14.9034 10.5383
8 1 1 1.10383 7.5475 6.18832 4.3758
9 1 2 0.115889 18.266 5.48596 12.6084
10 1 2 0.115889 18.266 15.6058 2.30572
11 1 2 0.115888 18.266 13.716 0.969417
12 1 2 0.115888 18.266 7.37578 13.9447
13 1 2 0.11589 25.3934 11.4908 8.12521
14 1 2 0.11589 11.1386 9.60096 6.7889
15 1 2 0.115888 11.1386 11.4908 8.12521
16 1 2 0.115888 25.3934 9.60096 6.7889
17 1 2 0.115889 15.5206 8.96083 0.969417
18 1 2 0.115889 21.0114 12.1309 13.9447
19 1 2 0.115888 22.648 13.0758 12.6084
20 1 2 0.115888 13.884 8.01592 2.30572
21 1 2 0.115889 21.0114 3.90092 8.12521
22 1 2 0.115889 15.5206 17.1908 6.7889
23 1 2 0.115887 13.884 16.2459 8.12521
24 1 2 0.115887 22.648 4.84583 6.7889
25 1 2 0.115889 22.648 16.2459 8.12521
26 1 2 0.115889 13.884 4.84583 6.7889
27 1 2 0.115887 15.5206 3.90092 8.12521
28 1 2 0.115887 21.0114 17.1908 6.7889
29 1 2 0.115889 21.0114 8.96083 0.969417
30 1 2 0.115889 15.5206 12.1309 13.9447
31 1 2 0.115887 13.884 13.0758 12.6084
32 1 2 0.115887 22.648 8.01592 2.30572
33 1 3 0.671939 27.399 18.7442 13.2542
34 1 3 0.671939 9.13299 2.34751 1.65994
35 1 3 0.671939 27.399 12.8934 9.117
36 1 3 0.671939 9.13299 8.19836 5.79712
37 1 3 0.67194 24.8655 14.3561 13.2542
38 1 3 0.67194 11.6665 6.73565 1.65994
39 1 3 0.67194 29.9325 17.2815 9.117
40 1 3 0.67194 6.5995 3.81022 5.79712
41 1 3 0.67194 24.8655 17.2815 9.117
42 1 3 0.67194 11.6665 3.81022 5.79712
43 1 3 0.67194 29.9325 14.3561 13.2542
44 1 3 0.67194 6.5995 6.73565 1.65994
45 1 3 -0.11508 27.399 19.957 14.1117
46 1 3 -0.11508 9.13299 1.13474 0.802379
47 1 3 -0.11508 27.399 11.6806 8.25944
48 1 3 -0.11508 9.13299 9.41113 6.65468
49 1 3 -0.11508 23.8152 13.7497 14.1117
50 1 3 -0.11508 12.7168 7.34203 0.802379
51 1 3 -0.11508 30.9828 17.8879 8.25944
52 1 3 -0.11508 5.54921 3.20384 6.65468
53 1 3 -0.11508 23.8152 17.8879 8.25944
54 1 3 -0.11508 12.7168 3.20384 6.65468
55 1 3 -0.11508 30.9828 13.7497 14.1117
56 1 3 -0.11508 5.54921 7.34203 0.802379
57 1 3 -0.0559 18.266 5.39949 13.5316
58 1 3 -0.0559 18.266 15.6923 1.38254
59 1 3 -0.055903 18.266 14.5575 0.580159
60 1 3 -0.055903 18.266 6.53422 14.334
61 1 3 -0.0559 26.1971 11.1132 7.85825
62 1 3 -0.0559 10.3349 9.9785 7.05587
63 1 3 -0.055903 10.3349 11.1132 7.85825
64 1 3 -0.055903 26.1971 9.9785 7.05587
65 1 3 -0.0559 14.7918 8.54005 0.580159
66 1 3 -0.0559 21.7402 12.5517 14.334
67 1 3 -0.055903 22.7229 13.1191 13.5316
68 1 3 -0.055903 13.8091 7.97268 1.38254
69 1 3 -0.0559 21.7402 3.39366 7.85825
70 1 3 -0.0559 14.7918 17.6981 7.05587
71 1 3 -0.055903 13.8091 17.1307 7.85825
72 1 3 -0.055903 22.7229 3.96103 7.05587
73 1 3 -0.055901 22.7229 17.1307 7.85825
74 1 3 -0.055901 13.8091 3.96103 7.05587
75 1 3 -0.055903 14.7918 3.39366 7.85825
76 1 3 -0.055903 21.7402 17.6981 7.05587
77 1 3 -0.0559 21.7402 8.54005 0.580159
78 1 3 -0.0559 14.7918 12.5517 14.334
79 1 3 -0.055903 13.8091 13.1191 13.5316
80 1 3 -0.055903 22.7229 7.97268 1.38254
81 1 4 -1.26215 27.399 15.8188 11.1856
82 1 4 -1.26215 9.13299 5.27293 3.72853
83 1 4 -0.60118 27.399 18.9383 11.9641
84 1 4 -0.60118 9.13299 2.15347 2.95001
85 1 4 -0.601179 27.399 17.5926 13.8671
86 1 4 -0.601179 9.13299 3.49912 1.04697
87 1 4 -0.601179 26.2336 13.3722 9.45555
88 1 4 -0.601179 10.2984 7.71958 5.45857
89 1 4 -0.60118 28.5643 13.3722 9.45555
90 1 4 -0.60118 7.96762 7.71958 5.45857
91 1 4 -0.60118 25.8628 14.9319 13.8671
92 1 4 -0.60118 10.6692 6.15984 1.04697
93 1 4 -0.601179 24.6974 14.2591 11.9641
94 1 4 -0.601179 11.8345 6.83267 2.95001
95 1 4 -0.60118 28.9351 18.0514 9.45555
96 1 4 -0.60118 7.59682 3.04037 5.45857
97 1 4 -0.601179 30.1005 16.0329 9.45555
98 1 4 -0.601179 6.43145 5.05885 5.45857
99 1 4 -0.601179 24.6974 16.0329 9.45555
100 1 4 -0.601179 11.8345 5.05885 5.45857
101 1 4 -0.60118 25.8628 18.0514 9.45555
102 1 4 -0.60118 10.6692 3.04037 5.45857
103 1 4 -0.60118 28.9351 14.9319 13.8671
104 1 4 -0.60118 7.59682 6.15984 1.04697
105 1 4 -0.60118 30.1005 14.2591 11.9641
106 1 4 -0.60118 6.43145 6.83267 2.95001
46124 15341 5 -0.35 21.497 11.7202 0.485546
46125 15341 6 0.7 30.7352 17.4592 14.3426
46126 15341 5 -0.35 30.8404 17.9253 13.2856
46445 15448 5 -0.35 14.201 16.5947 3.9501
46446 15448 6 0.7 5.37599 1.15123 2.89659
46447 15448 5 -0.35 5.684 1.52652 1.84307
46493 15464 5 -0.35 26.4947 15.1932 7.00425
46494 15464 6 0.7 25.446 14.7602 6.76292
46495 15464 5 -0.35 24.3973 14.3272 6.52158
46508 15469 5 -0.35 14.2485 12.7004 0.342596
46509 15469 6 0.7 23.7682 17.6899 14.2004
46510 15469 5 -0.35 24.1549 17.4064 13.1442
46634 15511 5 -0.35 27.3448 14.0023 4.37372
46635 15511 6 0.7 9.62329 13.0026 4.15102
46636 15511 5 -0.35 10.1678 12.0028 3.92833
46694 15531 5 -0.35 22.5571 10.9783 4.50207
46695 15531 6 0.7 23.5326 10.552 4.04128
46696 15531 5 -0.35 24.5081 10.1257 3.5805
46730 15543 5 -0.35 8.69639 4.39466 7.8435
46731 15543 6 0.7 8.3766 3.46528 8.45961
46732 15543 5 -0.35 17.1898 18.3547 9.07571
46799 15566 5 -0.35 16.0238 15.9779 11.3907
46800 15566 6 0.7 16.6967 15.3953 10.6469
46801 15566 5 -0.35 17.3696 14.8126 9.90306
46835 15578 5 -0.35 20.7281 5.38123 4.62606
46836 15578 6 0.7 21.53 4.68489 4.15955
46837 15578 5 -0.35 4.06595 3.98854 3.69304
46862 15587 5 -0.35 20.5146 15.6111 3.69857
46863 15587 6 0.7 21.1588 16.5713 3.6053
46864 15587 5 -0.35 12.67 1.71264 3.51204
46865 15588 5 -0.35 18.3448 15.3732 6.22268
46866 15588 6 0.7 18.1613 14.4609 5.53015
46867 15588 5 -0.35 17.9778 13.5485 4.83762
46886 15595 5 -0.35 24.059 15.5195 3.29683
46887 15595 6 0.7 24.7101 14.9368 2.53377
46888 15595 5 -0.35 25.3611 14.3541 1.77072
46916 15605 5 -0.35 21.5627 13.9008 9.93193
46917 15605 6 0.7 21.4358 13.8206 8.78168
46918 15605 5 -0.35 21.3088 13.7404 7.63144
46919 15606 5 -0.35 28.6195 11.4186 12.4415
46920 15606 6 0.7 11.3874 11.2684 11.9374
46921 15606 5 -0.35 12.4213 11.1182 11.4332
46922 15607 5 -0.35 13.7092 13.6129 6.80377
46923 15607 6 0.7 12.6051 13.6382 6.44886
46924 15607 5 -0.35 11.501 13.6634 6.09395
46925 15608 5 -0.35 24.6627 5.67508 13.4829
46926 15608 6 0.7 24.8587 5.41547 12.3695
46927 15608 5 -0.35 25.0547 5.15585 11.256
46931 15610 5 -0.35 4.13296 4.41355 0.402109
46932 15610 6 0.7 13.9907 9.02072 14.7021
46933 15610 5 -0.35 14.7154 8.35495 14.088
46955 15618 5 -0.35 11.7949 3.57307 10.0992
46956 15618 6 0.7 20.9022 18.2326 10.068
46957 15618 5 -0.35 20.8764 17.0733 10.0369
46961 15620 5 -0.35 13.2962 10.9464 4.27892
46962 15620 6 0.7 13.6482 12.012 3.98515
46963 15620 5 -0.35 14.0002 13.0775 3.69137
46964 15621 5 -0.35 10.4871 12.4943 0.737453
46965 15621 6 0.7 20.1925 17.6481 14.6497
46966 15621 5 -0.35 20.7649 17.529 13.6478
46967 15622 5 -0.35 21.881 8.79386 13.6675
46968 15622 6 0.7 21.8333 8.89898 14.8217
46969 15622 5 -0.35 12.6526 3.73115 1.06184
46976 15625 5 -0.35 16.5402 10.7394 3.08867
46977 15625 6 0.7 17.2573 10.2668 3.86852
46978 15625 5 -0.35 17.9743 9.79421 4.64836
46994 15631 5 -0.35 17.6435 13.6728 14.0125
46995 15631 6 0.7 18.2372 14.1431 14.891
46996 15631 5 -0.35 9.698 9.34061 0.855436
47000 15633 5 -0.35 26.7511 8.71352 12.2181
47001 15633 6 0.7 26.0563 9.41842 12.823
47002 15633 5 -0.35 25.3615 10.1233 13.428
47003 15634 5 -0.35 16.7592 3.31926 1.24545
47004 15634 6 0.7 16.4155 4.42565 1.18741
47005 15634 5 -0.35 16.0718 5.53204 1.12936
47012 15637 5 -0.35 23.5778 8.18594 9.34463
47013 15637 6 0.7 23.4149 8.04483 8.20482
47014 15637 5 -0.35 23.252 7.90372 7.06502
ITEM: TIMESTEP
66000
ITEM: NUMBER OF ATOMS
181
ITEM: BOX BOUNDS xy xz yz pp pp pp
0.0000000000000000e+00 3.6531964750000000e+01 9.1329911900000003e+00
0.0000000000000000e+00 2.1091739680000000e+01 9.1329911900000003e+00
0.0000000000000000e+00 1.4914112149999999e+01 5.2729349200000000e+00
ITEM: ATOMS id mol type q x y z
1 1 1 1.10383 27.399 17.6496 10.5383
2 1 1 1.10383 9.13299 3.44217 4.3758
3 1 1 1.10383 27.399 15.8188 13.1274
4 1 1 1.10383 9.13299 5.27293 1.78671
5 1 1 1.10383 25.8135 14.9034 10.5383
6 1 1 1.10383 10.7185 6.18832 4.3758
7 1 1 1.10383 28.9845 14.9034 10.5383
8 1 1 1.10383 7.5475 6.18832 4.3758
9 1 2 0.115889 18.266 5.48596 12.6084
10 1 2 0.115889 18.266 15.6058 2.30572
11 1 2 0.115888 18.266 13.716 0.969417
12 1 2 0.115888 18.266 7.37578 13.9447
13 1 2 0.11589 25.3934 11.4908 8.12521
14 1 2 0.11589 11.1386 9.60096 6.7889
15 1 2 0.115888 11.1386 11.4908 8.12521
16 1 2 0.115888 25.3934 9.60096 6.7889
17 1 2 0.115889 15.5206 8.96083 0.969417
18 1 2 0.115889 21.0114 12.1309 13.9447
19 1 2 0.115888 22.648 13.0758 12.6084
20 1 2 0.115888 13.884 8.01592 2.30572
21 1 2 0.115889 21.0114 3.90092 8.12521
22 1 2 0.115889 15.5206 17.1908 6.7889
23 1 2 0.115887 13.884 16.2459 8.12521
24 1 2 0.115887 22.648 4.84583 6.7889
25 1 2 0.115889 22.648 16.2459 8.12521
26 1 2 0.115889 13.884 4.84583 6.7889
27 1 2 0.115887 15.5206 3.90092 8.12521
28 1 2 0.115887 21.0114 17.1908 6.7889
29 1 2 0.115889 21.0114 8.96083 0.969417
30 1 2 0.115889 15.5206 12.1309 13.9447
31 1 2 0.115887 13.884 13.0758 12.6084
32 1 2 0.115887 22.648 8.01592 2.30572
33 1 3 0.671939 27.399 18.7442 13.2542
34 1 3 0.671939 9.13299 2.34751 1.65994
35 1 3 0.671939 27.399 12.8934 9.117
36 1 3 0.671939 9.13299 8.19836 5.79712
37 1 3 0.67194 24.8655 14.3561 13.2542
38 1 3 0.67194 11.6665 6.73565 1.65994
39 1 3 0.67194 29.9325 17.2815 9.117
40 1 3 0.67194 6.5995 3.81022 5.79712
41 1 3 0.67194 24.8655 17.2815 9.117
42 1 3 0.67194 11.6665 3.81022 5.79712
43 1 3 0.67194 29.9325 14.3561 13.2542
44 1 3 0.67194 6.5995 6.73565 1.65994
45 1 3 -0.11508 27.399 19.957 14.1117
46 1 3 -0.11508 9.13299 1.13474 0.802379
47 1 3 -0.11508 27.399 11.6806 8.25944
48 1 3 -0.11508 9.13299 9.41113 6.65468
49 1 3 -0.11508 23.8152 13.7497 14.1117
50 1 3 -0.11508 12.7168 7.34203 0.802379
51 1 3 -0.11508 30.9828 17.8879 8.25944
52 1 3 -0.11508 5.54921 3.20384 6.65468
53 1 3 -0.11508 23.8152 17.8879 8.25944
54 1 3 -0.11508 12.7168 3.20384 6.65468
55 1 3 -0.11508 30.9828 13.7497 14.1117
56 1 3 -0.11508 5.54921 7.34203 0.802379
57 1 3 -0.0559 18.266 5.39949 13.5316
58 1 3 -0.0559 18.266 15.6923 1.38254
59 1 3 -0.055903 18.266 14.5575 0.580159
60 1 3 -0.055903 18.266 6.53422 14.334
61 1 3 -0.0559 26.1971 11.1132 7.85825
62 1 3 -0.0559 10.3349 9.9785 7.05587
63 1 3 -0.055903 10.3349 11.1132 7.85825
64 1 3 -0.055903 26.1971 9.9785 7.05587
65 1 3 -0.0559 14.7918 8.54005 0.580159
66 1 3 -0.0559 21.7402 12.5517 14.334
67 1 3 -0.055903 22.7229 13.1191 13.5316
68 1 3 -0.055903 13.8091 7.97268 1.38254
69 1 3 -0.0559 21.7402 3.39366 7.85825
70 1 3 -0.0559 14.7918 17.6981 7.05587
71 1 3 -0.055903 13.8091 17.1307 7.85825
72 1 3 -0.055903 22.7229 3.96103 7.05587
73 1 3 -0.055901 22.7229 17.1307 7.85825
74 1 3 -0.055901 13.8091 3.96103 7.05587
75 1 3 -0.055903 14.7918 3.39366 7.85825
76 1 3 -0.055903 21.7402 17.6981 7.05587
77 1 3 -0.0559 21.7402 8.54005 0.580159
78 1 3 -0.0559 14.7918 12.5517 14.334
79 1 3 -0.055903 13.8091 13.1191 13.5316
80 1 3 -0.055903 22.7229 7.97268 1.38254
81 1 4 -1.26215 27.399 15.8188 11.1856
82 1 4 -1.26215 9.13299 5.27293 3.72853
83 1 4 -0.60118 27.399 18.9383 11.9641
84 1 4 -0.60118 9.13299 2.15347 2.95001
85 1 4 -0.601179 27.399 17.5926 13.8671
86 1 4 -0.601179 9.13299 3.49912 1.04697
87 1 4 -0.601179 26.2336 13.3722 9.45555
88 1 4 -0.601179 10.2984 7.71958 5.45857
89 1 4 -0.60118 28.5643 13.3722 9.45555
90 1 4 -0.60118 7.96762 7.71958 5.45857
91 1 4 -0.60118 25.8628 14.9319 13.8671
92 1 4 -0.60118 10.6692 6.15984 1.04697
93 1 4 -0.601179 24.6974 14.2591 11.9641
94 1 4 -0.601179 11.8345 6.83267 2.95001
95 1 4 -0.60118 28.9351 18.0514 9.45555
96 1 4 -0.60118 7.59682 3.04037 5.45857
97 1 4 -0.601179 30.1005 16.0329 9.45555
98 1 4 -0.601179 6.43145 5.05885 5.45857
99 1 4 -0.601179 24.6974 16.0329 9.45555
100 1 4 -0.601179 11.8345 5.05885 5.45857
101 1 4 -0.60118 25.8628 18.0514 9.45555
102 1 4 -0.60118 10.6692 3.04037 5.45857
103 1 4 -0.60118 28.9351 14.9319 13.8671
104 1 4 -0.60118 7.59682 6.15984 1.04697
105 1 4 -0.60118 30.1005 14.2591 11.9641
106 1 4 -0.60118 6.43145 6.83267 2.95001
46493 15464 5 -0.35 26.485 15.7539 6.78494
46494 15464 6 0.7 25.5004 15.273 6.40423
46495 15464 5 -0.35 24.5158 14.7922 6.02352
46862 15587 5 -0.35 20.9194 16.0747 3.5165
46863 15587 6 0.7 21.7456 16.8835 3.42293
46864 15587 5 -0.35 13.4388 1.87354 3.32936
47081 15660 5 -0.35 11.8578 10.293 3.47371
47082 15660 6 0.7 10.8168 10.0004 3.05386
47083 15660 5 -0.35 9.77575 9.70775 2.63402
47132 15677 5 -0.35 21.5024 11.9268 3.10144
47133 15677 6 0.7 21.9584 12.835 2.54228
47134 15677 5 -0.35 22.4145 13.7433 1.98312
47222 15707 5 -0.35 14.9925 9.33728 6.10635
47223 15707 6 0.7 15.4965 8.31854 6.33822
47224 15707 5 -0.35 16.0004 7.29979 6.57009
47264 15721 5 -0.35 23.9701 7.34936 8.24631
47265 15721 6 0.7 23.2952 7.61887 7.34219
47266 15721 5 -0.35 22.6203 7.88838 6.43807
47318 15739 5 -0.35 15.9475 15.8284 4.01874
47319 15739 6 0.7 14.9674 16.2978 3.61287
47320 15739 5 -0.35 13.9873 16.7672 3.20701
47324 15741 5 -0.35 21.7245 5.31084 4.34643
47325 15741 6 0.7 21.3272 5.21809 3.26053
47326 15741 5 -0.35 20.93 5.12534 2.17463
47339 15746 5 -0.35 18.8206 5.59915 8.79951
47340 15746 6 0.7 18.5925 5.19067 7.73804
47341 15746 5 -0.35 18.3644 4.78219 6.67657
47348 15749 5 -0.35 20.9644 10.2529 7.54996
47349 15749 6 0.7 20.1284 9.68542 6.98007
47350 15749 5 -0.35 19.2924 9.11799 6.41017
47489 15796 5 -0.35 16.3685 2.31263 5.52608
47490 15796 6 0.7 16.7922 3.09743 4.78437
47491 15796 5 -0.35 17.2159 3.88224 4.04267
47501 15800 5 -0.35 21.0598 12.5803 9.37156
47502 15800 6 0.7 21.1048 13.1893 8.38534
47503 15800 5 -0.35 21.1498 13.7984 7.39913
47525 15808 5 -0.35 22.5843 16.555 12.7718
47526 15808 6 0.7 22.0633 16.8733 11.7855
47527 15808 5 -0.35 21.5424 17.1916 10.7991
47549 15816 5 -0.35 5.04292 3.65015 1.07958
47550 15816 6 0.7 4.6962 2.60679 0.709724
47551 15816 5 -0.35 4.34948 1.56343 0.339871
47564 15821 5 -0.35 22.5458 7.68191 14.6797
47565 15821 6 0.7 22.1441 8.55179 14.0258
47566 15821 5 -0.35 21.7425 9.42167 13.3719
47573 15824 5 -0.35 14.0984 16.0568 11.2635
47574 15824 6 0.7 14.5156 15.156 10.6633
47575 15824 5 -0.35 14.9328 14.2553 10.0631
47576 15825 5 -0.35 19.145 15.479 8.75009
47577 15825 6 0.7 18.0041 15.5969 8.57642
47578 15825 5 -0.35 16.8633 15.7148 8.40276
47582 15827 5 -0.35 15.2613 3.90947 1.61565
47583 15827 6 0.7 16.121 4.29408 0.938444
47584 15827 5 -0.35 16.9807 4.67868 0.261234
47585 15828 5 -0.35 28.6067 11.1331 13.6182
47586 15828 6 0.7 29.0177 10.0555 13.7426
47587 15828 5 -0.35 11.1627 8.9779 13.867
47591 15830 5 -0.35 16.9438 11.4686 10.7095
47592 15830 6 0.7 17.7224 12.2426 11.084
47593 15830 5 -0.35 18.501 13.0166 11.4586
47594 15831 5 -0.35 30.5085 19.2177 14.283
47595 15831 6 0.7 30.5921 19.201 13.1262
47596 15831 5 -0.35 30.6756 19.1843 11.9693
47600 15833 5 -0.35 10.4348 7.22661 10.046
47601 15833 6 0.7 9.37894 6.76166 9.92524
47602 15833 5 -0.35 8.32309 6.2967 9.80445
47603 15834 5 -0.35 18.7527 1.36603 1.63607
47604 15834 6 0.7 19.5784 1.97946 2.1722
47605 15834 5 -0.35 20.4042 2.59288 2.70834
47606 15835 5 -0.35 15.1909 12.0304 7.57318
47607 15835 6 0.7 14.3932 12.0483 6.73117
47608 15835 5 -0.35 13.5955 12.0662 5.88916
47609 15836 5 -0.35 26.1938 8.99234 10.5693
47610 15836 6 0.7 25.7002 8.5404 11.5167
47611 15836 5 -0.35 25.2065 8.08847 12.4642
ITEM: TIMESTEP
67000
ITEM: NUMBER OF ATOMS
160
ITEM: BOX BOUNDS xy xz yz pp pp pp
0.0000000000000000e+00 3.6531964750000000e+01 9.1329911900000003e+00
0.0000000000000000e+00 2.1091739680000000e+01 9.1329911900000003e+00
0.0000000000000000e+00 1.4914112149999999e+01 5.2729349200000000e+00
ITEM: ATOMS id mol type q x y z
1 1 1 1.10383 27.399 17.6496 10.5383
2 1 1 1.10383 9.13299 3.44217 4.3758
3 1 1 1.10383 27.399 15.8188 13.1274
4 1 1 1.10383 9.13299 5.27293 1.78671
5 1 1 1.10383 25.8135 14.9034 10.5383
6 1 1 1.10383 10.7185 6.18832 4.3758
7 1 1 1.10383 28.9845 14.9034 10.5383
8 1 1 1.10383 7.5475 6.18832 4.3758
9 1 2 0.115889 18.266 5.48596 12.6084
10 1 2 0.115889 18.266 15.6058 2.30572
11 1 2 0.115888 18.266 13.716 0.969417
12 1 2 0.115888 18.266 7.37578 13.9447
13 1 2 0.11589 25.3934 11.4908 8.12521
14 1 2 0.11589 11.1386 9.60096 6.7889
15 1 2 0.115888 11.1386 11.4908 8.12521
16 1 2 0.115888 25.3934 9.60096 6.7889
17 1 2 0.115889 15.5206 8.96083 0.969417
18 1 2 0.115889 21.0114 12.1309 13.9447
19 1 2 0.115888 22.648 13.0758 12.6084
20 1 2 0.115888 13.884 8.01592 2.30572
21 1 2 0.115889 21.0114 3.90092 8.12521
22 1 2 0.115889 15.5206 17.1908 6.7889
23 1 2 0.115887 13.884 16.2459 8.12521
24 1 2 0.115887 22.648 4.84583 6.7889
25 1 2 0.115889 22.648 16.2459 8.12521
26 1 2 0.115889 13.884 4.84583 6.7889
27 1 2 0.115887 15.5206 3.90092 8.12521
28 1 2 0.115887 21.0114 17.1908 6.7889
29 1 2 0.115889 21.0114 8.96083 0.969417
30 1 2 0.115889 15.5206 12.1309 13.9447
31 1 2 0.115887 13.884 13.0758 12.6084
32 1 2 0.115887 22.648 8.01592 2.30572
33 1 3 0.671939 27.399 18.7442 13.2542
34 1 3 0.671939 9.13299 2.34751 1.65994
35 1 3 0.671939 27.399 12.8934 9.117
36 1 3 0.671939 9.13299 8.19836 5.79712
37 1 3 0.67194 24.8655 14.3561 13.2542
38 1 3 0.67194 11.6665 6.73565 1.65994
39 1 3 0.67194 29.9325 17.2815 9.117
40 1 3 0.67194 6.5995 3.81022 5.79712
41 1 3 0.67194 24.8655 17.2815 9.117
42 1 3 0.67194 11.6665 3.81022 5.79712
43 1 3 0.67194 29.9325 14.3561 13.2542
44 1 3 0.67194 6.5995 6.73565 1.65994
45 1 3 -0.11508 27.399 19.957 14.1117
46 1 3 -0.11508 9.13299 1.13474 0.802379
47 1 3 -0.11508 27.399 11.6806 8.25944
48 1 3 -0.11508 9.13299 9.41113 6.65468
49 1 3 -0.11508 23.8152 13.7497 14.1117
50 1 3 -0.11508 12.7168 7.34203 0.802379
51 1 3 -0.11508 30.9828 17.8879 8.25944
52 1 3 -0.11508 5.54921 3.20384 6.65468
53 1 3 -0.11508 23.8152 17.8879 8.25944
54 1 3 -0.11508 12.7168 3.20384 6.65468
55 1 3 -0.11508 30.9828 13.7497 14.1117
56 1 3 -0.11508 5.54921 7.34203 0.802379
57 1 3 -0.0559 18.266 5.39949 13.5316
58 1 3 -0.0559 18.266 15.6923 1.38254
59 1 3 -0.055903 18.266 14.5575 0.580159
60 1 3 -0.055903 18.266 6.53422 14.334
61 1 3 -0.0559 26.1971 11.1132 7.85825
62 1 3 -0.0559 10.3349 9.9785 7.05587
63 1 3 -0.055903 10.3349 11.1132 7.85825
64 1 3 -0.055903 26.1971 9.9785 7.05587
65 1 3 -0.0559 14.7918 8.54005 0.580159
66 1 3 -0.0559 21.7402 12.5517 14.334
67 1 3 -0.055903 22.7229 13.1191 13.5316
68 1 3 -0.055903 13.8091 7.97268 1.38254
69 1 3 -0.0559 21.7402 3.39366 7.85825
70 1 3 -0.0559 14.7918 17.6981 7.05587
71 1 3 -0.055903 13.8091 17.1307 7.85825
72 1 3 -0.055903 22.7229 3.96103 7.05587
73 1 3 -0.055901 22.7229 17.1307 7.85825
74 1 3 -0.055901 13.8091 3.96103 7.05587
75 1 3 -0.055903 14.7918 3.39366 7.85825
76 1 3 -0.055903 21.7402 17.6981 7.05587
77 1 3 -0.0559 21.7402 8.54005 0.580159
78 1 3 -0.0559 14.7918 12.5517 14.334
79 1 3 -0.055903 13.8091 13.1191 13.5316
80 1 3 -0.055903 22.7229 7.97268 1.38254
81 1 4 -1.26215 27.399 15.8188 11.1856
82 1 4 -1.26215 9.13299 5.27293 3.72853
83 1 4 -0.60118 27.399 18.9383 11.9641
84 1 4 -0.60118 9.13299 2.15347 2.95001
85 1 4 -0.601179 27.399 17.5926 13.8671
86 1 4 -0.601179 9.13299 3.49912 1.04697
87 1 4 -0.601179 26.2336 13.3722 9.45555
88 1 4 -0.601179 10.2984 7.71958 5.45857
89 1 4 -0.60118 28.5643 13.3722 9.45555
90 1 4 -0.60118 7.96762 7.71958 5.45857
91 1 4 -0.60118 25.8628 14.9319 13.8671
92 1 4 -0.60118 10.6692 6.15984 1.04697
93 1 4 -0.601179 24.6974 14.2591 11.9641
94 1 4 -0.601179 11.8345 6.83267 2.95001
95 1 4 -0.60118 28.9351 18.0514 9.45555
96 1 4 -0.60118 7.59682 3.04037 5.45857
97 1 4 -0.601179 30.1005 16.0329 9.45555
98 1 4 -0.601179 6.43145 5.05885 5.45857
99 1 4 -0.601179 24.6974 16.0329 9.45555
100 1 4 -0.601179 11.8345 5.05885 5.45857
101 1 4 -0.60118 25.8628 18.0514 9.45555
102 1 4 -0.60118 10.6692 3.04037 5.45857
103 1 4 -0.60118 28.9351 14.9319 13.8671
104 1 4 -0.60118 7.59682 6.15984 1.04697
105 1 4 -0.60118 30.1005 14.2591 11.9641
106 1 4 -0.60118 6.43145 6.83267 2.95001
48125 16008 5 -0.35 14.0756 13.1834 0.523046
48126 16008 6 0.7 23.2324 18.1026 14.3327
48127 16008 5 -0.35 23.2562 17.7489 13.2282
48173 16024 5 -0.35 26.974 15.8632 7.00431
48174 16024 6 0.7 26.4487 15.0557 6.35804
48175 16024 5 -0.35 25.9234 14.2482 5.71178
48188 16029 5 -0.35 5.71751 2.01606 3.15588
48189 16029 6 0.7 5.72256 2.54625 2.12415
48190 16029 5 -0.35 5.7276 3.07644 1.09241
48200 16033 5 -0.35 21.6609 6.54448 4.3904
48201 16033 6 0.7 22.0676 5.70454 3.70146
48202 16033 5 -0.35 4.20838 4.86459 3.01252
48260 16053 5 -0.35 13.0528 8.8419 12.4589
48261 16053 6 0.7 13.9711 9.50033 12.1966
48262 16053 5 -0.35 14.8894 10.1587 11.9344
48326 16075 5 -0.35 28.0646 10.8418 13.8905
48327 16075 6 0.7 28.9061 10.4478 14.585
48328 16075 5 -0.35 20.6146 4.7809 0.365351
48362 16087 5 -0.35 9.94974 9.62691 1.06695
48363 16087 6 0.7 9.39617 9.76819 0.0574009
48364 16087 5 -0.35 17.9756 15.1824 13.962
48371 16090 5 -0.35 18.9919 9.86281 12.8972
48372 16090 6 0.7 18.7182 10.9583 13.1628
48373 16090 5 -0.35 18.4445 12.0538 13.4285
48377 16092 5 -0.35 15.1208 4.04198 11.1826
48378 16092 6 0.7 15.0398 5.09248 11.6679
48379 16092 5 -0.35 14.9587 6.14298 12.1532
48383 16094 5 -0.35 8.30558 5.22197 8.35816
48384 16094 6 0.7 7.55475 6.07804 8.57951
48385 16094 5 -0.35 25.0699 6.93411 8.80087
48392 16097 5 -0.35 22.9689 8.35143 6.77786
48393 16097 6 0.7 21.8519 8.30584 7.08745
48394 16097 5 -0.35 20.7349 8.26025 7.39704
48395 16098 5 -0.35 20.067 16.8623 10.4768
48396 16098 6 0.7 20.7071 17.8039 10.6989
48397 16098 5 -0.35 21.3472 18.7454 10.9211
48413 16104 5 -0.35 35.1822 20.1492 13.946
48414 16104 6 0.7 34.8735 20.118 12.8283
48415 16104 5 -0.35 25.4318 4.26804 11.7106
48416 16105 5 -0.35 25.4927 11.775 3.66184
48417 16105 6 0.7 25.2159 11.1697 2.71177
48418 16105 5 -0.35 24.9391 10.5644 1.7617
48422 16107 5 -0.35 21.1451 12.6466 1.60585
48423 16107 6 0.7 21.7176 12.9432 0.641588
48424 16107 5 -0.35 31.4232 18.5128 14.5914
48434 16111 5 -0.35 22.9571 12.5067 4.36087
48435 16111 6 0.7 22.4591 11.7374 5.07201
48436 16111 5 -0.35 21.9611 10.968 5.78316
48437 16112 5 -0.35 14.9173 15.9574 12.7979
48438 16112 6 0.7 14.8094 16.632 11.8604
48439 16112 5 -0.35 14.7016 17.3066 10.9229
48440 16113 5 -0.35 18.5759 10.7816 6.00143
48441 16113 6 0.7 17.4999 10.9252 6.41013
48442 16113 5 -0.35 16.4238 11.0689 6.81882
ITEM: TIMESTEP
68000
ITEM: NUMBER OF ATOMS
166
ITEM: BOX BOUNDS xy xz yz pp pp pp
0.0000000000000000e+00 3.6531964750000000e+01 9.1329911900000003e+00
0.0000000000000000e+00 2.1091739680000000e+01 9.1329911900000003e+00
0.0000000000000000e+00 1.4914112149999999e+01 5.2729349200000000e+00
ITEM: ATOMS id mol type q x y z
1 1 1 1.10383 27.399 17.6496 10.5383
2 1 1 1.10383 9.13299 3.44217 4.3758
3 1 1 1.10383 27.399 15.8188 13.1274
4 1 1 1.10383 9.13299 5.27293 1.78671
5 1 1 1.10383 25.8135 14.9034 10.5383
6 1 1 1.10383 10.7185 6.18832 4.3758
7 1 1 1.10383 28.9845 14.9034 10.5383
8 1 1 1.10383 7.5475 6.18832 4.3758
9 1 2 0.115889 18.266 5.48596 12.6084
10 1 2 0.115889 18.266 15.6058 2.30572
11 1 2 0.115888 18.266 13.716 0.969417
12 1 2 0.115888 18.266 7.37578 13.9447
13 1 2 0.11589 25.3934 11.4908 8.12521
14 1 2 0.11589 11.1386 9.60096 6.7889
15 1 2 0.115888 11.1386 11.4908 8.12521
16 1 2 0.115888 25.3934 9.60096 6.7889
17 1 2 0.115889 15.5206 8.96083 0.969417
18 1 2 0.115889 21.0114 12.1309 13.9447
19 1 2 0.115888 22.648 13.0758 12.6084
20 1 2 0.115888 13.884 8.01592 2.30572
21 1 2 0.115889 21.0114 3.90092 8.12521
22 1 2 0.115889 15.5206 17.1908 6.7889
23 1 2 0.115887 13.884 16.2459 8.12521
24 1 2 0.115887 22.648 4.84583 6.7889
25 1 2 0.115889 22.648 16.2459 8.12521
26 1 2 0.115889 13.884 4.84583 6.7889
27 1 2 0.115887 15.5206 3.90092 8.12521
28 1 2 0.115887 21.0114 17.1908 6.7889
29 1 2 0.115889 21.0114 8.96083 0.969417
30 1 2 0.115889 15.5206 12.1309 13.9447
31 1 2 0.115887 13.884 13.0758 12.6084
32 1 2 0.115887 22.648 8.01592 2.30572
33 1 3 0.671939 27.399 18.7442 13.2542
34 1 3 0.671939 9.13299 2.34751 1.65994
35 1 3 0.671939 27.399 12.8934 9.117
36 1 3 0.671939 9.13299 8.19836 5.79712
37 1 3 0.67194 24.8655 14.3561 13.2542
38 1 3 0.67194 11.6665 6.73565 1.65994
39 1 3 0.67194 29.9325 17.2815 9.117
40 1 3 0.67194 6.5995 3.81022 5.79712
41 1 3 0.67194 24.8655 17.2815 9.117
42 1 3 0.67194 11.6665 3.81022 5.79712
43 1 3 0.67194 29.9325 14.3561 13.2542
44 1 3 0.67194 6.5995 6.73565 1.65994
45 1 3 -0.11508 27.399 19.957 14.1117
46 1 3 -0.11508 9.13299 1.13474 0.802379
47 1 3 -0.11508 27.399 11.6806 8.25944
48 1 3 -0.11508 9.13299 9.41113 6.65468
49 1 3 -0.11508 23.8152 13.7497 14.1117
50 1 3 -0.11508 12.7168 7.34203 0.802379
51 1 3 -0.11508 30.9828 17.8879 8.25944
52 1 3 -0.11508 5.54921 3.20384 6.65468
53 1 3 -0.11508 23.8152 17.8879 8.25944
54 1 3 -0.11508 12.7168 3.20384 6.65468
55 1 3 -0.11508 30.9828 13.7497 14.1117
56 1 3 -0.11508 5.54921 7.34203 0.802379
57 1 3 -0.0559 18.266 5.39949 13.5316
58 1 3 -0.0559 18.266 15.6923 1.38254
59 1 3 -0.055903 18.266 14.5575 0.580159
60 1 3 -0.055903 18.266 6.53422 14.334
61 1 3 -0.0559 26.1971 11.1132 7.85825
62 1 3 -0.0559 10.3349 9.9785 7.05587
63 1 3 -0.055903 10.3349 11.1132 7.85825
64 1 3 -0.055903 26.1971 9.9785 7.05587
65 1 3 -0.0559 14.7918 8.54005 0.580159
66 1 3 -0.0559 21.7402 12.5517 14.334
67 1 3 -0.055903 22.7229 13.1191 13.5316
68 1 3 -0.055903 13.8091 7.97268 1.38254
69 1 3 -0.0559 21.7402 3.39366 7.85825
70 1 3 -0.0559 14.7918 17.6981 7.05587
71 1 3 -0.055903 13.8091 17.1307 7.85825
72 1 3 -0.055903 22.7229 3.96103 7.05587
73 1 3 -0.055901 22.7229 17.1307 7.85825
74 1 3 -0.055901 13.8091 3.96103 7.05587
75 1 3 -0.055903 14.7918 3.39366 7.85825
76 1 3 -0.055903 21.7402 17.6981 7.05587
77 1 3 -0.0559 21.7402 8.54005 0.580159
78 1 3 -0.0559 14.7918 12.5517 14.334
79 1 3 -0.055903 13.8091 13.1191 13.5316
80 1 3 -0.055903 22.7229 7.97268 1.38254
81 1 4 -1.26215 27.399 15.8188 11.1856
82 1 4 -1.26215 9.13299 5.27293 3.72853
83 1 4 -0.60118 27.399 18.9383 11.9641
84 1 4 -0.60118 9.13299 2.15347 2.95001
85 1 4 -0.601179 27.399 17.5926 13.8671
86 1 4 -0.601179 9.13299 3.49912 1.04697
87 1 4 -0.601179 26.2336 13.3722 9.45555
88 1 4 -0.601179 10.2984 7.71958 5.45857
89 1 4 -0.60118 28.5643 13.3722 9.45555
90 1 4 -0.60118 7.96762 7.71958 5.45857
91 1 4 -0.60118 25.8628 14.9319 13.8671
92 1 4 -0.60118 10.6692 6.15984 1.04697
93 1 4 -0.601179 24.6974 14.2591 11.9641
94 1 4 -0.601179 11.8345 6.83267 2.95001
95 1 4 -0.60118 28.9351 18.0514 9.45555
96 1 4 -0.60118 7.59682 3.04037 5.45857
97 1 4 -0.601179 30.1005 16.0329 9.45555
98 1 4 -0.601179 6.43145 5.05885 5.45857
99 1 4 -0.601179 24.6974 16.0329 9.45555
100 1 4 -0.601179 11.8345 5.05885 5.45857
101 1 4 -0.60118 25.8628 18.0514 9.45555
102 1 4 -0.60118 10.6692 3.04037 5.45857
103 1 4 -0.60118 28.9351 14.9319 13.8671
104 1 4 -0.60118 7.59682 6.15984 1.04697
105 1 4 -0.60118 30.1005 14.2591 11.9641
106 1 4 -0.60118 6.43145 6.83267 2.95001
48632 16177 5 -0.35 25.0732 6.13978 8.62077
48633 16177 6 0.7 24.3852 6.82625 7.98754
48634 16177 5 -0.35 23.6972 7.51271 7.3543
48683 16194 5 -0.35 10.1322 4.00321 9.04887
48684 16194 6 0.7 9.76387 3.9113 10.145
48685 16194 5 -0.35 18.5285 19.6382 11.2411
48956 16285 5 -0.35 5.74268 3.76668 0.93204
48957 16285 6 0.7 15.0899 9.26157 14.7279
48958 16285 5 -0.35 15.3042 9.48351 13.6097
48974 16291 5 -0.35 20.2688 15.8102 12.7485
48975 16291 6 0.7 20.7181 15.1881 11.8786
48976 16291 5 -0.35 21.1675 14.5661 11.0088
48995 16298 5 -0.35 23.7187 9.78201 10.8429
48996 16298 6 0.7 22.6893 9.9275 11.3575
48997 16298 5 -0.35 21.66 10.073 11.8722
48998 16299 5 -0.35 18.3357 11.9705 12.6895
48999 16299 6 0.7 18.4467 10.8182 12.6155
49000 16299 5 -0.35 18.5577 9.66586 12.5415
49040 16313 5 -0.35 22.4561 6.98437 12.2612
49041 16313 6 0.7 21.9561 5.93814 12.2293
49042 16313 5 -0.35 21.4561 4.89191 12.1974
49058 16319 5 -0.35 21.556 16.8138 3.85742
49059 16319 6 0.7 12.3746 1.10332 2.7035
49060 16319 5 -0.35 12.3262 1.2116 1.54958
49061 16320 5 -0.35 18.0767 14.8899 5.26886
49062 16320 6 0.7 18.1262 15.7433 6.05296
49063 16320 5 -0.35 18.1758 16.5967 6.83706
49076 16325 5 -0.35 14.6186 15.4849 3.6447
49077 16325 6 0.7 14.0044 16.1689 2.93723
49078 16325 5 -0.35 4.2573 1.03413 2.22977
49094 16331 5 -0.35 17.2707 16.7423 14.22
49095 16331 6 0.7 17.3854 16.4155 13.113
49096 16331 5 -0.35 17.5001 16.0886 12.0059
49109 16336 5 -0.35 18.4797 4.84615 3.78866
49110 16336 6 0.7 19.3047 4.64065 4.57784
49111 16336 5 -0.35 20.1296 4.43514 5.36702
49112 16337 5 -0.35 24.6909 14.9218 0.00547574
49113 16337 6 0.7 33.7212 20.0601 13.772
49114 16337 5 -0.35 33.6184 19.9254 12.6245
49115 16338 5 -0.35 10.1787 11.2427 3.46648
49116 16338 6 0.7 9.69514 10.4007 2.83182
49117 16338 5 -0.35 9.21161 9.55867 2.19717
49127 16342 5 -0.35 18.573 5.28865 9.80594
49128 16342 6 0.7 18.4389 5.50543 8.6743
49129 16342 5 -0.35 18.3048 5.72221 7.54265
49133 16344 5 -0.35 14.1197 11.4788 5.64535
49134 16344 6 0.7 14.1559 12.3823 6.37188
49135 16344 5 -0.35 14.192 13.2859 7.09841
49136 16345 5 -0.35 21.2362 11.423 9.27707
49137 16345 6 0.7 21.1682 11.6342 8.13848
49138 16345 5 -0.35 21.1003 11.8454 6.99989
49142 16347 5 -0.35 15.3417 8.46889 7.57749
49143 16347 6 0.7 14.6946 8.33147 6.62467
49144 16347 5 -0.35 14.0474 8.19405 5.67185
49148 16349 5 -0.35 15.9194 6.34473 9.69524
49149 16349 6 0.7 15.0882 7.08692 10.0175
49150 16349 5 -0.35 14.257 7.82911 10.3398
49154 16351 5 -0.35 26.1724 14.7847 5.84611
49155 16351 6 0.7 26.6623 14.2901 4.91824
49156 16351 5 -0.35 27.1522 13.7955 3.99037
ITEM: TIMESTEP
69000
ITEM: NUMBER OF ATOMS
154
ITEM: BOX BOUNDS xy xz yz pp pp pp
0.0000000000000000e+00 3.6531964750000000e+01 9.1329911900000003e+00
0.0000000000000000e+00 2.1091739680000000e+01 9.1329911900000003e+00
0.0000000000000000e+00 1.4914112149999999e+01 5.2729349200000000e+00
ITEM: ATOMS id mol type q x y z
1 1 1 1.10383 27.399 17.6496 10.5383
2 1 1 1.10383 9.13299 3.44217 4.3758
3 1 1 1.10383 27.399 15.8188 13.1274
4 1 1 1.10383 9.13299 5.27293 1.78671
5 1 1 1.10383 25.8135 14.9034 10.5383
6 1 1 1.10383 10.7185 6.18832 4.3758
7 1 1 1.10383 28.9845 14.9034 10.5383
8 1 1 1.10383 7.5475 6.18832 4.3758
9 1 2 0.115889 18.266 5.48596 12.6084
10 1 2 0.115889 18.266 15.6058 2.30572
11 1 2 0.115888 18.266 13.716 0.969417
12 1 2 0.115888 18.266 7.37578 13.9447
13 1 2 0.11589 25.3934 11.4908 8.12521
14 1 2 0.11589 11.1386 9.60096 6.7889
15 1 2 0.115888 11.1386 11.4908 8.12521
16 1 2 0.115888 25.3934 9.60096 6.7889
17 1 2 0.115889 15.5206 8.96083 0.969417
18 1 2 0.115889 21.0114 12.1309 13.9447
19 1 2 0.115888 22.648 13.0758 12.6084
20 1 2 0.115888 13.884 8.01592 2.30572
21 1 2 0.115889 21.0114 3.90092 8.12521
22 1 2 0.115889 15.5206 17.1908 6.7889
23 1 2 0.115887 13.884 16.2459 8.12521
24 1 2 0.115887 22.648 4.84583 6.7889
25 1 2 0.115889 22.648 16.2459 8.12521
26 1 2 0.115889 13.884 4.84583 6.7889
27 1 2 0.115887 15.5206 3.90092 8.12521
28 1 2 0.115887 21.0114 17.1908 6.7889
29 1 2 0.115889 21.0114 8.96083 0.969417
30 1 2 0.115889 15.5206 12.1309 13.9447
31 1 2 0.115887 13.884 13.0758 12.6084
32 1 2 0.115887 22.648 8.01592 2.30572
33 1 3 0.671939 27.399 18.7442 13.2542
34 1 3 0.671939 9.13299 2.34751 1.65994
35 1 3 0.671939 27.399 12.8934 9.117
36 1 3 0.671939 9.13299 8.19836 5.79712
37 1 3 0.67194 24.8655 14.3561 13.2542
38 1 3 0.67194 11.6665 6.73565 1.65994
39 1 3 0.67194 29.9325 17.2815 9.117
40 1 3 0.67194 6.5995 3.81022 5.79712
41 1 3 0.67194 24.8655 17.2815 9.117
42 1 3 0.67194 11.6665 3.81022 5.79712
43 1 3 0.67194 29.9325 14.3561 13.2542
44 1 3 0.67194 6.5995 6.73565 1.65994
45 1 3 -0.11508 27.399 19.957 14.1117
46 1 3 -0.11508 9.13299 1.13474 0.802379
47 1 3 -0.11508 27.399 11.6806 8.25944
48 1 3 -0.11508 9.13299 9.41113 6.65468
49 1 3 -0.11508 23.8152 13.7497 14.1117
50 1 3 -0.11508 12.7168 7.34203 0.802379
51 1 3 -0.11508 30.9828 17.8879 8.25944
52 1 3 -0.11508 5.54921 3.20384 6.65468
53 1 3 -0.11508 23.8152 17.8879 8.25944
54 1 3 -0.11508 12.7168 3.20384 6.65468
55 1 3 -0.11508 30.9828 13.7497 14.1117
56 1 3 -0.11508 5.54921 7.34203 0.802379
57 1 3 -0.0559 18.266 5.39949 13.5316
58 1 3 -0.0559 18.266 15.6923 1.38254
59 1 3 -0.055903 18.266 14.5575 0.580159
60 1 3 -0.055903 18.266 6.53422 14.334
61 1 3 -0.0559 26.1971 11.1132 7.85825
62 1 3 -0.0559 10.3349 9.9785 7.05587
63 1 3 -0.055903 10.3349 11.1132 7.85825
64 1 3 -0.055903 26.1971 9.9785 7.05587
65 1 3 -0.0559 14.7918 8.54005 0.580159
66 1 3 -0.0559 21.7402 12.5517 14.334
67 1 3 -0.055903 22.7229 13.1191 13.5316
68 1 3 -0.055903 13.8091 7.97268 1.38254
69 1 3 -0.0559 21.7402 3.39366 7.85825
70 1 3 -0.0559 14.7918 17.6981 7.05587
71 1 3 -0.055903 13.8091 17.1307 7.85825
72 1 3 -0.055903 22.7229 3.96103 7.05587
73 1 3 -0.055901 22.7229 17.1307 7.85825
74 1 3 -0.055901 13.8091 3.96103 7.05587
75 1 3 -0.055903 14.7918 3.39366 7.85825
76 1 3 -0.055903 21.7402 17.6981 7.05587
77 1 3 -0.0559 21.7402 8.54005 0.580159
78 1 3 -0.0559 14.7918 12.5517 14.334
79 1 3 -0.055903 13.8091 13.1191 13.5316
80 1 3 -0.055903 22.7229 7.97268 1.38254
81 1 4 -1.26215 27.399 15.8188 11.1856
82 1 4 -1.26215 9.13299 5.27293 3.72853
83 1 4 -0.60118 27.399 18.9383 11.9641
84 1 4 -0.60118 9.13299 2.15347 2.95001
85 1 4 -0.601179 27.399 17.5926 13.8671
86 1 4 -0.601179 9.13299 3.49912 1.04697
87 1 4 -0.601179 26.2336 13.3722 9.45555
88 1 4 -0.601179 10.2984 7.71958 5.45857
89 1 4 -0.60118 28.5643 13.3722 9.45555
90 1 4 -0.60118 7.96762 7.71958 5.45857
91 1 4 -0.60118 25.8628 14.9319 13.8671
92 1 4 -0.60118 10.6692 6.15984 1.04697
93 1 4 -0.601179 24.6974 14.2591 11.9641
94 1 4 -0.601179 11.8345 6.83267 2.95001
95 1 4 -0.60118 28.9351 18.0514 9.45555
96 1 4 -0.60118 7.59682 3.04037 5.45857
97 1 4 -0.601179 30.1005 16.0329 9.45555
98 1 4 -0.601179 6.43145 5.05885 5.45857
99 1 4 -0.601179 24.6974 16.0329 9.45555
100 1 4 -0.601179 11.8345 5.05885 5.45857
101 1 4 -0.60118 25.8628 18.0514 9.45555
102 1 4 -0.60118 10.6692 3.04037 5.45857
103 1 4 -0.60118 28.9351 14.9319 13.8671
104 1 4 -0.60118 7.59682 6.15984 1.04697
105 1 4 -0.60118 30.1005 14.2591 11.9641
106 1 4 -0.60118 6.43145 6.83267 2.95001
48956 16285 5 -0.35 6.10975 3.34969 0.797426
48957 16285 6 0.7 15.2983 8.9048 14.5878
48958 16285 5 -0.35 15.3538 9.18697 13.464
49664 16521 5 -0.35 13.3124 0.70277 1.65272
49665 16521 6 0.7 13.0527 0.777315 0.524633
49666 16521 5 -0.35 21.9259 6.12479 14.3107
49700 16533 5 -0.35 30.8901 18.988 13.0774
49701 16533 6 0.7 31.2641 19.7673 12.3037
49702 16533 5 -0.35 22.5051 4.72768 11.5301
49709 16536 5 -0.35 14.0595 5.87352 13.9072
49710 16536 6 0.7 22.917 20.5682 13.9845
49711 16536 5 -0.35 22.6416 19.444 14.0617
49721 16540 5 -0.35 26.3253 14.4368 6.30138
49722 16540 6 0.7 25.5003 14.6891 5.52593
49723 16540 5 -0.35 24.6753 14.9414 4.75048
49742 16547 5 -0.35 9.34877 8.88706 1.76736
49743 16547 6 0.7 9.18983 9.07602 0.633948
49744 16547 5 -0.35 18.1639 14.5379 14.4146
49754 16551 5 -0.35 14.2464 10.7944 10.9063
49755 16551 6 0.7 13.5203 9.96612 10.5424
49756 16551 5 -0.35 12.7943 9.13782 10.1785
49799 16566 5 -0.35 12.9721 15.7335 5.03931
49800 16566 6 0.7 12.1376 16.538 4.99363
49801 16566 5 -0.35 29.5691 17.3424 4.94796
49820 16573 5 -0.35 22.9469 13.5285 9.05903
49821 16573 6 0.7 23.2604 13.4265 7.94688
49822 16573 5 -0.35 23.574 13.3245 6.83473
49832 16577 5 -0.35 17.6029 3.69283 5.67682
49833 16577 6 0.7 17.385 2.73377 5.06175
49834 16577 5 -0.35 17.167 1.77471 4.44668
49835 16578 5 -0.35 14.1891 4.54422 3.63296
49836 16578 6 0.7 13.6148 4.00115 2.78393
49837 16578 5 -0.35 13.0405 3.45808 1.9349
49853 16584 5 -0.35 2.09016 0.722689 1.3144
49854 16584 6 0.7 2.01047 1.60962 0.571031
49855 16584 5 -0.35 11.0638 7.76949 14.7418
49865 16588 5 -0.35 27.4509 10.2565 14.4864
49866 16588 6 0.7 27.3391 10.5089 13.3598
49867 16588 5 -0.35 27.2273 10.7613 12.2331
49868 16589 5 -0.35 17.718 7.56284 5.27491
49869 16589 6 0.7 18.4317 7.04433 6.02819
49870 16589 5 -0.35 19.1453 6.52582 6.78146
49874 16591 5 -0.35 9.85838 14.1526 3.66318
49875 16591 6 0.7 10.1551 13.3579 2.87204
49876 16591 5 -0.35 10.4519 12.5631 2.0809
49877 16592 5 -0.35 13.3249 10.674 4.31405
49878 16592 6 0.7 14.3261 11.2502 4.20797
49879 16592 5 -0.35 15.3273 11.8263 4.1019
ITEM: TIMESTEP
70000
ITEM: NUMBER OF ATOMS
172
ITEM: BOX BOUNDS xy xz yz pp pp pp
0.0000000000000000e+00 3.6531964750000000e+01 9.1329911900000003e+00
0.0000000000000000e+00 2.1091739680000000e+01 9.1329911900000003e+00
0.0000000000000000e+00 1.4914112149999999e+01 5.2729349200000000e+00
ITEM: ATOMS id mol type q x y z
1 1 1 1.10383 27.399 17.6496 10.5383
2 1 1 1.10383 9.13299 3.44217 4.3758
3 1 1 1.10383 27.399 15.8188 13.1274
4 1 1 1.10383 9.13299 5.27293 1.78671
5 1 1 1.10383 25.8135 14.9034 10.5383
6 1 1 1.10383 10.7185 6.18832 4.3758
7 1 1 1.10383 28.9845 14.9034 10.5383
8 1 1 1.10383 7.5475 6.18832 4.3758
9 1 2 0.115889 18.266 5.48596 12.6084
10 1 2 0.115889 18.266 15.6058 2.30572
11 1 2 0.115888 18.266 13.716 0.969417
12 1 2 0.115888 18.266 7.37578 13.9447
13 1 2 0.11589 25.3934 11.4908 8.12521
14 1 2 0.11589 11.1386 9.60096 6.7889
15 1 2 0.115888 11.1386 11.4908 8.12521
16 1 2 0.115888 25.3934 9.60096 6.7889
17 1 2 0.115889 15.5206 8.96083 0.969417
18 1 2 0.115889 21.0114 12.1309 13.9447
19 1 2 0.115888 22.648 13.0758 12.6084
20 1 2 0.115888 13.884 8.01592 2.30572
21 1 2 0.115889 21.0114 3.90092 8.12521
22 1 2 0.115889 15.5206 17.1908 6.7889
23 1 2 0.115887 13.884 16.2459 8.12521
24 1 2 0.115887 22.648 4.84583 6.7889
25 1 2 0.115889 22.648 16.2459 8.12521
26 1 2 0.115889 13.884 4.84583 6.7889
27 1 2 0.115887 15.5206 3.90092 8.12521
28 1 2 0.115887 21.0114 17.1908 6.7889
29 1 2 0.115889 21.0114 8.96083 0.969417
30 1 2 0.115889 15.5206 12.1309 13.9447
31 1 2 0.115887 13.884 13.0758 12.6084
32 1 2 0.115887 22.648 8.01592 2.30572
33 1 3 0.671939 27.399 18.7442 13.2542
34 1 3 0.671939 9.13299 2.34751 1.65994
35 1 3 0.671939 27.399 12.8934 9.117
36 1 3 0.671939 9.13299 8.19836 5.79712
37 1 3 0.67194 24.8655 14.3561 13.2542
38 1 3 0.67194 11.6665 6.73565 1.65994
39 1 3 0.67194 29.9325 17.2815 9.117
40 1 3 0.67194 6.5995 3.81022 5.79712
41 1 3 0.67194 24.8655 17.2815 9.117
42 1 3 0.67194 11.6665 3.81022 5.79712
43 1 3 0.67194 29.9325 14.3561 13.2542
44 1 3 0.67194 6.5995 6.73565 1.65994
45 1 3 -0.11508 27.399 19.957 14.1117
46 1 3 -0.11508 9.13299 1.13474 0.802379
47 1 3 -0.11508 27.399 11.6806 8.25944
48 1 3 -0.11508 9.13299 9.41113 6.65468
49 1 3 -0.11508 23.8152 13.7497 14.1117
50 1 3 -0.11508 12.7168 7.34203 0.802379
51 1 3 -0.11508 30.9828 17.8879 8.25944
52 1 3 -0.11508 5.54921 3.20384 6.65468
53 1 3 -0.11508 23.8152 17.8879 8.25944
54 1 3 -0.11508 12.7168 3.20384 6.65468
55 1 3 -0.11508 30.9828 13.7497 14.1117
56 1 3 -0.11508 5.54921 7.34203 0.802379
57 1 3 -0.0559 18.266 5.39949 13.5316
58 1 3 -0.0559 18.266 15.6923 1.38254
59 1 3 -0.055903 18.266 14.5575 0.580159
60 1 3 -0.055903 18.266 6.53422 14.334
61 1 3 -0.0559 26.1971 11.1132 7.85825
62 1 3 -0.0559 10.3349 9.9785 7.05587
63 1 3 -0.055903 10.3349 11.1132 7.85825
64 1 3 -0.055903 26.1971 9.9785 7.05587
65 1 3 -0.0559 14.7918 8.54005 0.580159
66 1 3 -0.0559 21.7402 12.5517 14.334
67 1 3 -0.055903 22.7229 13.1191 13.5316
68 1 3 -0.055903 13.8091 7.97268 1.38254
69 1 3 -0.0559 21.7402 3.39366 7.85825
70 1 3 -0.0559 14.7918 17.6981 7.05587
71 1 3 -0.055903 13.8091 17.1307 7.85825
72 1 3 -0.055903 22.7229 3.96103 7.05587
73 1 3 -0.055901 22.7229 17.1307 7.85825
74 1 3 -0.055901 13.8091 3.96103 7.05587
75 1 3 -0.055903 14.7918 3.39366 7.85825
76 1 3 -0.055903 21.7402 17.6981 7.05587
77 1 3 -0.0559 21.7402 8.54005 0.580159
78 1 3 -0.0559 14.7918 12.5517 14.334
79 1 3 -0.055903 13.8091 13.1191 13.5316
80 1 3 -0.055903 22.7229 7.97268 1.38254
81 1 4 -1.26215 27.399 15.8188 11.1856
82 1 4 -1.26215 9.13299 5.27293 3.72853
83 1 4 -0.60118 27.399 18.9383 11.9641
84 1 4 -0.60118 9.13299 2.15347 2.95001
85 1 4 -0.601179 27.399 17.5926 13.8671
86 1 4 -0.601179 9.13299 3.49912 1.04697
87 1 4 -0.601179 26.2336 13.3722 9.45555
88 1 4 -0.601179 10.2984 7.71958 5.45857
89 1 4 -0.60118 28.5643 13.3722 9.45555
90 1 4 -0.60118 7.96762 7.71958 5.45857
91 1 4 -0.60118 25.8628 14.9319 13.8671
92 1 4 -0.60118 10.6692 6.15984 1.04697
93 1 4 -0.601179 24.6974 14.2591 11.9641
94 1 4 -0.601179 11.8345 6.83267 2.95001
95 1 4 -0.60118 28.9351 18.0514 9.45555
96 1 4 -0.60118 7.59682 3.04037 5.45857
97 1 4 -0.601179 30.1005 16.0329 9.45555
98 1 4 -0.601179 6.43145 5.05885 5.45857
99 1 4 -0.601179 24.6974 16.0329 9.45555
100 1 4 -0.601179 11.8345 5.05885 5.45857
101 1 4 -0.60118 25.8628 18.0514 9.45555
102 1 4 -0.60118 10.6692 3.04037 5.45857
103 1 4 -0.60118 28.9351 14.9319 13.8671
104 1 4 -0.60118 7.59682 6.15984 1.04697
105 1 4 -0.60118 30.1005 14.2591 11.9641
106 1 4 -0.60118 6.43145 6.83267 2.95001
50186 16695 5 -0.35 9.26452 10.3876 2.17278
50187 16695 6 0.7 9.63572 9.96246 1.15935
50188 16695 5 -0.35 10.0069 9.5373 0.145909
50351 16750 5 -0.35 18.4167 5.98583 9.641
50352 16750 6 0.7 18.3844 5.51516 8.58127
50353 16750 5 -0.35 18.3522 5.0445 7.52153
50528 16809 5 -0.35 24.1102 17.7796 13.6203
50529 16809 6 0.7 24.6268 17.5328 14.6292
50530 16809 5 -0.35 16.0104 12.013 0.723924
50546 16815 5 -0.35 20.7672 9.24185 13.5661
50547 16815 6 0.7 19.7621 9.50982 13.0526
50548 16815 5 -0.35 18.7571 9.77779 12.5391
50573 16824 5 -0.35 23.8889 13.5764 7.95785
50574 16824 6 0.7 24.7485 14.0551 7.34344
50575 16824 5 -0.35 25.6081 14.5338 6.72904
50585 16828 5 -0.35 18.9191 2.44639 6.41555
50586 16828 6 0.7 18.0024 2.77357 5.78447
50587 16828 5 -0.35 17.0857 3.10075 5.15339
50594 16831 5 -0.35 15.0442 14.472 5.58762
50595 16831 6 0.7 15.2426 14.6319 4.45596
50596 16831 5 -0.35 15.441 14.7919 3.3243
50663 16854 5 -0.35 13.3213 3.04659 3.39017
50664 16854 6 0.7 14.1628 3.84484 3.40871
50665 16854 5 -0.35 15.0042 4.6431 3.42726
50684 16861 5 -0.35 10.6366 6.98584 9.60533
50685 16861 6 0.7 11.5499 7.66463 9.38026
50686 16861 5 -0.35 12.4633 8.34342 9.1552
50696 16865 5 -0.35 21.9725 14.1344 4.34122
50697 16865 6 0.7 22.6388 14.8208 3.68505
50698 16865 5 -0.35 23.3051 15.5071 3.02888
50714 16871 5 -0.35 5.54956 1.09416 1.43873
50715 16871 6 0.7 5.34873 1.28924 0.31303
50716 16871 5 -0.35 14.2809 6.75726 14.1014
50717 16872 5 -0.35 20.1892 14.9831 12.0357
50718 16872 6 0.7 20.7743 15.8638 12.5129
50719 16872 5 -0.35 21.3594 16.7444 12.99
50720 16873 5 -0.35 15.907 9.07019 9.61027
50721 16873 6 0.7 15.4842 9.6222 10.5388
50722 16873 5 -0.35 15.0614 10.1742 11.4673
50726 16875 5 -0.35 16.7884 13.0087 11.2101
50727 16875 6 0.7 17.7049 12.9377 10.5026
50728 16875 5 -0.35 18.6214 12.8666 9.79509
50729 16876 5 -0.35 18.2243 15.1585 5.37253
50730 16876 6 0.7 18.9643 14.8372 6.20608
50731 16876 5 -0.35 19.7042 14.5158 7.03964
50741 16880 5 -0.35 18.7478 9.65834 3.50492
50742 16880 6 0.7 18.9078 10.4664 2.6882
50743 16880 5 -0.35 19.0677 11.2745 1.87148
50747 16882 5 -0.35 22.589 10.4605 8.45388
50748 16882 6 0.7 22.7126 10.4764 7.3006
50749 16882 5 -0.35 22.8361 10.4923 6.14731
50753 16884 5 -0.35 17.6213 8.13 6.56405
50754 16884 6 0.7 18.5801 8.70871 6.86637
50755 16884 5 -0.35 19.5389 9.28742 7.16869
50756 16885 5 -0.35 21.977 11.6266 2.75806
50757 16885 6 0.7 22.5122 11.6066 1.72912
50758 16885 5 -0.35 23.0474 11.5866 0.700166
50759 16886 5 -0.35 18.7742 2.6476 2.39625
50760 16886 6 0.7 19.2627 3.35018 1.61313
50761 16886 5 -0.35 19.7513 4.05277 0.830008
50762 16887 5 -0.35 27.9512 15.1517 3.47973
50763 16887 6 0.7 27.9154 14.1884 4.12498
50764 16887 5 -0.35 9.61364 13.2251 4.77023
50765 16888 5 -0.35 14.5815 11.3159 5.97465
50766 16888 6 0.7 15.125 11.7649 6.89589
50767 16888 5 -0.35 15.6684 12.2138 7.81714
ITEM: TIMESTEP
71000
ITEM: NUMBER OF ATOMS
193
ITEM: BOX BOUNDS xy xz yz pp pp pp
0.0000000000000000e+00 3.6531964750000000e+01 9.1329911900000003e+00
0.0000000000000000e+00 2.1091739680000000e+01 9.1329911900000003e+00
0.0000000000000000e+00 1.4914112149999999e+01 5.2729349200000000e+00
ITEM: ATOMS id mol type q x y z
1 1 1 1.10383 27.399 17.6496 10.5383
2 1 1 1.10383 9.13299 3.44217 4.3758
3 1 1 1.10383 27.399 15.8188 13.1274
4 1 1 1.10383 9.13299 5.27293 1.78671
5 1 1 1.10383 25.8135 14.9034 10.5383
6 1 1 1.10383 10.7185 6.18832 4.3758
7 1 1 1.10383 28.9845 14.9034 10.5383
8 1 1 1.10383 7.5475 6.18832 4.3758
9 1 2 0.115889 18.266 5.48596 12.6084
10 1 2 0.115889 18.266 15.6058 2.30572
11 1 2 0.115888 18.266 13.716 0.969417
12 1 2 0.115888 18.266 7.37578 13.9447
13 1 2 0.11589 25.3934 11.4908 8.12521
14 1 2 0.11589 11.1386 9.60096 6.7889
15 1 2 0.115888 11.1386 11.4908 8.12521
16 1 2 0.115888 25.3934 9.60096 6.7889
17 1 2 0.115889 15.5206 8.96083 0.969417
18 1 2 0.115889 21.0114 12.1309 13.9447
19 1 2 0.115888 22.648 13.0758 12.6084
20 1 2 0.115888 13.884 8.01592 2.30572
21 1 2 0.115889 21.0114 3.90092 8.12521
22 1 2 0.115889 15.5206 17.1908 6.7889
23 1 2 0.115887 13.884 16.2459 8.12521
24 1 2 0.115887 22.648 4.84583 6.7889
25 1 2 0.115889 22.648 16.2459 8.12521
26 1 2 0.115889 13.884 4.84583 6.7889
27 1 2 0.115887 15.5206 3.90092 8.12521
28 1 2 0.115887 21.0114 17.1908 6.7889
29 1 2 0.115889 21.0114 8.96083 0.969417
30 1 2 0.115889 15.5206 12.1309 13.9447
31 1 2 0.115887 13.884 13.0758 12.6084
32 1 2 0.115887 22.648 8.01592 2.30572
33 1 3 0.671939 27.399 18.7442 13.2542
34 1 3 0.671939 9.13299 2.34751 1.65994
35 1 3 0.671939 27.399 12.8934 9.117
36 1 3 0.671939 9.13299 8.19836 5.79712
37 1 3 0.67194 24.8655 14.3561 13.2542
38 1 3 0.67194 11.6665 6.73565 1.65994
39 1 3 0.67194 29.9325 17.2815 9.117
40 1 3 0.67194 6.5995 3.81022 5.79712
41 1 3 0.67194 24.8655 17.2815 9.117
42 1 3 0.67194 11.6665 3.81022 5.79712
43 1 3 0.67194 29.9325 14.3561 13.2542
44 1 3 0.67194 6.5995 6.73565 1.65994
45 1 3 -0.11508 27.399 19.957 14.1117
46 1 3 -0.11508 9.13299 1.13474 0.802379
47 1 3 -0.11508 27.399 11.6806 8.25944
48 1 3 -0.11508 9.13299 9.41113 6.65468
49 1 3 -0.11508 23.8152 13.7497 14.1117
50 1 3 -0.11508 12.7168 7.34203 0.802379
51 1 3 -0.11508 30.9828 17.8879 8.25944
52 1 3 -0.11508 5.54921 3.20384 6.65468
53 1 3 -0.11508 23.8152 17.8879 8.25944
54 1 3 -0.11508 12.7168 3.20384 6.65468
55 1 3 -0.11508 30.9828 13.7497 14.1117
56 1 3 -0.11508 5.54921 7.34203 0.802379
57 1 3 -0.0559 18.266 5.39949 13.5316
58 1 3 -0.0559 18.266 15.6923 1.38254
59 1 3 -0.055903 18.266 14.5575 0.580159
60 1 3 -0.055903 18.266 6.53422 14.334
61 1 3 -0.0559 26.1971 11.1132 7.85825
62 1 3 -0.0559 10.3349 9.9785 7.05587
63 1 3 -0.055903 10.3349 11.1132 7.85825
64 1 3 -0.055903 26.1971 9.9785 7.05587
65 1 3 -0.0559 14.7918 8.54005 0.580159
66 1 3 -0.0559 21.7402 12.5517 14.334
67 1 3 -0.055903 22.7229 13.1191 13.5316
68 1 3 -0.055903 13.8091 7.97268 1.38254
69 1 3 -0.0559 21.7402 3.39366 7.85825
70 1 3 -0.0559 14.7918 17.6981 7.05587
71 1 3 -0.055903 13.8091 17.1307 7.85825
72 1 3 -0.055903 22.7229 3.96103 7.05587
73 1 3 -0.055901 22.7229 17.1307 7.85825
74 1 3 -0.055901 13.8091 3.96103 7.05587
75 1 3 -0.055903 14.7918 3.39366 7.85825
76 1 3 -0.055903 21.7402 17.6981 7.05587
77 1 3 -0.0559 21.7402 8.54005 0.580159
78 1 3 -0.0559 14.7918 12.5517 14.334
79 1 3 -0.055903 13.8091 13.1191 13.5316
80 1 3 -0.055903 22.7229 7.97268 1.38254
81 1 4 -1.26215 27.399 15.8188 11.1856
82 1 4 -1.26215 9.13299 5.27293 3.72853
83 1 4 -0.60118 27.399 18.9383 11.9641
84 1 4 -0.60118 9.13299 2.15347 2.95001
85 1 4 -0.601179 27.399 17.5926 13.8671
86 1 4 -0.601179 9.13299 3.49912 1.04697
87 1 4 -0.601179 26.2336 13.3722 9.45555
88 1 4 -0.601179 10.2984 7.71958 5.45857
89 1 4 -0.60118 28.5643 13.3722 9.45555
90 1 4 -0.60118 7.96762 7.71958 5.45857
91 1 4 -0.60118 25.8628 14.9319 13.8671
92 1 4 -0.60118 10.6692 6.15984 1.04697
93 1 4 -0.601179 24.6974 14.2591 11.9641
94 1 4 -0.601179 11.8345 6.83267 2.95001
95 1 4 -0.60118 28.9351 18.0514 9.45555
96 1 4 -0.60118 7.59682 3.04037 5.45857
97 1 4 -0.601179 30.1005 16.0329 9.45555
98 1 4 -0.601179 6.43145 5.05885 5.45857
99 1 4 -0.601179 24.6974 16.0329 9.45555
100 1 4 -0.601179 11.8345 5.05885 5.45857
101 1 4 -0.60118 25.8628 18.0514 9.45555
102 1 4 -0.60118 10.6692 3.04037 5.45857
103 1 4 -0.60118 28.9351 14.9319 13.8671
104 1 4 -0.60118 7.59682 6.15984 1.04697
105 1 4 -0.60118 30.1005 14.2591 11.9641
106 1 4 -0.60118 6.43145 6.83267 2.95001
50186 16695 5 -0.35 20.2342 15.164 14.3492
50187 16695 6 0.7 20.3193 15.4905 13.2393
50188 16695 5 -0.35 20.4044 15.8169 12.1295
50843 16914 5 -0.35 32.0161 16.8853 14.2828
50844 16914 6 0.7 31.3651 17.146 13.3587
50845 16914 5 -0.35 30.7142 17.4066 12.4346
51008 16969 5 -0.35 22.8058 7.16173 5.18467
51009 16969 6 0.7 22.4593 6.3213 4.46413
51010 16969 5 -0.35 22.1127 5.48087 3.74359
51059 16986 5 -0.35 21.3625 6.81859 13.2608
51060 16986 6 0.7 21.8267 5.79195 12.9848
51061 16986 5 -0.35 22.2908 4.76531 12.7089
51188 17029 5 -0.35 12.6828 4.05807 0.531349
51189 17029 6 0.7 21.0913 9.44593 14.5469
51190 17029 5 -0.35 20.3667 9.56086 13.6483
51224 17041 5 -0.35 25.9897 10.4988 14.7451
51225 17041 6 0.7 26.0131 10.6201 13.5917
51226 17041 5 -0.35 26.0365 10.7414 12.4383
51272 17057 5 -0.35 23.8701 9.1561 11.8297
51273 17057 6 0.7 23.9108 9.69048 10.8009
51274 17057 5 -0.35 23.9516 10.2249 9.77212
51323 17074 5 -0.35 15.6319 17.8109 11.3161
51324 17074 6 0.7 15.7499 18.8982 10.9295
51325 17074 5 -0.35 6.7349 4.16665 10.5429
51335 17078 5 -0.35 28.7429 15.0709 5.67193
51336 17078 6 0.7 27.9895 15.494 6.44591
51337 17078 5 -0.35 27.2362 15.9171 7.21989
51374 17091 5 -0.35 3.61235 1.82067 4.25034
51375 17091 6 0.7 20.8048 2.21767 4.43881
51376 17091 5 -0.35 19.7313 2.61468 4.62728
51389 17096 5 -0.35 15.3907 15.3692 3.82752
51390 17096 6 0.7 15.3176 15.8996 2.79847
51391 17096 5 -0.35 15.2446 16.4299 1.76942
51407 17102 5 -0.35 20.7477 15.3229 3.20558
51408 17102 6 0.7 21.296 15.9473 2.39617
51409 17102 5 -0.35 12.7113 0.752837 1.58676
51419 17106 5 -0.35 13.528 10.6109 3.43937
51420 17106 6 0.7 13.5715 11.45 2.63959
51421 17106 5 -0.35 13.6149 12.2891 1.83982
51422 17107 5 -0.35 19.6723 12.6091 2.60289
51423 17107 6 0.7 19.3685 11.5059 2.41222
51424 17107 5 -0.35 19.0647 10.4028 2.22155
51431 17110 5 -0.35 22.5724 11.0898 2.93244
51432 17110 6 0.7 23.7193 11.146 2.7678
51433 17110 5 -0.35 24.8662 11.2022 2.60317
51437 17112 5 -0.35 20.6367 14.5678 7.65465
51438 17112 6 0.7 19.8175 14.3467 6.86369
51439 17112 5 -0.35 18.9983 14.1256 6.07272
51464 17121 5 -0.35 16.4941 16.1772 14.1152
51465 17121 6 0.7 16.5676 17.2815 14.4628
51466 17121 5 -0.35 34.9071 18.3857 14.8104
51470 17123 5 -0.35 15.7178 12.6512 6.45206
51471 17123 6 0.7 15.8591 12.3954 5.32946
51472 17123 5 -0.35 16.0004 12.1396 4.20687
51482 17127 5 -0.35 18.3519 8.38673 5.02931
51483 17127 6 0.7 17.6501 8.20742 4.12325
51484 17127 5 -0.35 16.9484 8.02811 3.21719
51488 17129 5 -0.35 23.6305 19.0679 12.2376
51489 17129 6 0.7 14.7093 4.37864 12.0796
51490 17129 5 -0.35 14.9211 5.50813 11.9216
51494 17131 5 -0.35 10.371 8.81746 11.9079
51495 17131 6 0.7 27.8077 8.72271 11.1023
51496 17131 5 -0.35 26.9784 8.62796 10.2967
51506 17135 5 -0.35 20.1766 11.2131 6.10934
51507 17135 6 0.7 20.5536 10.3025 5.49752
51508 17135 5 -0.35 20.9306 9.39191 4.88569
51515 17138 5 -0.35 14.3812 3.03143 3.55342
51516 17138 6 0.7 14.5909 4.08731 3.12127
51517 17138 5 -0.35 14.8006 5.14319 2.68912
51518 17139 5 -0.35 12.8117 7.3275 10.0866
51519 17139 6 0.7 12.4084 6.36337 10.5899
51520 17139 5 -0.35 12.005 5.39924 11.0933
51521 17140 5 -0.35 23.6812 15.9318 3.89054
51522 17140 6 0.7 24.6038 15.3154 4.22902
51523 17140 5 -0.35 25.5264 14.6991 4.56749
51524 17141 5 -0.35 21.2885 8.99706 10.4514
51525 17141 6 0.7 20.8128 8.91361 9.39674
51526 17141 5 -0.35 20.337 8.83016 8.34207
51527 17142 5 -0.35 19.4522 5.81503 10.3338
51528 17142 6 0.7 19.5883 5.78725 9.18211
51529 17142 5 -0.35 19.7245 5.75948 8.03046
51530 17143 5 -0.35 18.8674 5.54987 3.67239
51531 17143 6 0.7 18.3091 5.3088 4.66021
51532 17143 5 -0.35 17.7508 5.06774 5.64803
51533 17144 5 -0.35 2.73393 3.11557 1.77059
51534 17144 6 0.7 19.8732 3.13785 1.49549
51535 17144 5 -0.35 18.7465 3.16012 1.22039
ITEM: TIMESTEP
72000
ITEM: NUMBER OF ATOMS
178
ITEM: BOX BOUNDS xy xz yz pp pp pp
0.0000000000000000e+00 3.6531964750000000e+01 9.1329911900000003e+00
0.0000000000000000e+00 2.1091739680000000e+01 9.1329911900000003e+00
0.0000000000000000e+00 1.4914112149999999e+01 5.2729349200000000e+00
ITEM: ATOMS id mol type q x y z
1 1 1 1.10383 27.399 17.6496 10.5383
2 1 1 1.10383 9.13299 3.44217 4.3758
3 1 1 1.10383 27.399 15.8188 13.1274
4 1 1 1.10383 9.13299 5.27293 1.78671
5 1 1 1.10383 25.8135 14.9034 10.5383
6 1 1 1.10383 10.7185 6.18832 4.3758
7 1 1 1.10383 28.9845 14.9034 10.5383
8 1 1 1.10383 7.5475 6.18832 4.3758
9 1 2 0.115889 18.266 5.48596 12.6084
10 1 2 0.115889 18.266 15.6058 2.30572
11 1 2 0.115888 18.266 13.716 0.969417
12 1 2 0.115888 18.266 7.37578 13.9447
13 1 2 0.11589 25.3934 11.4908 8.12521
14 1 2 0.11589 11.1386 9.60096 6.7889
15 1 2 0.115888 11.1386 11.4908 8.12521
16 1 2 0.115888 25.3934 9.60096 6.7889
17 1 2 0.115889 15.5206 8.96083 0.969417
18 1 2 0.115889 21.0114 12.1309 13.9447
19 1 2 0.115888 22.648 13.0758 12.6084
20 1 2 0.115888 13.884 8.01592 2.30572
21 1 2 0.115889 21.0114 3.90092 8.12521
22 1 2 0.115889 15.5206 17.1908 6.7889
23 1 2 0.115887 13.884 16.2459 8.12521
24 1 2 0.115887 22.648 4.84583 6.7889
25 1 2 0.115889 22.648 16.2459 8.12521
26 1 2 0.115889 13.884 4.84583 6.7889
27 1 2 0.115887 15.5206 3.90092 8.12521
28 1 2 0.115887 21.0114 17.1908 6.7889
29 1 2 0.115889 21.0114 8.96083 0.969417
30 1 2 0.115889 15.5206 12.1309 13.9447
31 1 2 0.115887 13.884 13.0758 12.6084
32 1 2 0.115887 22.648 8.01592 2.30572
33 1 3 0.671939 27.399 18.7442 13.2542
34 1 3 0.671939 9.13299 2.34751 1.65994
35 1 3 0.671939 27.399 12.8934 9.117
36 1 3 0.671939 9.13299 8.19836 5.79712
37 1 3 0.67194 24.8655 14.3561 13.2542
38 1 3 0.67194 11.6665 6.73565 1.65994
39 1 3 0.67194 29.9325 17.2815 9.117
40 1 3 0.67194 6.5995 3.81022 5.79712
41 1 3 0.67194 24.8655 17.2815 9.117
42 1 3 0.67194 11.6665 3.81022 5.79712
43 1 3 0.67194 29.9325 14.3561 13.2542
44 1 3 0.67194 6.5995 6.73565 1.65994
45 1 3 -0.11508 27.399 19.957 14.1117
46 1 3 -0.11508 9.13299 1.13474 0.802379
47 1 3 -0.11508 27.399 11.6806 8.25944
48 1 3 -0.11508 9.13299 9.41113 6.65468
49 1 3 -0.11508 23.8152 13.7497 14.1117
50 1 3 -0.11508 12.7168 7.34203 0.802379
51 1 3 -0.11508 30.9828 17.8879 8.25944
52 1 3 -0.11508 5.54921 3.20384 6.65468
53 1 3 -0.11508 23.8152 17.8879 8.25944
54 1 3 -0.11508 12.7168 3.20384 6.65468
55 1 3 -0.11508 30.9828 13.7497 14.1117
56 1 3 -0.11508 5.54921 7.34203 0.802379
57 1 3 -0.0559 18.266 5.39949 13.5316
58 1 3 -0.0559 18.266 15.6923 1.38254
59 1 3 -0.055903 18.266 14.5575 0.580159
60 1 3 -0.055903 18.266 6.53422 14.334
61 1 3 -0.0559 26.1971 11.1132 7.85825
62 1 3 -0.0559 10.3349 9.9785 7.05587
63 1 3 -0.055903 10.3349 11.1132 7.85825
64 1 3 -0.055903 26.1971 9.9785 7.05587
65 1 3 -0.0559 14.7918 8.54005 0.580159
66 1 3 -0.0559 21.7402 12.5517 14.334
67 1 3 -0.055903 22.7229 13.1191 13.5316
68 1 3 -0.055903 13.8091 7.97268 1.38254
69 1 3 -0.0559 21.7402 3.39366 7.85825
70 1 3 -0.0559 14.7918 17.6981 7.05587
71 1 3 -0.055903 13.8091 17.1307 7.85825
72 1 3 -0.055903 22.7229 3.96103 7.05587
73 1 3 -0.055901 22.7229 17.1307 7.85825
74 1 3 -0.055901 13.8091 3.96103 7.05587
75 1 3 -0.055903 14.7918 3.39366 7.85825
76 1 3 -0.055903 21.7402 17.6981 7.05587
77 1 3 -0.0559 21.7402 8.54005 0.580159
78 1 3 -0.0559 14.7918 12.5517 14.334
79 1 3 -0.055903 13.8091 13.1191 13.5316
80 1 3 -0.055903 22.7229 7.97268 1.38254
81 1 4 -1.26215 27.399 15.8188 11.1856
82 1 4 -1.26215 9.13299 5.27293 3.72853
83 1 4 -0.60118 27.399 18.9383 11.9641
84 1 4 -0.60118 9.13299 2.15347 2.95001
85 1 4 -0.601179 27.399 17.5926 13.8671
86 1 4 -0.601179 9.13299 3.49912 1.04697
87 1 4 -0.601179 26.2336 13.3722 9.45555
88 1 4 -0.601179 10.2984 7.71958 5.45857
89 1 4 -0.60118 28.5643 13.3722 9.45555
90 1 4 -0.60118 7.96762 7.71958 5.45857
91 1 4 -0.60118 25.8628 14.9319 13.8671
92 1 4 -0.60118 10.6692 6.15984 1.04697
93 1 4 -0.601179 24.6974 14.2591 11.9641
94 1 4 -0.601179 11.8345 6.83267 2.95001
95 1 4 -0.60118 28.9351 18.0514 9.45555
96 1 4 -0.60118 7.59682 3.04037 5.45857
97 1 4 -0.601179 30.1005 16.0329 9.45555
98 1 4 -0.601179 6.43145 5.05885 5.45857
99 1 4 -0.601179 24.6974 16.0329 9.45555
100 1 4 -0.601179 11.8345 5.05885 5.45857
101 1 4 -0.60118 25.8628 18.0514 9.45555
102 1 4 -0.60118 10.6692 3.04037 5.45857
103 1 4 -0.60118 28.9351 14.9319 13.8671
104 1 4 -0.60118 7.59682 6.15984 1.04697
105 1 4 -0.60118 30.1005 14.2591 11.9641
106 1 4 -0.60118 6.43145 6.83267 2.95001
52037 17312 5 -0.35 28.3456 11.5406 13.0418
52038 17312 6 0.7 29.1322 11.1551 12.2813
52039 17312 5 -0.35 11.6528 10.7695 11.5209
52175 17358 5 -0.35 21.6442 11.914 0.663886
52176 17358 6 0.7 30.6364 17.6849 14.5398
52177 17358 5 -0.35 30.4957 18.1828 13.5016
52250 17383 5 -0.35 15.39 14.8482 2.50872
52251 17383 6 0.7 14.841 15.8434 2.27638
52252 17383 5 -0.35 5.15901 1.01966 2.04405
52304 17401 5 -0.35 15.264 12.7429 0.148668
52305 17401 6 0.7 15.5433 12.1664 1.11571
52306 17401 5 -0.35 15.8227 11.5898 2.08276
52343 17414 5 -0.35 5.19466 3.92243 0.344284
52344 17414 6 0.7 15.1123 9.12887 14.4067
52345 17414 5 -0.35 15.897 9.06237 13.555
52388 17429 5 -0.35 26.7953 8.50014 13.0334
52389 17429 6 0.7 25.8586 9.14303 12.7992
52390 17429 5 -0.35 24.9219 9.78591 12.565
52406 17435 5 -0.35 18.5493 16.4867 7.51631
52407 17435 6 0.7 18.5348 16.0732 6.43262
52408 17435 5 -0.35 18.5203 15.6597 5.34892
52412 17437 5 -0.35 21.6722 4.44655 10.6969
52413 17437 6 0.7 21.5409 5.40892 11.3311
52414 17437 5 -0.35 21.4096 6.37129 11.9653
52415 17438 5 -0.35 22.0211 9.70016 11.3721
52416 17438 6 0.7 22.4471 9.42608 10.3286
52417 17438 5 -0.35 22.8731 9.15201 9.28502
52439 17446 5 -0.35 16.1966 13.9116 5.174
52440 17446 6 0.7 17.1742 13.4646 4.73794
52441 17446 5 -0.35 18.1517 13.0176 4.30189
52442 17447 5 -0.35 20.4975 13.2868 8.5759
52443 17447 6 0.7 21.6179 12.9906 8.52688
52444 17447 5 -0.35 22.7384 12.6944 8.47786
52448 17449 5 -0.35 18.0379 13.2355 11.4875
52449 17449 6 0.7 17.1936 14.03 11.4477
52450 17449 5 -0.35 16.3494 14.8246 11.4079
52451 17450 5 -0.35 22.3168 14.3514 4.76654
52452 17450 6 0.7 23.3683 14.0768 4.36094
52453 17450 5 -0.35 24.4198 13.8022 3.95534
52454 17451 5 -0.35 10.9907 6.48066 11.7743
52455 17451 6 0.7 11.3139 7.25204 12.5781
52456 17451 5 -0.35 11.6371 8.02342 13.3819
52460 17453 5 -0.35 8.92106 11.7432 3.25069
52461 17453 6 0.7 9.416 12.78 3.41048
52462 17453 5 -0.35 9.91093 13.8169 3.57027
52469 17456 5 -0.35 16.9541 6.29739 9.87291
52470 17456 6 0.7 17.6632 7.17593 10.1394
52471 17456 5 -0.35 18.3722 8.05446 10.4058
52475 17458 5 -0.35 20.8852 7.222 7.23965
52476 17458 6 0.7 20.8307 6.73682 6.1874
52477 17458 5 -0.35 20.7762 6.25163 5.13515
52478 17459 5 -0.35 19.8878 10.2213 8.90066
52479 17459 6 0.7 19.7157 10.4553 7.77759
52480 17459 5 -0.35 19.5437 10.6892 6.65453
52484 17461 5 -0.35 8.46163 5.3741 11.2593
52485 17461 6 0.7 8.87078 4.89538 10.2851
52486 17461 5 -0.35 9.27993 4.41665 9.3109
52487 17462 5 -0.35 12.2241 10.4572 4.67432
52488 17462 6 0.7 11.8604 10.291 3.58541
52489 17462 5 -0.35 11.4968 10.1248 2.49649
52490 17463 5 -0.35 20.2011 17.2205 14.481
52491 17463 6 0.7 19.5068 16.5757 13.8119
52492 17463 5 -0.35 18.8125 15.9309 13.1427
52493 17464 5 -0.35 23.0518 20.1641 13.446
52494 17464 6 0.7 13.9263 4.44865 12.2907
52495 17464 5 -0.35 13.9338 4.55203 11.1353
52496 17465 5 -0.35 12.6736 3.24696 3.1353
52497 17465 6 0.7 13.5481 2.57398 2.77753
52498 17465 5 -0.35 14.4226 1.90101 2.41975
52499 17466 5 -0.35 18.2229 7.00599 2.50378
52500 17466 6 0.7 18.4772 6.01321 3.0472
52501 17466 5 -0.35 18.7316 5.02043 3.59061
ITEM: TIMESTEP
73000
ITEM: NUMBER OF ATOMS
187
ITEM: BOX BOUNDS xy xz yz pp pp pp
0.0000000000000000e+00 3.6531964750000000e+01 9.1329911900000003e+00
0.0000000000000000e+00 2.1091739680000000e+01 9.1329911900000003e+00
0.0000000000000000e+00 1.4914112149999999e+01 5.2729349200000000e+00
ITEM: ATOMS id mol type q x y z
1 1 1 1.10383 27.399 17.6496 10.5383
2 1 1 1.10383 9.13299 3.44217 4.3758
3 1 1 1.10383 27.399 15.8188 13.1274
4 1 1 1.10383 9.13299 5.27293 1.78671
5 1 1 1.10383 25.8135 14.9034 10.5383
6 1 1 1.10383 10.7185 6.18832 4.3758
7 1 1 1.10383 28.9845 14.9034 10.5383
8 1 1 1.10383 7.5475 6.18832 4.3758
9 1 2 0.115889 18.266 5.48596 12.6084
10 1 2 0.115889 18.266 15.6058 2.30572
11 1 2 0.115888 18.266 13.716 0.969417
12 1 2 0.115888 18.266 7.37578 13.9447
13 1 2 0.11589 25.3934 11.4908 8.12521
14 1 2 0.11589 11.1386 9.60096 6.7889
15 1 2 0.115888 11.1386 11.4908 8.12521
16 1 2 0.115888 25.3934 9.60096 6.7889
17 1 2 0.115889 15.5206 8.96083 0.969417
18 1 2 0.115889 21.0114 12.1309 13.9447
19 1 2 0.115888 22.648 13.0758 12.6084
20 1 2 0.115888 13.884 8.01592 2.30572
21 1 2 0.115889 21.0114 3.90092 8.12521
22 1 2 0.115889 15.5206 17.1908 6.7889
23 1 2 0.115887 13.884 16.2459 8.12521
24 1 2 0.115887 22.648 4.84583 6.7889
25 1 2 0.115889 22.648 16.2459 8.12521
26 1 2 0.115889 13.884 4.84583 6.7889
27 1 2 0.115887 15.5206 3.90092 8.12521
28 1 2 0.115887 21.0114 17.1908 6.7889
29 1 2 0.115889 21.0114 8.96083 0.969417
30 1 2 0.115889 15.5206 12.1309 13.9447
31 1 2 0.115887 13.884 13.0758 12.6084
32 1 2 0.115887 22.648 8.01592 2.30572
33 1 3 0.671939 27.399 18.7442 13.2542
34 1 3 0.671939 9.13299 2.34751 1.65994
35 1 3 0.671939 27.399 12.8934 9.117
36 1 3 0.671939 9.13299 8.19836 5.79712
37 1 3 0.67194 24.8655 14.3561 13.2542
38 1 3 0.67194 11.6665 6.73565 1.65994
39 1 3 0.67194 29.9325 17.2815 9.117
40 1 3 0.67194 6.5995 3.81022 5.79712
41 1 3 0.67194 24.8655 17.2815 9.117
42 1 3 0.67194 11.6665 3.81022 5.79712
43 1 3 0.67194 29.9325 14.3561 13.2542
44 1 3 0.67194 6.5995 6.73565 1.65994
45 1 3 -0.11508 27.399 19.957 14.1117
46 1 3 -0.11508 9.13299 1.13474 0.802379
47 1 3 -0.11508 27.399 11.6806 8.25944
48 1 3 -0.11508 9.13299 9.41113 6.65468
49 1 3 -0.11508 23.8152 13.7497 14.1117
50 1 3 -0.11508 12.7168 7.34203 0.802379
51 1 3 -0.11508 30.9828 17.8879 8.25944
52 1 3 -0.11508 5.54921 3.20384 6.65468
53 1 3 -0.11508 23.8152 17.8879 8.25944
54 1 3 -0.11508 12.7168 3.20384 6.65468
55 1 3 -0.11508 30.9828 13.7497 14.1117
56 1 3 -0.11508 5.54921 7.34203 0.802379
57 1 3 -0.0559 18.266 5.39949 13.5316
58 1 3 -0.0559 18.266 15.6923 1.38254
59 1 3 -0.055903 18.266 14.5575 0.580159
60 1 3 -0.055903 18.266 6.53422 14.334
61 1 3 -0.0559 26.1971 11.1132 7.85825
62 1 3 -0.0559 10.3349 9.9785 7.05587
63 1 3 -0.055903 10.3349 11.1132 7.85825
64 1 3 -0.055903 26.1971 9.9785 7.05587
65 1 3 -0.0559 14.7918 8.54005 0.580159
66 1 3 -0.0559 21.7402 12.5517 14.334
67 1 3 -0.055903 22.7229 13.1191 13.5316
68 1 3 -0.055903 13.8091 7.97268 1.38254
69 1 3 -0.0559 21.7402 3.39366 7.85825
70 1 3 -0.0559 14.7918 17.6981 7.05587
71 1 3 -0.055903 13.8091 17.1307 7.85825
72 1 3 -0.055903 22.7229 3.96103 7.05587
73 1 3 -0.055901 22.7229 17.1307 7.85825
74 1 3 -0.055901 13.8091 3.96103 7.05587
75 1 3 -0.055903 14.7918 3.39366 7.85825
76 1 3 -0.055903 21.7402 17.6981 7.05587
77 1 3 -0.0559 21.7402 8.54005 0.580159
78 1 3 -0.0559 14.7918 12.5517 14.334
79 1 3 -0.055903 13.8091 13.1191 13.5316
80 1 3 -0.055903 22.7229 7.97268 1.38254
81 1 4 -1.26215 27.399 15.8188 11.1856
82 1 4 -1.26215 9.13299 5.27293 3.72853
83 1 4 -0.60118 27.399 18.9383 11.9641
84 1 4 -0.60118 9.13299 2.15347 2.95001
85 1 4 -0.601179 27.399 17.5926 13.8671
86 1 4 -0.601179 9.13299 3.49912 1.04697
87 1 4 -0.601179 26.2336 13.3722 9.45555
88 1 4 -0.601179 10.2984 7.71958 5.45857
89 1 4 -0.60118 28.5643 13.3722 9.45555
90 1 4 -0.60118 7.96762 7.71958 5.45857
91 1 4 -0.60118 25.8628 14.9319 13.8671
92 1 4 -0.60118 10.6692 6.15984 1.04697
93 1 4 -0.601179 24.6974 14.2591 11.9641
94 1 4 -0.601179 11.8345 6.83267 2.95001
95 1 4 -0.60118 28.9351 18.0514 9.45555
96 1 4 -0.60118 7.59682 3.04037 5.45857
97 1 4 -0.601179 30.1005 16.0329 9.45555
98 1 4 -0.601179 6.43145 5.05885 5.45857
99 1 4 -0.601179 24.6974 16.0329 9.45555
100 1 4 -0.601179 11.8345 5.05885 5.45857
101 1 4 -0.60118 25.8628 18.0514 9.45555
102 1 4 -0.60118 10.6692 3.04037 5.45857
103 1 4 -0.60118 28.9351 14.9319 13.8671
104 1 4 -0.60118 7.59682 6.15984 1.04697
105 1 4 -0.60118 30.1005 14.2591 11.9641
106 1 4 -0.60118 6.43145 6.83267 2.95001
52037 17312 5 -0.35 26.5421 11.2803 12.3371
52038 17312 6 0.7 26.8904 10.1906 12.1456
52039 17312 5 -0.35 27.2388 9.1008 11.9541
52250 17383 5 -0.35 5.99169 1.26294 3.31495
52251 17383 6 0.7 6.0393 2.37564 2.99053
52252 17383 5 -0.35 6.08691 3.48833 2.66612
52496 17465 5 -0.35 12.0703 3.03368 3.04509
52497 17465 6 0.7 12.1185 1.88358 3.18844
52498 17465 5 -0.35 21.2998 16.5523 3.33178
52514 17471 5 -0.35 18.6724 10.5171 13.3456
52515 17471 6 0.7 19.6234 9.89623 13.5818
52516 17471 5 -0.35 20.5743 9.27534 13.8179
52622 17507 5 -0.35 13.4415 2.10804 0.415543
52623 17507 6 0.7 22.0612 6.72922 14.5189
52624 17507 5 -0.35 21.5479 6.07747 13.7081
52625 17508 5 -0.35 27.0647 15.3606 7.13822
52626 17508 6 0.7 27.1728 14.6578 6.22167
52627 17508 5 -0.35 27.281 13.9551 5.30512
52661 17520 5 -0.35 11.4671 15.8002 5.04826
52662 17520 6 0.7 12.4868 15.2893 5.26012
52663 17520 5 -0.35 13.5065 14.7785 5.47198
52670 17523 5 -0.35 29.2275 8.89616 14.3934
52671 17523 6 0.7 2.50896 3.38572 0.38824
52672 17523 5 -0.35 3.18944 3.14822 1.29716
52706 17535 5 -0.35 22.6862 3.99922 11.2231
52707 17535 6 0.7 32.2302 18.7351 11.1598
52708 17535 5 -0.35 32.6412 17.6522 11.0965
52721 17540 5 -0.35 24.2338 10.3302 13.6787
52722 17540 6 0.7 24.8757 10.2365 14.6403
52723 17540 5 -0.35 16.3846 4.8698 0.687896
52739 17546 5 -0.35 21.2906 13.793 0.588661
52740 17546 6 0.7 30.9002 18.3714 14.7053
52741 17546 5 -0.35 31.3768 17.6768 13.9078
52754 17551 5 -0.35 13.7858 10.7086 2.67592
52755 17551 6 0.7 14.4684 11.6331 2.8331
52756 17551 5 -0.35 15.1511 12.5577 2.99029
52757 17552 5 -0.35 34.5602 19.6244 14.6662
52758 17552 6 0.7 34.883 19.7689 13.5614
52759 17552 5 -0.35 16.9398 19.9135 12.4567
52781 17560 5 -0.35 8.16552 4.2509 8.77263
52782 17560 6 0.7 9.25979 3.86821 8.73119
52783 17560 5 -0.35 10.3541 3.48552 8.68975
52808 17569 5 -0.35 15.6209 16.0185 13.5343
52809 17569 6 0.7 16.1818 15.6224 12.5993
52810 17569 5 -0.35 16.7426 15.2263 11.6644
52823 17574 5 -0.35 21.4704 11.8941 2.84992
52824 17574 6 0.7 20.3451 12.13 3.00404
52825 17574 5 -0.35 19.2199 12.3659 3.15815
52832 17577 5 -0.35 24.2055 15.9931 4.67922
52833 17577 6 0.7 24.0543 14.9139 4.28166
52834 17577 5 -0.35 23.9031 13.8347 3.8841
52862 17587 5 -0.35 29.4093 11.6056 12.3001
52863 17587 6 0.7 11.9882 11.3505 11.5473
52864 17587 5 -0.35 12.833 11.0954 10.7944
52868 17589 5 -0.35 13.0618 7.82916 6.95063
52869 17589 6 0.7 13.6706 8.36781 6.12307
52870 17589 5 -0.35 14.2793 8.90645 5.2955
52874 17591 5 -0.35 20.158 16.111 10.9819
52875 17591 6 0.7 20.0702 16.1001 9.8253
52876 17591 5 -0.35 19.9824 16.0892 8.66868
52880 17593 5 -0.35 17.3797 12.0038 7.20486
52881 17593 6 0.7 16.7452 11.1033 7.56843
52882 17593 5 -0.35 16.1107 10.2028 7.932
52883 17594 5 -0.35 25.3042 10.8602 3.9205
52884 17594 6 0.7 25.0027 11.29 2.88611
52885 17594 5 -0.35 24.7013 11.7199 1.85173
52886 17595 5 -0.35 19.9284 9.38606 4.62432
52887 17595 6 0.7 20.5319 8.4068 4.47452
52888 17595 5 -0.35 21.1354 7.42755 4.32472
52889 17596 5 -0.35 16.4923 14.8857 7.69965
52890 17596 6 0.7 16.7995 14.7372 6.59098
52891 17596 5 -0.35 17.1067 14.5886 5.4823
52898 17599 5 -0.35 17.2105 8.66106 4.51581
52899 17599 6 0.7 17.125 9.45903 3.67823
52900 17599 5 -0.35 17.0396 10.257 2.84065
52901 17600 5 -0.35 23.8043 10.1259 10.699
52902 17600 6 0.7 22.7015 10.3549 10.9763
52903 17600 5 -0.35 21.5986 10.584 11.2535
52904 17601 5 -0.35 11.6109 7.73107 10.1045
52905 17601 6 0.7 11.7577 6.60164 10.3246
52906 17601 5 -0.35 11.9044 5.47221 10.5448
ITEM: TIMESTEP
74000
ITEM: NUMBER OF ATOMS
199
ITEM: BOX BOUNDS xy xz yz pp pp pp
0.0000000000000000e+00 3.6531964750000000e+01 9.1329911900000003e+00
0.0000000000000000e+00 2.1091739680000000e+01 9.1329911900000003e+00
0.0000000000000000e+00 1.4914112149999999e+01 5.2729349200000000e+00
ITEM: ATOMS id mol type q x y z
1 1 1 1.10383 27.399 17.6496 10.5383
2 1 1 1.10383 9.13299 3.44217 4.3758
3 1 1 1.10383 27.399 15.8188 13.1274
4 1 1 1.10383 9.13299 5.27293 1.78671
5 1 1 1.10383 25.8135 14.9034 10.5383
6 1 1 1.10383 10.7185 6.18832 4.3758
7 1 1 1.10383 28.9845 14.9034 10.5383
8 1 1 1.10383 7.5475 6.18832 4.3758
9 1 2 0.115889 18.266 5.48596 12.6084
10 1 2 0.115889 18.266 15.6058 2.30572
11 1 2 0.115888 18.266 13.716 0.969417
12 1 2 0.115888 18.266 7.37578 13.9447
13 1 2 0.11589 25.3934 11.4908 8.12521
14 1 2 0.11589 11.1386 9.60096 6.7889
15 1 2 0.115888 11.1386 11.4908 8.12521
16 1 2 0.115888 25.3934 9.60096 6.7889
17 1 2 0.115889 15.5206 8.96083 0.969417
18 1 2 0.115889 21.0114 12.1309 13.9447
19 1 2 0.115888 22.648 13.0758 12.6084
20 1 2 0.115888 13.884 8.01592 2.30572
21 1 2 0.115889 21.0114 3.90092 8.12521
22 1 2 0.115889 15.5206 17.1908 6.7889
23 1 2 0.115887 13.884 16.2459 8.12521
24 1 2 0.115887 22.648 4.84583 6.7889
25 1 2 0.115889 22.648 16.2459 8.12521
26 1 2 0.115889 13.884 4.84583 6.7889
27 1 2 0.115887 15.5206 3.90092 8.12521
28 1 2 0.115887 21.0114 17.1908 6.7889
29 1 2 0.115889 21.0114 8.96083 0.969417
30 1 2 0.115889 15.5206 12.1309 13.9447
31 1 2 0.115887 13.884 13.0758 12.6084
32 1 2 0.115887 22.648 8.01592 2.30572
33 1 3 0.671939 27.399 18.7442 13.2542
34 1 3 0.671939 9.13299 2.34751 1.65994
35 1 3 0.671939 27.399 12.8934 9.117
36 1 3 0.671939 9.13299 8.19836 5.79712
37 1 3 0.67194 24.8655 14.3561 13.2542
38 1 3 0.67194 11.6665 6.73565 1.65994
39 1 3 0.67194 29.9325 17.2815 9.117
40 1 3 0.67194 6.5995 3.81022 5.79712
41 1 3 0.67194 24.8655 17.2815 9.117
42 1 3 0.67194 11.6665 3.81022 5.79712
43 1 3 0.67194 29.9325 14.3561 13.2542
44 1 3 0.67194 6.5995 6.73565 1.65994
45 1 3 -0.11508 27.399 19.957 14.1117
46 1 3 -0.11508 9.13299 1.13474 0.802379
47 1 3 -0.11508 27.399 11.6806 8.25944
48 1 3 -0.11508 9.13299 9.41113 6.65468
49 1 3 -0.11508 23.8152 13.7497 14.1117
50 1 3 -0.11508 12.7168 7.34203 0.802379
51 1 3 -0.11508 30.9828 17.8879 8.25944
52 1 3 -0.11508 5.54921 3.20384 6.65468
53 1 3 -0.11508 23.8152 17.8879 8.25944
54 1 3 -0.11508 12.7168 3.20384 6.65468
55 1 3 -0.11508 30.9828 13.7497 14.1117
56 1 3 -0.11508 5.54921 7.34203 0.802379
57 1 3 -0.0559 18.266 5.39949 13.5316
58 1 3 -0.0559 18.266 15.6923 1.38254
59 1 3 -0.055903 18.266 14.5575 0.580159
60 1 3 -0.055903 18.266 6.53422 14.334
61 1 3 -0.0559 26.1971 11.1132 7.85825
62 1 3 -0.0559 10.3349 9.9785 7.05587
63 1 3 -0.055903 10.3349 11.1132 7.85825
64 1 3 -0.055903 26.1971 9.9785 7.05587
65 1 3 -0.0559 14.7918 8.54005 0.580159
66 1 3 -0.0559 21.7402 12.5517 14.334
67 1 3 -0.055903 22.7229 13.1191 13.5316
68 1 3 -0.055903 13.8091 7.97268 1.38254
69 1 3 -0.0559 21.7402 3.39366 7.85825
70 1 3 -0.0559 14.7918 17.6981 7.05587
71 1 3 -0.055903 13.8091 17.1307 7.85825
72 1 3 -0.055903 22.7229 3.96103 7.05587
73 1 3 -0.055901 22.7229 17.1307 7.85825
74 1 3 -0.055901 13.8091 3.96103 7.05587
75 1 3 -0.055903 14.7918 3.39366 7.85825
76 1 3 -0.055903 21.7402 17.6981 7.05587
77 1 3 -0.0559 21.7402 8.54005 0.580159
78 1 3 -0.0559 14.7918 12.5517 14.334
79 1 3 -0.055903 13.8091 13.1191 13.5316
80 1 3 -0.055903 22.7229 7.97268 1.38254
81 1 4 -1.26215 27.399 15.8188 11.1856
82 1 4 -1.26215 9.13299 5.27293 3.72853
83 1 4 -0.60118 27.399 18.9383 11.9641
84 1 4 -0.60118 9.13299 2.15347 2.95001
85 1 4 -0.601179 27.399 17.5926 13.8671
86 1 4 -0.601179 9.13299 3.49912 1.04697
87 1 4 -0.601179 26.2336 13.3722 9.45555
88 1 4 -0.601179 10.2984 7.71958 5.45857
89 1 4 -0.60118 28.5643 13.3722 9.45555
90 1 4 -0.60118 7.96762 7.71958 5.45857
91 1 4 -0.60118 25.8628 14.9319 13.8671
92 1 4 -0.60118 10.6692 6.15984 1.04697
93 1 4 -0.601179 24.6974 14.2591 11.9641
94 1 4 -0.601179 11.8345 6.83267 2.95001
95 1 4 -0.60118 28.9351 18.0514 9.45555
96 1 4 -0.60118 7.59682 3.04037 5.45857
97 1 4 -0.601179 30.1005 16.0329 9.45555
98 1 4 -0.601179 6.43145 5.05885 5.45857
99 1 4 -0.601179 24.6974 16.0329 9.45555
100 1 4 -0.601179 11.8345 5.05885 5.45857
101 1 4 -0.60118 25.8628 18.0514 9.45555
102 1 4 -0.60118 10.6692 3.04037 5.45857
103 1 4 -0.60118 28.9351 14.9319 13.8671
104 1 4 -0.60118 7.59682 6.15984 1.04697
105 1 4 -0.60118 30.1005 14.2591 11.9641
106 1 4 -0.60118 6.43145 6.83267 2.95001
52250 17383 5 -0.35 6.317 0.983255 2.60127
52251 17383 6 0.7 6.00216 2.09966 2.61209
52252 17383 5 -0.35 5.68731 3.21606 2.62291
52670 17523 5 -0.35 13.9892 9.47555 14.785
52671 17523 6 0.7 4.01126 4.44803 0.626806
52672 17523 5 -0.35 21.4323 4.69345 1.38276
52781 17560 5 -0.35 9.15124 5.4331 7.82413
52782 17560 6 0.7 9.51531 4.37725 8.13753
52783 17560 5 -0.35 9.87937 3.32139 8.45094
52913 17604 5 -0.35 14.0594 10.793 9.42396
52914 17604 6 0.7 14.0568 11.9348 9.62902
52915 17604 5 -0.35 14.0543 13.0765 9.83408
52961 17620 5 -0.35 18.9421 10.0203 2.10296
52962 17620 6 0.7 18.0325 10.7383 2.15413
52963 17620 5 -0.35 17.123 11.4564 2.2053
53096 17665 5 -0.35 15.3442 13.9162 5.95504
53097 17665 6 0.7 15.9159 13.8405 4.94858
53098 17665 5 -0.35 16.4877 13.7649 3.94211
53141 17680 5 -0.35 8.98082 8.98013 0.390654
53142 17680 6 0.7 17.7959 14.1585 14.1932
53143 17680 5 -0.35 17.478 14.0639 13.0816
53321 17740 5 -0.35 14.8124 6.68694 14.4399
53322 17740 6 0.7 14.2682 6.18219 13.5485
53323 17740 5 -0.35 13.7239 5.67744 12.6571
53345 17748 5 -0.35 13.6929 11.129 6.22786
53346 17748 6 0.7 12.8313 11.7969 5.83148
53347 17748 5 -0.35 11.9696 12.4647 5.4351
53351 17750 5 -0.35 21.2059 12.0356 2.16117
53352 17750 6 0.7 21.6185 12.1502 1.08309
53353 17750 5 -0.35 22.031 12.2647 0.00501682
53357 17752 5 -0.35 24.1806 11.7497 5.2738
53358 17752 6 0.7 24.3147 11.1625 4.28244
53359 17752 5 -0.35 24.4489 10.5753 3.29109
53372 17757 5 -0.35 9.81768 10.3047 3.26663
53373 17757 6 0.7 10.3232 10.7238 2.31036
53374 17757 5 -0.35 10.8287 11.1429 1.35409
53378 17759 5 -0.35 21.1488 15.4923 10.2789
53379 17759 6 0.7 20.6696 14.4398 10.37
53380 17759 5 -0.35 20.1904 13.3873 10.461
53387 17762 5 -0.35 11.7567 3.66622 2.9815
53388 17762 6 0.7 12.0958 3.16639 1.99115
53389 17762 5 -0.35 12.4349 2.66655 1.0008
53390 17763 5 -0.35 13.8262 12.8913 0.390017
53391 17763 6 0.7 13.1021 13.5187 1.04399
53392 17763 5 -0.35 12.3781 14.1462 1.69795
53405 17768 5 -0.35 18.5882 2.94149 3.15388
53406 17768 6 0.7 19.3031 3.03043 4.06301
53407 17768 5 -0.35 20.0181 3.11936 4.97213
53408 17769 5 -0.35 30.8486 20.4883 13.2158
53409 17769 6 0.7 31.1335 20.7068 14.3188
53410 17769 5 -0.35 22.2855 15.6523 0.507704
53411 17770 5 -0.35 14.0729 1.96851 4.2217
53412 17770 6 0.7 24.2673 17.4077 4.49536
53413 17770 5 -0.35 25.3287 17.028 4.76903
53420 17773 5 -0.35 17.9766 6.97576 0.392492
53421 17773 6 0.7 17.3867 6.69111 1.34986
53422 17773 5 -0.35 16.7968 6.40646 2.30723
53423 17774 5 -0.35 28.2596 14.7915 6.11907
53424 17774 6 0.7 27.988 14.2568 5.12614
53425 17774 5 -0.35 27.7164 13.722 4.13321
53435 17778 5 -0.35 16.0521 16.4223 13.9631
53436 17778 6 0.7 15.3066 16.8688 13.1947
53437 17778 5 -0.35 32.8271 17.3153 12.4262
53444 17781 5 -0.35 19.8427 18.998 12.7282
53445 17781 6 0.7 18.8089 18.5099 12.5319
53446 17781 5 -0.35 17.775 18.0218 12.3355
53447 17782 5 -0.35 12.3095 7.84358 10.4783
53448 17782 6 0.7 12.9624 7.42734 9.61458
53449 17782 5 -0.35 13.6153 7.0111 8.75086
53450 17783 5 -0.35 20.5004 7.66277 11.6021
53451 17783 6 0.7 20.265 7.32793 10.5167
53452 17783 5 -0.35 20.0296 6.9931 9.43135
53453 17784 5 -0.35 22.5806 10.2991 10.9434
53454 17784 6 0.7 22.7618 11.1105 10.1345
53455 17784 5 -0.35 22.9429 11.9219 9.3255
53459 17786 5 -0.35 16.9856 10.4616 11.0711
53460 17786 6 0.7 16.9709 9.30214 11.102
53461 17786 5 -0.35 16.9562 8.14265 11.1329
53465 17788 5 -0.35 19.8321 7.29702 2.78311
53466 17788 6 0.7 20.5129 6.63129 3.44562
53467 17788 5 -0.35 21.1937 5.96556 4.10814
53468 17789 5 -0.35 25.9355 15.3355 1.51722
53469 17789 6 0.7 26.7825 14.7056 1.03618
53470 17789 5 -0.35 9.3636 14.0758 0.555149
53471 17790 5 -0.35 26.5772 9.46521 13.0335
53472 17790 6 0.7 26.872 9.09662 14.0931
53473 17790 5 -0.35 18.0339 3.4551 0.238645
53474 17791 5 -0.35 22.327 8.67304 6.40224
53475 17791 6 0.7 21.8307 9.09009 5.44027
53476 17791 5 -0.35 21.3345 9.50714 4.4783
53477 17792 5 -0.35 21.0454 13.2481 4.95134
53478 17792 6 0.7 21.1392 14.4037 4.91467
53479 17792 5 -0.35 21.2329 15.5593 4.878
ITEM: TIMESTEP
75000
ITEM: NUMBER OF ATOMS
157
ITEM: BOX BOUNDS xy xz yz pp pp pp
0.0000000000000000e+00 3.6531964750000000e+01 9.1329911900000003e+00
0.0000000000000000e+00 2.1091739680000000e+01 9.1329911900000003e+00
0.0000000000000000e+00 1.4914112149999999e+01 5.2729349200000000e+00
ITEM: ATOMS id mol type q x y z
1 1 1 1.10383 27.399 17.6496 10.5383
2 1 1 1.10383 9.13299 3.44217 4.3758
3 1 1 1.10383 27.399 15.8188 13.1274
4 1 1 1.10383 9.13299 5.27293 1.78671
5 1 1 1.10383 25.8135 14.9034 10.5383
6 1 1 1.10383 10.7185 6.18832 4.3758
7 1 1 1.10383 28.9845 14.9034 10.5383
8 1 1 1.10383 7.5475 6.18832 4.3758
9 1 2 0.115889 18.266 5.48596 12.6084
10 1 2 0.115889 18.266 15.6058 2.30572
11 1 2 0.115888 18.266 13.716 0.969417
12 1 2 0.115888 18.266 7.37578 13.9447
13 1 2 0.11589 25.3934 11.4908 8.12521
14 1 2 0.11589 11.1386 9.60096 6.7889
15 1 2 0.115888 11.1386 11.4908 8.12521
16 1 2 0.115888 25.3934 9.60096 6.7889
17 1 2 0.115889 15.5206 8.96083 0.969417
18 1 2 0.115889 21.0114 12.1309 13.9447
19 1 2 0.115888 22.648 13.0758 12.6084
20 1 2 0.115888 13.884 8.01592 2.30572
21 1 2 0.115889 21.0114 3.90092 8.12521
22 1 2 0.115889 15.5206 17.1908 6.7889
23 1 2 0.115887 13.884 16.2459 8.12521
24 1 2 0.115887 22.648 4.84583 6.7889
25 1 2 0.115889 22.648 16.2459 8.12521
26 1 2 0.115889 13.884 4.84583 6.7889
27 1 2 0.115887 15.5206 3.90092 8.12521
28 1 2 0.115887 21.0114 17.1908 6.7889
29 1 2 0.115889 21.0114 8.96083 0.969417
30 1 2 0.115889 15.5206 12.1309 13.9447
31 1 2 0.115887 13.884 13.0758 12.6084
32 1 2 0.115887 22.648 8.01592 2.30572
33 1 3 0.671939 27.399 18.7442 13.2542
34 1 3 0.671939 9.13299 2.34751 1.65994
35 1 3 0.671939 27.399 12.8934 9.117
36 1 3 0.671939 9.13299 8.19836 5.79712
37 1 3 0.67194 24.8655 14.3561 13.2542
38 1 3 0.67194 11.6665 6.73565 1.65994
39 1 3 0.67194 29.9325 17.2815 9.117
40 1 3 0.67194 6.5995 3.81022 5.79712
41 1 3 0.67194 24.8655 17.2815 9.117
42 1 3 0.67194 11.6665 3.81022 5.79712
43 1 3 0.67194 29.9325 14.3561 13.2542
44 1 3 0.67194 6.5995 6.73565 1.65994
45 1 3 -0.11508 27.399 19.957 14.1117
46 1 3 -0.11508 9.13299 1.13474 0.802379
47 1 3 -0.11508 27.399 11.6806 8.25944
48 1 3 -0.11508 9.13299 9.41113 6.65468
49 1 3 -0.11508 23.8152 13.7497 14.1117
50 1 3 -0.11508 12.7168 7.34203 0.802379
51 1 3 -0.11508 30.9828 17.8879 8.25944
52 1 3 -0.11508 5.54921 3.20384 6.65468
53 1 3 -0.11508 23.8152 17.8879 8.25944
54 1 3 -0.11508 12.7168 3.20384 6.65468
55 1 3 -0.11508 30.9828 13.7497 14.1117
56 1 3 -0.11508 5.54921 7.34203 0.802379
57 1 3 -0.0559 18.266 5.39949 13.5316
58 1 3 -0.0559 18.266 15.6923 1.38254
59 1 3 -0.055903 18.266 14.5575 0.580159
60 1 3 -0.055903 18.266 6.53422 14.334
61 1 3 -0.0559 26.1971 11.1132 7.85825
62 1 3 -0.0559 10.3349 9.9785 7.05587
63 1 3 -0.055903 10.3349 11.1132 7.85825
64 1 3 -0.055903 26.1971 9.9785 7.05587
65 1 3 -0.0559 14.7918 8.54005 0.580159
66 1 3 -0.0559 21.7402 12.5517 14.334
67 1 3 -0.055903 22.7229 13.1191 13.5316
68 1 3 -0.055903 13.8091 7.97268 1.38254
69 1 3 -0.0559 21.7402 3.39366 7.85825
70 1 3 -0.0559 14.7918 17.6981 7.05587
71 1 3 -0.055903 13.8091 17.1307 7.85825
72 1 3 -0.055903 22.7229 3.96103 7.05587
73 1 3 -0.055901 22.7229 17.1307 7.85825
74 1 3 -0.055901 13.8091 3.96103 7.05587
75 1 3 -0.055903 14.7918 3.39366 7.85825
76 1 3 -0.055903 21.7402 17.6981 7.05587
77 1 3 -0.0559 21.7402 8.54005 0.580159
78 1 3 -0.0559 14.7918 12.5517 14.334
79 1 3 -0.055903 13.8091 13.1191 13.5316
80 1 3 -0.055903 22.7229 7.97268 1.38254
81 1 4 -1.26215 27.399 15.8188 11.1856
82 1 4 -1.26215 9.13299 5.27293 3.72853
83 1 4 -0.60118 27.399 18.9383 11.9641
84 1 4 -0.60118 9.13299 2.15347 2.95001
85 1 4 -0.601179 27.399 17.5926 13.8671
86 1 4 -0.601179 9.13299 3.49912 1.04697
87 1 4 -0.601179 26.2336 13.3722 9.45555
88 1 4 -0.601179 10.2984 7.71958 5.45857
89 1 4 -0.60118 28.5643 13.3722 9.45555
90 1 4 -0.60118 7.96762 7.71958 5.45857
91 1 4 -0.60118 25.8628 14.9319 13.8671
92 1 4 -0.60118 10.6692 6.15984 1.04697
93 1 4 -0.601179 24.6974 14.2591 11.9641
94 1 4 -0.601179 11.8345 6.83267 2.95001
95 1 4 -0.60118 28.9351 18.0514 9.45555
96 1 4 -0.60118 7.59682 3.04037 5.45857
97 1 4 -0.601179 30.1005 16.0329 9.45555
98 1 4 -0.601179 6.43145 5.05885 5.45857
99 1 4 -0.601179 24.6974 16.0329 9.45555
100 1 4 -0.601179 11.8345 5.05885 5.45857
101 1 4 -0.60118 25.8628 18.0514 9.45555
102 1 4 -0.60118 10.6692 3.04037 5.45857
103 1 4 -0.60118 28.9351 14.9319 13.8671
104 1 4 -0.60118 7.59682 6.15984 1.04697
105 1 4 -0.60118 30.1005 14.2591 11.9641
106 1 4 -0.60118 6.43145 6.83267 2.95001
53615 17838 5 -0.35 15.1308 5.78129 11.1467
53616 17838 6 0.7 15.284 4.66863 11.4368
53617 17838 5 -0.35 24.5701 19.3748 11.7269
53924 17941 5 -0.35 31.3389 16.7469 14.8678
53925 17941 6 0.7 21.2084 11.6597 0.516059
53926 17941 5 -0.35 20.211 11.8455 1.07841
54074 17991 5 -0.35 11.4667 9.33448 13.1798
54075 17991 6 0.7 11.1167 9.20112 12.0819
54076 17991 5 -0.35 10.7668 9.06776 10.984
54110 18003 5 -0.35 13.5954 14.7893 4.44172
54111 18003 6 0.7 13.7311 15.6154 3.63875
54112 18003 5 -0.35 13.8668 16.4415 2.83578
54128 18009 5 -0.35 9.03542 7.20264 9.63594
54129 18009 6 0.7 9.33834 6.45803 8.79964
54130 18009 5 -0.35 9.64125 5.71342 7.96334
54146 18015 5 -0.35 24.7297 5.60434 8.98704
54147 18015 6 0.7 24.0689 6.37238 9.55189
54148 18015 5 -0.35 23.4081 7.14042 10.1167
54179 18026 5 -0.35 22.0477 10.8571 10.5909
54180 18026 6 0.7 21.8792 10.3175 9.57793
54181 18026 5 -0.35 21.7107 9.77794 8.56498
54197 18032 5 -0.35 27.2723 13.0464 4.58966
54198 18032 6 0.7 8.93863 11.9862 4.12395
54199 18032 5 -0.35 8.87094 10.9259 3.65823
54218 18039 5 -0.35 21.6561 14.0227 10.1084
54219 18039 6 0.7 22.3793 13.4431 9.41075
54220 18039 5 -0.35 23.1026 12.8636 8.71312
54221 18040 5 -0.35 17.4846 5.93901 1.05546
54222 18040 6 0.7 17.8165 6.42529 0.055964
54223 18040 5 -0.35 27.2813 12.1845 13.9706
54227 18042 5 -0.35 14.3075 13.007 1.9684
54228 18042 6 0.7 14.3962 13.3637 0.86816
54229 18042 5 -0.35 23.618 18.9933 14.682
54230 18043 5 -0.35 20.2501 19.8439 13.8318
54231 18043 6 0.7 20.362 19.8304 12.6773
54232 18043 5 -0.35 20.4739 19.8168 11.5227
54233 18044 5 -0.35 24.941 13.4649 0.749775
54234 18044 6 0.7 33.4522 18.9194 14.7016
54235 18044 5 -0.35 32.8303 19.1009 13.7394
54242 18047 5 -0.35 12.122 1.40805 3.46987
54243 18047 6 0.7 12.5343 2.43625 3.12571
54244 18047 5 -0.35 12.9466 3.46444 2.78154
54245 18048 5 -0.35 16.1346 0.769451 0.533839
54246 18048 6 0.7 16.0583 0.964952 1.6747
54247 18048 5 -0.35 15.9821 1.16045 2.81556
54248 18049 5 -0.35 18.7422 12.9034 5.4001
54249 18049 6 0.7 19.1961 13.6904 6.12135
54250 18049 5 -0.35 19.65 14.4774 6.8426
54254 18051 5 -0.35 2.51179 1.58381 0.423284
54255 18051 6 0.7 3.4821 2.18664 0.221544
54256 18051 5 -0.35 4.45241 2.78946 0.0198031
ITEM: TIMESTEP
76000
ITEM: NUMBER OF ATOMS
181
ITEM: BOX BOUNDS xy xz yz pp pp pp
0.0000000000000000e+00 3.6531964750000000e+01 9.1329911900000003e+00
0.0000000000000000e+00 2.1091739680000000e+01 9.1329911900000003e+00
0.0000000000000000e+00 1.4914112149999999e+01 5.2729349200000000e+00
ITEM: ATOMS id mol type q x y z
1 1 1 1.10383 27.399 17.6496 10.5383
2 1 1 1.10383 9.13299 3.44217 4.3758
3 1 1 1.10383 27.399 15.8188 13.1274
4 1 1 1.10383 9.13299 5.27293 1.78671
5 1 1 1.10383 25.8135 14.9034 10.5383
6 1 1 1.10383 10.7185 6.18832 4.3758
7 1 1 1.10383 28.9845 14.9034 10.5383
8 1 1 1.10383 7.5475 6.18832 4.3758
9 1 2 0.115889 18.266 5.48596 12.6084
10 1 2 0.115889 18.266 15.6058 2.30572
11 1 2 0.115888 18.266 13.716 0.969417
12 1 2 0.115888 18.266 7.37578 13.9447
13 1 2 0.11589 25.3934 11.4908 8.12521
14 1 2 0.11589 11.1386 9.60096 6.7889
15 1 2 0.115888 11.1386 11.4908 8.12521
16 1 2 0.115888 25.3934 9.60096 6.7889
17 1 2 0.115889 15.5206 8.96083 0.969417
18 1 2 0.115889 21.0114 12.1309 13.9447
19 1 2 0.115888 22.648 13.0758 12.6084
20 1 2 0.115888 13.884 8.01592 2.30572
21 1 2 0.115889 21.0114 3.90092 8.12521
22 1 2 0.115889 15.5206 17.1908 6.7889
23 1 2 0.115887 13.884 16.2459 8.12521
24 1 2 0.115887 22.648 4.84583 6.7889
25 1 2 0.115889 22.648 16.2459 8.12521
26 1 2 0.115889 13.884 4.84583 6.7889
27 1 2 0.115887 15.5206 3.90092 8.12521
28 1 2 0.115887 21.0114 17.1908 6.7889
29 1 2 0.115889 21.0114 8.96083 0.969417
30 1 2 0.115889 15.5206 12.1309 13.9447
31 1 2 0.115887 13.884 13.0758 12.6084
32 1 2 0.115887 22.648 8.01592 2.30572
33 1 3 0.671939 27.399 18.7442 13.2542
34 1 3 0.671939 9.13299 2.34751 1.65994
35 1 3 0.671939 27.399 12.8934 9.117
36 1 3 0.671939 9.13299 8.19836 5.79712
37 1 3 0.67194 24.8655 14.3561 13.2542
38 1 3 0.67194 11.6665 6.73565 1.65994
39 1 3 0.67194 29.9325 17.2815 9.117
40 1 3 0.67194 6.5995 3.81022 5.79712
41 1 3 0.67194 24.8655 17.2815 9.117
42 1 3 0.67194 11.6665 3.81022 5.79712
43 1 3 0.67194 29.9325 14.3561 13.2542
44 1 3 0.67194 6.5995 6.73565 1.65994
45 1 3 -0.11508 27.399 19.957 14.1117
46 1 3 -0.11508 9.13299 1.13474 0.802379
47 1 3 -0.11508 27.399 11.6806 8.25944
48 1 3 -0.11508 9.13299 9.41113 6.65468
49 1 3 -0.11508 23.8152 13.7497 14.1117
50 1 3 -0.11508 12.7168 7.34203 0.802379
51 1 3 -0.11508 30.9828 17.8879 8.25944
52 1 3 -0.11508 5.54921 3.20384 6.65468
53 1 3 -0.11508 23.8152 17.8879 8.25944
54 1 3 -0.11508 12.7168 3.20384 6.65468
55 1 3 -0.11508 30.9828 13.7497 14.1117
56 1 3 -0.11508 5.54921 7.34203 0.802379
57 1 3 -0.0559 18.266 5.39949 13.5316
58 1 3 -0.0559 18.266 15.6923 1.38254
59 1 3 -0.055903 18.266 14.5575 0.580159
60 1 3 -0.055903 18.266 6.53422 14.334
61 1 3 -0.0559 26.1971 11.1132 7.85825
62 1 3 -0.0559 10.3349 9.9785 7.05587
63 1 3 -0.055903 10.3349 11.1132 7.85825
64 1 3 -0.055903 26.1971 9.9785 7.05587
65 1 3 -0.0559 14.7918 8.54005 0.580159
66 1 3 -0.0559 21.7402 12.5517 14.334
67 1 3 -0.055903 22.7229 13.1191 13.5316
68 1 3 -0.055903 13.8091 7.97268 1.38254
69 1 3 -0.0559 21.7402 3.39366 7.85825
70 1 3 -0.0559 14.7918 17.6981 7.05587
71 1 3 -0.055903 13.8091 17.1307 7.85825
72 1 3 -0.055903 22.7229 3.96103 7.05587
73 1 3 -0.055901 22.7229 17.1307 7.85825
74 1 3 -0.055901 13.8091 3.96103 7.05587
75 1 3 -0.055903 14.7918 3.39366 7.85825
76 1 3 -0.055903 21.7402 17.6981 7.05587
77 1 3 -0.0559 21.7402 8.54005 0.580159
78 1 3 -0.0559 14.7918 12.5517 14.334
79 1 3 -0.055903 13.8091 13.1191 13.5316
80 1 3 -0.055903 22.7229 7.97268 1.38254
81 1 4 -1.26215 27.399 15.8188 11.1856
82 1 4 -1.26215 9.13299 5.27293 3.72853
83 1 4 -0.60118 27.399 18.9383 11.9641
84 1 4 -0.60118 9.13299 2.15347 2.95001
85 1 4 -0.601179 27.399 17.5926 13.8671
86 1 4 -0.601179 9.13299 3.49912 1.04697
87 1 4 -0.601179 26.2336 13.3722 9.45555
88 1 4 -0.601179 10.2984 7.71958 5.45857
89 1 4 -0.60118 28.5643 13.3722 9.45555
90 1 4 -0.60118 7.96762 7.71958 5.45857
91 1 4 -0.60118 25.8628 14.9319 13.8671
92 1 4 -0.60118 10.6692 6.15984 1.04697
93 1 4 -0.601179 24.6974 14.2591 11.9641
94 1 4 -0.601179 11.8345 6.83267 2.95001
95 1 4 -0.60118 28.9351 18.0514 9.45555
96 1 4 -0.60118 7.59682 3.04037 5.45857
97 1 4 -0.601179 30.1005 16.0329 9.45555
98 1 4 -0.601179 6.43145 5.05885 5.45857
99 1 4 -0.601179 24.6974 16.0329 9.45555
100 1 4 -0.601179 11.8345 5.05885 5.45857
101 1 4 -0.60118 25.8628 18.0514 9.45555
102 1 4 -0.60118 10.6692 3.04037 5.45857
103 1 4 -0.60118 28.9351 14.9319 13.8671
104 1 4 -0.60118 7.59682 6.15984 1.04697
105 1 4 -0.60118 30.1005 14.2591 11.9641
106 1 4 -0.60118 6.43145 6.83267 2.95001
54326 18075 5 -0.35 27.4756 12.2142 12.2166
54327 18075 6 0.7 26.8003 11.2743 12.1377
54328 18075 5 -0.35 26.1249 10.3345 12.0588
54779 18226 5 -0.35 15.474 15.8056 11.1492
54780 18226 6 0.7 14.5084 16.3718 11.4534
54781 18226 5 -0.35 31.8087 16.9381 11.7576
54857 18252 5 -0.35 17.9396 17.7491 8.19922
54858 18252 6 0.7 18.1325 16.8465 7.49652
54859 18252 5 -0.35 18.3255 15.944 6.79382
54863 18254 5 -0.35 22.1784 8.16313 14.8139
54864 18254 6 0.7 21.865 7.86938 13.7364
54865 18254 5 -0.35 21.5517 7.57563 12.6588
54872 18257 5 -0.35 24.3778 12.443 4.05736
54873 18257 6 0.7 23.4513 11.838 4.4053
54874 18257 5 -0.35 22.5247 11.2329 4.75324
54923 18274 5 -0.35 27.7887 17.0066 6.70517
54924 18274 6 0.7 26.9201 16.2385 6.67037
54925 18274 5 -0.35 26.0516 15.4703 6.63558
55025 18308 5 -0.35 11.9149 11.2515 2.26708
55026 18308 6 0.7 12.0029 11.4816 1.13352
55027 18308 5 -0.35 21.224 16.9845 14.9141
55028 18309 5 -0.35 24.5939 7.84907 12.2374
55029 18309 6 0.7 24.6924 8.01703 11.0939
55030 18309 5 -0.35 24.7909 8.185 9.95031
55064 18321 5 -0.35 14.5916 4.21178 3.12053
55065 18321 6 0.7 15.214 4.01525 2.16162
55066 18321 5 -0.35 15.8365 3.81871 1.2027
55082 18327 5 -0.35 9.18304 8.82987 1.9717
55083 18327 6 0.7 8.15063 9.27873 2.25146
55084 18327 5 -0.35 7.11823 9.72759 2.53121
55091 18330 5 -0.35 19.7617 4.65955 2.02601
55092 18330 6 0.7 19.7539 4.61363 0.866943
55093 18330 5 -0.35 28.879 9.84064 14.622
55103 18334 5 -0.35 23.591 19.0481 12.0036
55104 18334 6 0.7 23.3602 19.5467 13.0253
55105 18334 5 -0.35 23.1295 20.0452 14.047
55121 18340 5 -0.35 14.8907 12.4436 2.16793
55122 18340 6 0.7 15.0056 13.5828 2.3539
55123 18340 5 -0.35 15.1205 14.7221 2.53987
55127 18342 5 -0.35 23.3283 12.039 9.96808
55128 18342 6 0.7 22.5223 12.7172 9.48223
55129 18342 5 -0.35 21.7164 13.3954 8.99638
55133 18344 5 -0.35 20.4404 2.36494 4.16841
55134 18344 6 0.7 12.0884 17.3407 4.32574
55135 18344 5 -0.35 12.8695 16.4976 4.48307
55139 18346 5 -0.35 21.4267 8.15511 9.3482
55140 18346 6 0.7 21.9252 7.16637 9.69389
55141 18346 5 -0.35 22.4237 6.17763 10.0396
55166 18355 5 -0.35 9.61038 12.1965 4.7175
55167 18355 6 0.7 10.2553 13.1452 4.88948
55168 18355 5 -0.35 10.9003 14.0939 5.06147
55169 18356 5 -0.35 6.27768 2.02635 1.21821
55170 18356 6 0.7 5.12961 2.17133 1.29905
55171 18356 5 -0.35 3.98155 2.31631 1.37988
55175 18358 5 -0.35 16.0504 12.3285 10.3669
55176 18358 6 0.7 16.2351 13.0087 9.44563
55177 18358 5 -0.35 16.4198 13.6889 8.52432
55184 18361 5 -0.35 16.9432 6.31245 6.29931
55185 18361 6 0.7 17.8591 5.60445 6.37326
55186 18361 5 -0.35 18.775 4.89646 6.44722
55193 18364 5 -0.35 25.3329 5.13631 11.1434
55194 18364 6 0.7 7.16368 4.61001 10.1142
55195 18364 5 -0.35 7.26039 4.08371 9.08499
55196 18365 5 -0.35 20.437 15.658 11.2027
55197 18365 6 0.7 19.9734 16.4889 11.8663
55198 18365 5 -0.35 19.5098 17.3197 12.5299
55202 18367 5 -0.35 11.2584 14.5753 1.21861
55203 18367 6 0.7 11.0665 15.1215 0.213397
55204 18367 5 -0.35 10.8746 5.12185 14.1223
55205 18368 5 -0.35 18.1593 10.4425 4.4762
55206 18368 6 0.7 18.0843 10.5274 3.32174
55207 18368 5 -0.35 18.0094 10.6122 2.16728
55208 18369 5 -0.35 15.189 0.617285 1.22535
55209 18369 6 0.7 14.9986 0.469711 0.0906399
55210 18369 5 -0.35 23.9412 5.59507 13.87
ITEM: TIMESTEP
77000
ITEM: NUMBER OF ATOMS
166
ITEM: BOX BOUNDS xy xz yz pp pp pp
0.0000000000000000e+00 3.6531964750000000e+01 9.1329911900000003e+00
0.0000000000000000e+00 2.1091739680000000e+01 9.1329911900000003e+00
0.0000000000000000e+00 1.4914112149999999e+01 5.2729349200000000e+00
ITEM: ATOMS id mol type q x y z
1 1 1 1.10383 27.399 17.6496 10.5383
2 1 1 1.10383 9.13299 3.44217 4.3758
3 1 1 1.10383 27.399 15.8188 13.1274
4 1 1 1.10383 9.13299 5.27293 1.78671
5 1 1 1.10383 25.8135 14.9034 10.5383
6 1 1 1.10383 10.7185 6.18832 4.3758
7 1 1 1.10383 28.9845 14.9034 10.5383
8 1 1 1.10383 7.5475 6.18832 4.3758
9 1 2 0.115889 18.266 5.48596 12.6084
10 1 2 0.115889 18.266 15.6058 2.30572
11 1 2 0.115888 18.266 13.716 0.969417
12 1 2 0.115888 18.266 7.37578 13.9447
13 1 2 0.11589 25.3934 11.4908 8.12521
14 1 2 0.11589 11.1386 9.60096 6.7889
15 1 2 0.115888 11.1386 11.4908 8.12521
16 1 2 0.115888 25.3934 9.60096 6.7889
17 1 2 0.115889 15.5206 8.96083 0.969417
18 1 2 0.115889 21.0114 12.1309 13.9447
19 1 2 0.115888 22.648 13.0758 12.6084
20 1 2 0.115888 13.884 8.01592 2.30572
21 1 2 0.115889 21.0114 3.90092 8.12521
22 1 2 0.115889 15.5206 17.1908 6.7889
23 1 2 0.115887 13.884 16.2459 8.12521
24 1 2 0.115887 22.648 4.84583 6.7889
25 1 2 0.115889 22.648 16.2459 8.12521
26 1 2 0.115889 13.884 4.84583 6.7889
27 1 2 0.115887 15.5206 3.90092 8.12521
28 1 2 0.115887 21.0114 17.1908 6.7889
29 1 2 0.115889 21.0114 8.96083 0.969417
30 1 2 0.115889 15.5206 12.1309 13.9447
31 1 2 0.115887 13.884 13.0758 12.6084
32 1 2 0.115887 22.648 8.01592 2.30572
33 1 3 0.671939 27.399 18.7442 13.2542
34 1 3 0.671939 9.13299 2.34751 1.65994
35 1 3 0.671939 27.399 12.8934 9.117
36 1 3 0.671939 9.13299 8.19836 5.79712
37 1 3 0.67194 24.8655 14.3561 13.2542
38 1 3 0.67194 11.6665 6.73565 1.65994
39 1 3 0.67194 29.9325 17.2815 9.117
40 1 3 0.67194 6.5995 3.81022 5.79712
41 1 3 0.67194 24.8655 17.2815 9.117
42 1 3 0.67194 11.6665 3.81022 5.79712
43 1 3 0.67194 29.9325 14.3561 13.2542
44 1 3 0.67194 6.5995 6.73565 1.65994
45 1 3 -0.11508 27.399 19.957 14.1117
46 1 3 -0.11508 9.13299 1.13474 0.802379
47 1 3 -0.11508 27.399 11.6806 8.25944
48 1 3 -0.11508 9.13299 9.41113 6.65468
49 1 3 -0.11508 23.8152 13.7497 14.1117
50 1 3 -0.11508 12.7168 7.34203 0.802379
51 1 3 -0.11508 30.9828 17.8879 8.25944
52 1 3 -0.11508 5.54921 3.20384 6.65468
53 1 3 -0.11508 23.8152 17.8879 8.25944
54 1 3 -0.11508 12.7168 3.20384 6.65468
55 1 3 -0.11508 30.9828 13.7497 14.1117
56 1 3 -0.11508 5.54921 7.34203 0.802379
57 1 3 -0.0559 18.266 5.39949 13.5316
58 1 3 -0.0559 18.266 15.6923 1.38254
59 1 3 -0.055903 18.266 14.5575 0.580159
60 1 3 -0.055903 18.266 6.53422 14.334
61 1 3 -0.0559 26.1971 11.1132 7.85825
62 1 3 -0.0559 10.3349 9.9785 7.05587
63 1 3 -0.055903 10.3349 11.1132 7.85825
64 1 3 -0.055903 26.1971 9.9785 7.05587
65 1 3 -0.0559 14.7918 8.54005 0.580159
66 1 3 -0.0559 21.7402 12.5517 14.334
67 1 3 -0.055903 22.7229 13.1191 13.5316
68 1 3 -0.055903 13.8091 7.97268 1.38254
69 1 3 -0.0559 21.7402 3.39366 7.85825
70 1 3 -0.0559 14.7918 17.6981 7.05587
71 1 3 -0.055903 13.8091 17.1307 7.85825
72 1 3 -0.055903 22.7229 3.96103 7.05587
73 1 3 -0.055901 22.7229 17.1307 7.85825
74 1 3 -0.055901 13.8091 3.96103 7.05587
75 1 3 -0.055903 14.7918 3.39366 7.85825
76 1 3 -0.055903 21.7402 17.6981 7.05587
77 1 3 -0.0559 21.7402 8.54005 0.580159
78 1 3 -0.0559 14.7918 12.5517 14.334
79 1 3 -0.055903 13.8091 13.1191 13.5316
80 1 3 -0.055903 22.7229 7.97268 1.38254
81 1 4 -1.26215 27.399 15.8188 11.1856
82 1 4 -1.26215 9.13299 5.27293 3.72853
83 1 4 -0.60118 27.399 18.9383 11.9641
84 1 4 -0.60118 9.13299 2.15347 2.95001
85 1 4 -0.601179 27.399 17.5926 13.8671
86 1 4 -0.601179 9.13299 3.49912 1.04697
87 1 4 -0.601179 26.2336 13.3722 9.45555
88 1 4 -0.601179 10.2984 7.71958 5.45857
89 1 4 -0.60118 28.5643 13.3722 9.45555
90 1 4 -0.60118 7.96762 7.71958 5.45857
91 1 4 -0.60118 25.8628 14.9319 13.8671
92 1 4 -0.60118 10.6692 6.15984 1.04697
93 1 4 -0.601179 24.6974 14.2591 11.9641
94 1 4 -0.601179 11.8345 6.83267 2.95001
95 1 4 -0.60118 28.9351 18.0514 9.45555
96 1 4 -0.60118 7.59682 3.04037 5.45857
97 1 4 -0.601179 30.1005 16.0329 9.45555
98 1 4 -0.601179 6.43145 5.05885 5.45857
99 1 4 -0.601179 24.6974 16.0329 9.45555
100 1 4 -0.601179 11.8345 5.05885 5.45857
101 1 4 -0.60118 25.8628 18.0514 9.45555
102 1 4 -0.60118 10.6692 3.04037 5.45857
103 1 4 -0.60118 28.9351 14.9319 13.8671
104 1 4 -0.60118 7.59682 6.15984 1.04697
105 1 4 -0.60118 30.1005 14.2591 11.9641
106 1 4 -0.60118 6.43145 6.83267 2.95001
54863 18254 5 -0.35 21.7776 7.97475 14.4895
54864 18254 6 0.7 21.5571 8.48506 13.4714
54865 18254 5 -0.35 21.3366 8.99537 12.4533
55064 18321 5 -0.35 21.1446 16.7649 2.67753
55065 18321 6 0.7 13.0657 1.34783 2.94764
55066 18321 5 -0.35 14.1199 1.74957 3.21775
55082 18327 5 -0.35 24.8064 9.88316 3.39903
55083 18327 6 0.7 24.0069 9.52029 4.15717
55084 18327 5 -0.35 23.2074 9.15741 4.9153
55346 18415 5 -0.35 6.41841 3.50093 2.39621
55347 18415 6 0.7 6.11232 2.62521 1.69977
55348 18415 5 -0.35 5.80624 1.74949 1.00333
55391 18430 5 -0.35 19.5512 17.3041 9.64199
55392 18430 6 0.7 18.8683 18.1779 9.30196
55393 18430 5 -0.35 9.05237 3.23297 8.96192
55469 18456 5 -0.35 27.6921 16.4112 7.34384
55470 18456 6 0.7 27.8288 17.5216 7.03753
55471 18456 5 -0.35 18.8325 2.81327 6.73123
55586 18495 5 -0.35 9.03373 8.85141 1.65204
55587 18495 6 0.7 9.21892 9.246 0.577055
55588 18495 5 -0.35 18.5371 14.9135 14.4162
55625 18508 5 -0.35 16.0084 14.4807 8.16846
55626 18508 6 0.7 17.0423 14.8945 7.84381
55627 18508 5 -0.35 18.0762 15.3083 7.51917
55631 18510 5 -0.35 25.0076 12.3509 5.23267
55632 18510 6 0.7 25.7242 12.8446 4.46558
55633 18510 5 -0.35 26.4408 13.3382 3.69849
55640 18513 5 -0.35 25.4889 17.1607 5.60934
55641 18513 6 0.7 24.7633 16.293 5.35206
55642 18513 5 -0.35 24.0377 15.4253 5.09479
55694 18531 5 -0.35 13.3064 7.7222 7.44496
55695 18531 6 0.7 13.2378 8.30851 6.4464
55696 18531 5 -0.35 13.1692 8.89482 5.44783
55706 18535 5 -0.35 17.1521 16.9674 11.8877
55707 18535 6 0.7 16.5271 15.9906 11.8611
55708 18535 5 -0.35 15.902 15.0138 11.8344
55709 18536 5 -0.35 14.8261 12.7594 1.34743
55710 18536 6 0.7 14.7982 12.5284 0.211007
55711 18536 5 -0.35 23.9033 17.5703 13.9887
55715 18538 5 -0.35 20.3836 5.45004 5.65397
55716 18538 6 0.7 19.7931 5.33216 4.66252
55717 18538 5 -0.35 19.2026 5.21429 3.67107
55721 18540 5 -0.35 11.0301 15.2812 4.49904
55722 18540 6 0.7 10.9444 14.7413 3.47592
55723 18540 5 -0.35 10.8588 14.2014 2.45281
55727 18542 5 -0.35 24.8955 5.45247 10.9036
55728 18542 6 0.7 24.798 4.32809 10.6356
55729 18542 5 -0.35 15.5676 19.0225 10.3675
55733 18544 5 -0.35 3.26151 3.66605 2.31624
55734 18544 6 0.7 2.60868 2.70734 2.29972
55735 18544 5 -0.35 1.95585 1.74862 2.2832
55736 18545 5 -0.35 23.5142 11.9436 10.3074
55737 18545 6 0.7 23.5358 12.7094 9.43635
55738 18545 5 -0.35 23.5574 13.4751 8.56526
55739 18546 5 -0.35 10.3227 8.3232 10.9679
55740 18546 6 0.7 10.2483 7.32916 10.3747
55741 18546 5 -0.35 10.174 6.33513 9.7814
55742 18547 5 -0.35 20.5239 17.1706 13.8096
55743 18547 6 0.7 20.791 17.999 13.0427
55744 18547 5 -0.35 21.0582 18.8273 12.2758
ITEM: TIMESTEP
78000
ITEM: NUMBER OF ATOMS
178
ITEM: BOX BOUNDS xy xz yz pp pp pp
0.0000000000000000e+00 3.6531964750000000e+01 9.1329911900000003e+00
0.0000000000000000e+00 2.1091739680000000e+01 9.1329911900000003e+00
0.0000000000000000e+00 1.4914112149999999e+01 5.2729349200000000e+00
ITEM: ATOMS id mol type q x y z
1 1 1 1.10383 27.399 17.6496 10.5383
2 1 1 1.10383 9.13299 3.44217 4.3758
3 1 1 1.10383 27.399 15.8188 13.1274
4 1 1 1.10383 9.13299 5.27293 1.78671
5 1 1 1.10383 25.8135 14.9034 10.5383
6 1 1 1.10383 10.7185 6.18832 4.3758
7 1 1 1.10383 28.9845 14.9034 10.5383
8 1 1 1.10383 7.5475 6.18832 4.3758
9 1 2 0.115889 18.266 5.48596 12.6084
10 1 2 0.115889 18.266 15.6058 2.30572
11 1 2 0.115888 18.266 13.716 0.969417
12 1 2 0.115888 18.266 7.37578 13.9447
13 1 2 0.11589 25.3934 11.4908 8.12521
14 1 2 0.11589 11.1386 9.60096 6.7889
15 1 2 0.115888 11.1386 11.4908 8.12521
16 1 2 0.115888 25.3934 9.60096 6.7889
17 1 2 0.115889 15.5206 8.96083 0.969417
18 1 2 0.115889 21.0114 12.1309 13.9447
19 1 2 0.115888 22.648 13.0758 12.6084
20 1 2 0.115888 13.884 8.01592 2.30572
21 1 2 0.115889 21.0114 3.90092 8.12521
22 1 2 0.115889 15.5206 17.1908 6.7889
23 1 2 0.115887 13.884 16.2459 8.12521
24 1 2 0.115887 22.648 4.84583 6.7889
25 1 2 0.115889 22.648 16.2459 8.12521
26 1 2 0.115889 13.884 4.84583 6.7889
27 1 2 0.115887 15.5206 3.90092 8.12521
28 1 2 0.115887 21.0114 17.1908 6.7889
29 1 2 0.115889 21.0114 8.96083 0.969417
30 1 2 0.115889 15.5206 12.1309 13.9447
31 1 2 0.115887 13.884 13.0758 12.6084
32 1 2 0.115887 22.648 8.01592 2.30572
33 1 3 0.671939 27.399 18.7442 13.2542
34 1 3 0.671939 9.13299 2.34751 1.65994
35 1 3 0.671939 27.399 12.8934 9.117
36 1 3 0.671939 9.13299 8.19836 5.79712
37 1 3 0.67194 24.8655 14.3561 13.2542
38 1 3 0.67194 11.6665 6.73565 1.65994
39 1 3 0.67194 29.9325 17.2815 9.117
40 1 3 0.67194 6.5995 3.81022 5.79712
41 1 3 0.67194 24.8655 17.2815 9.117
42 1 3 0.67194 11.6665 3.81022 5.79712
43 1 3 0.67194 29.9325 14.3561 13.2542
44 1 3 0.67194 6.5995 6.73565 1.65994
45 1 3 -0.11508 27.399 19.957 14.1117
46 1 3 -0.11508 9.13299 1.13474 0.802379
47 1 3 -0.11508 27.399 11.6806 8.25944
48 1 3 -0.11508 9.13299 9.41113 6.65468
49 1 3 -0.11508 23.8152 13.7497 14.1117
50 1 3 -0.11508 12.7168 7.34203 0.802379
51 1 3 -0.11508 30.9828 17.8879 8.25944
52 1 3 -0.11508 5.54921 3.20384 6.65468
53 1 3 -0.11508 23.8152 17.8879 8.25944
54 1 3 -0.11508 12.7168 3.20384 6.65468
55 1 3 -0.11508 30.9828 13.7497 14.1117
56 1 3 -0.11508 5.54921 7.34203 0.802379
57 1 3 -0.0559 18.266 5.39949 13.5316
58 1 3 -0.0559 18.266 15.6923 1.38254
59 1 3 -0.055903 18.266 14.5575 0.580159
60 1 3 -0.055903 18.266 6.53422 14.334
61 1 3 -0.0559 26.1971 11.1132 7.85825
62 1 3 -0.0559 10.3349 9.9785 7.05587
63 1 3 -0.055903 10.3349 11.1132 7.85825
64 1 3 -0.055903 26.1971 9.9785 7.05587
65 1 3 -0.0559 14.7918 8.54005 0.580159
66 1 3 -0.0559 21.7402 12.5517 14.334
67 1 3 -0.055903 22.7229 13.1191 13.5316
68 1 3 -0.055903 13.8091 7.97268 1.38254
69 1 3 -0.0559 21.7402 3.39366 7.85825
70 1 3 -0.0559 14.7918 17.6981 7.05587
71 1 3 -0.055903 13.8091 17.1307 7.85825
72 1 3 -0.055903 22.7229 3.96103 7.05587
73 1 3 -0.055901 22.7229 17.1307 7.85825
74 1 3 -0.055901 13.8091 3.96103 7.05587
75 1 3 -0.055903 14.7918 3.39366 7.85825
76 1 3 -0.055903 21.7402 17.6981 7.05587
77 1 3 -0.0559 21.7402 8.54005 0.580159
78 1 3 -0.0559 14.7918 12.5517 14.334
79 1 3 -0.055903 13.8091 13.1191 13.5316
80 1 3 -0.055903 22.7229 7.97268 1.38254
81 1 4 -1.26215 27.399 15.8188 11.1856
82 1 4 -1.26215 9.13299 5.27293 3.72853
83 1 4 -0.60118 27.399 18.9383 11.9641
84 1 4 -0.60118 9.13299 2.15347 2.95001
85 1 4 -0.601179 27.399 17.5926 13.8671
86 1 4 -0.601179 9.13299 3.49912 1.04697
87 1 4 -0.601179 26.2336 13.3722 9.45555
88 1 4 -0.601179 10.2984 7.71958 5.45857
89 1 4 -0.60118 28.5643 13.3722 9.45555
90 1 4 -0.60118 7.96762 7.71958 5.45857
91 1 4 -0.60118 25.8628 14.9319 13.8671
92 1 4 -0.60118 10.6692 6.15984 1.04697
93 1 4 -0.601179 24.6974 14.2591 11.9641
94 1 4 -0.601179 11.8345 6.83267 2.95001
95 1 4 -0.60118 28.9351 18.0514 9.45555
96 1 4 -0.60118 7.59682 3.04037 5.45857
97 1 4 -0.601179 30.1005 16.0329 9.45555
98 1 4 -0.601179 6.43145 5.05885 5.45857
99 1 4 -0.601179 24.6974 16.0329 9.45555
100 1 4 -0.601179 11.8345 5.05885 5.45857
101 1 4 -0.60118 25.8628 18.0514 9.45555
102 1 4 -0.60118 10.6692 3.04037 5.45857
103 1 4 -0.60118 28.9351 14.9319 13.8671
104 1 4 -0.60118 7.59682 6.15984 1.04697
105 1 4 -0.60118 30.1005 14.2591 11.9641
106 1 4 -0.60118 6.43145 6.83267 2.95001
55793 18564 5 -0.35 12.3548 2.69462 1.13749
55794 18564 6 0.7 11.9991 3.21505 0.163738
55795 18564 5 -0.35 20.7763 9.00841 14.1041
56195 18698 5 -0.35 19.7237 2.36111 5.11704
56196 18698 6 0.7 20.3024 2.79258 4.209
56197 18698 5 -0.35 20.8811 3.22405 3.30097
56204 18701 5 -0.35 5.66399 3.7887 1.25298
56205 18701 6 0.7 5.50058 3.5691 0.125735
56206 18701 5 -0.35 14.4702 8.62244 13.9126
56213 18704 5 -0.35 14.9974 16.0882 12.9423
56214 18704 6 0.7 32.6095 16.3982 13.8489
56215 18704 5 -0.35 31.9556 16.7082 14.7555
56291 18730 5 -0.35 25.7227 17.2332 5.37149
56292 18730 6 0.7 26.0935 16.5111 6.20024
56293 18730 5 -0.35 26.4643 15.7891 7.02898
56357 18752 5 -0.35 17.8293 5.10201 9.1826
56358 18752 6 0.7 16.9722 5.1747 9.96089
56359 18752 5 -0.35 16.1151 5.2474 10.7392
56405 18768 5 -0.35 17.2875 15.0623 14.588
56406 18768 6 0.7 18.0459 14.8606 13.7338
56407 18768 5 -0.35 18.8044 14.6589 12.8796
56432 18777 5 -0.35 17.8678 7.51002 1.69237
56433 18777 6 0.7 17.8648 7.15761 0.587204
56434 18777 5 -0.35 26.9947 12.0781 14.3961
56480 18793 5 -0.35 19.0744 18.5821 8.52275
56481 18793 6 0.7 18.6798 17.588 8.07373
56482 18793 5 -0.35 18.2851 16.5939 7.62472
56516 18805 5 -0.35 23.2491 5.27232 11.0825
56517 18805 6 0.7 22.1546 5.51056 11.3841
56518 18805 5 -0.35 21.0602 5.7488 11.6857
56522 18807 5 -0.35 21.2786 15.8555 14.871
56523 18807 6 0.7 12.0786 10.5665 1.11482
56524 18807 5 -0.35 12.0116 10.5506 2.27277
56528 18809 5 -0.35 21.0243 7.44967 7.1721
56529 18809 6 0.7 20.5498 6.60154 6.53878
56530 18809 5 -0.35 20.0752 5.75341 5.90545
56537 18812 5 -0.35 15.0062 13.9079 1.13568
56538 18812 6 0.7 15.0748 14.7492 0.340023
56539 18812 5 -0.35 24.2764 20.8635 14.4585
56546 18815 5 -0.35 16.5384 18.5602 12.1828
56547 18815 6 0.7 16.6182 17.8051 11.3059
56548 18815 5 -0.35 16.698 17.0501 10.4289
56552 18817 5 -0.35 20.4241 12.0205 2.81519
56553 18817 6 0.7 20.4158 10.8945 3.0939
56554 18817 5 -0.35 20.4075 9.76851 3.37262
56561 18820 5 -0.35 25.1699 9.37303 14.1209
56562 18820 6 0.7 26.1139 9.08676 13.5105
56563 18820 5 -0.35 27.0579 8.80049 12.9001
56564 18821 5 -0.35 12.6254 4.65882 12.3082
56565 18821 6 0.7 12.9348 4.93313 11.2244
56566 18821 5 -0.35 13.2443 5.20744 10.1406
56567 18822 5 -0.35 14.6544 3.78202 4.12838
56568 18822 6 0.7 15.0148 3.48278 3.06715
56569 18822 5 -0.35 15.3751 3.18353 2.00592
56570 18823 5 -0.35 14.9315 9.38968 6.05751
56571 18823 6 0.7 14.7147 9.53753 4.92758
56572 18823 5 -0.35 14.4979 9.68538 3.79765
56573 18824 5 -0.35 8.55247 7.08967 9.24476
56574 18824 6 0.7 25.7029 7.30777 9.01328
56575 18824 5 -0.35 24.5874 7.52587 8.7818
56579 18826 5 -0.35 10.1407 12.7157 4.56672
56580 18826 6 0.7 11.1812 12.9147 5.03936
56581 18826 5 -0.35 12.2216 13.1138 5.512
56582 18827 5 -0.35 23.9992 15.5956 0.988664
56583 18827 6 0.7 23.0591 15.0482 1.39121
56584 18827 5 -0.35 22.1189 14.5008 1.79376
56585 18828 5 -0.35 12.3112 14.4154 1.4839
56586 18828 6 0.7 11.4631 13.7602 1.04012
56587 18828 5 -0.35 10.6149 13.1049 0.596344
56588 18829 5 -0.35 24.8227 11.6709 4.45076
56589 18829 6 0.7 25.3171 11.8409 3.41525
56590 18829 5 -0.35 25.8115 12.0109 2.37974
ITEM: TIMESTEP
79000
ITEM: NUMBER OF ATOMS
154
ITEM: BOX BOUNDS xy xz yz pp pp pp
0.0000000000000000e+00 3.6531964750000000e+01 9.1329911900000003e+00
0.0000000000000000e+00 2.1091739680000000e+01 9.1329911900000003e+00
0.0000000000000000e+00 1.4914112149999999e+01 5.2729349200000000e+00
ITEM: ATOMS id mol type q x y z
1 1 1 1.10383 27.399 17.6496 10.5383
2 1 1 1.10383 9.13299 3.44217 4.3758
3 1 1 1.10383 27.399 15.8188 13.1274
4 1 1 1.10383 9.13299 5.27293 1.78671
5 1 1 1.10383 25.8135 14.9034 10.5383
6 1 1 1.10383 10.7185 6.18832 4.3758
7 1 1 1.10383 28.9845 14.9034 10.5383
8 1 1 1.10383 7.5475 6.18832 4.3758
9 1 2 0.115889 18.266 5.48596 12.6084
10 1 2 0.115889 18.266 15.6058 2.30572
11 1 2 0.115888 18.266 13.716 0.969417
12 1 2 0.115888 18.266 7.37578 13.9447
13 1 2 0.11589 25.3934 11.4908 8.12521
14 1 2 0.11589 11.1386 9.60096 6.7889
15 1 2 0.115888 11.1386 11.4908 8.12521
16 1 2 0.115888 25.3934 9.60096 6.7889
17 1 2 0.115889 15.5206 8.96083 0.969417
18 1 2 0.115889 21.0114 12.1309 13.9447
19 1 2 0.115888 22.648 13.0758 12.6084
20 1 2 0.115888 13.884 8.01592 2.30572
21 1 2 0.115889 21.0114 3.90092 8.12521
22 1 2 0.115889 15.5206 17.1908 6.7889
23 1 2 0.115887 13.884 16.2459 8.12521
24 1 2 0.115887 22.648 4.84583 6.7889
25 1 2 0.115889 22.648 16.2459 8.12521
26 1 2 0.115889 13.884 4.84583 6.7889
27 1 2 0.115887 15.5206 3.90092 8.12521
28 1 2 0.115887 21.0114 17.1908 6.7889
29 1 2 0.115889 21.0114 8.96083 0.969417
30 1 2 0.115889 15.5206 12.1309 13.9447
31 1 2 0.115887 13.884 13.0758 12.6084
32 1 2 0.115887 22.648 8.01592 2.30572
33 1 3 0.671939 27.399 18.7442 13.2542
34 1 3 0.671939 9.13299 2.34751 1.65994
35 1 3 0.671939 27.399 12.8934 9.117
36 1 3 0.671939 9.13299 8.19836 5.79712
37 1 3 0.67194 24.8655 14.3561 13.2542
38 1 3 0.67194 11.6665 6.73565 1.65994
39 1 3 0.67194 29.9325 17.2815 9.117
40 1 3 0.67194 6.5995 3.81022 5.79712
41 1 3 0.67194 24.8655 17.2815 9.117
42 1 3 0.67194 11.6665 3.81022 5.79712
43 1 3 0.67194 29.9325 14.3561 13.2542
44 1 3 0.67194 6.5995 6.73565 1.65994
45 1 3 -0.11508 27.399 19.957 14.1117
46 1 3 -0.11508 9.13299 1.13474 0.802379
47 1 3 -0.11508 27.399 11.6806 8.25944
48 1 3 -0.11508 9.13299 9.41113 6.65468
49 1 3 -0.11508 23.8152 13.7497 14.1117
50 1 3 -0.11508 12.7168 7.34203 0.802379
51 1 3 -0.11508 30.9828 17.8879 8.25944
52 1 3 -0.11508 5.54921 3.20384 6.65468
53 1 3 -0.11508 23.8152 17.8879 8.25944
54 1 3 -0.11508 12.7168 3.20384 6.65468
55 1 3 -0.11508 30.9828 13.7497 14.1117
56 1 3 -0.11508 5.54921 7.34203 0.802379
57 1 3 -0.0559 18.266 5.39949 13.5316
58 1 3 -0.0559 18.266 15.6923 1.38254
59 1 3 -0.055903 18.266 14.5575 0.580159
60 1 3 -0.055903 18.266 6.53422 14.334
61 1 3 -0.0559 26.1971 11.1132 7.85825
62 1 3 -0.0559 10.3349 9.9785 7.05587
63 1 3 -0.055903 10.3349 11.1132 7.85825
64 1 3 -0.055903 26.1971 9.9785 7.05587
65 1 3 -0.0559 14.7918 8.54005 0.580159
66 1 3 -0.0559 21.7402 12.5517 14.334
67 1 3 -0.055903 22.7229 13.1191 13.5316
68 1 3 -0.055903 13.8091 7.97268 1.38254
69 1 3 -0.0559 21.7402 3.39366 7.85825
70 1 3 -0.0559 14.7918 17.6981 7.05587
71 1 3 -0.055903 13.8091 17.1307 7.85825
72 1 3 -0.055903 22.7229 3.96103 7.05587
73 1 3 -0.055901 22.7229 17.1307 7.85825
74 1 3 -0.055901 13.8091 3.96103 7.05587
75 1 3 -0.055903 14.7918 3.39366 7.85825
76 1 3 -0.055903 21.7402 17.6981 7.05587
77 1 3 -0.0559 21.7402 8.54005 0.580159
78 1 3 -0.0559 14.7918 12.5517 14.334
79 1 3 -0.055903 13.8091 13.1191 13.5316
80 1 3 -0.055903 22.7229 7.97268 1.38254
81 1 4 -1.26215 27.399 15.8188 11.1856
82 1 4 -1.26215 9.13299 5.27293 3.72853
83 1 4 -0.60118 27.399 18.9383 11.9641
84 1 4 -0.60118 9.13299 2.15347 2.95001
85 1 4 -0.601179 27.399 17.5926 13.8671
86 1 4 -0.601179 9.13299 3.49912 1.04697
87 1 4 -0.601179 26.2336 13.3722 9.45555
88 1 4 -0.601179 10.2984 7.71958 5.45857
89 1 4 -0.60118 28.5643 13.3722 9.45555
90 1 4 -0.60118 7.96762 7.71958 5.45857
91 1 4 -0.60118 25.8628 14.9319 13.8671
92 1 4 -0.60118 10.6692 6.15984 1.04697
93 1 4 -0.601179 24.6974 14.2591 11.9641
94 1 4 -0.601179 11.8345 6.83267 2.95001
95 1 4 -0.60118 28.9351 18.0514 9.45555
96 1 4 -0.60118 7.59682 3.04037 5.45857
97 1 4 -0.601179 30.1005 16.0329 9.45555
98 1 4 -0.601179 6.43145 5.05885 5.45857
99 1 4 -0.601179 24.6974 16.0329 9.45555
100 1 4 -0.601179 11.8345 5.05885 5.45857
101 1 4 -0.60118 25.8628 18.0514 9.45555
102 1 4 -0.60118 10.6692 3.04037 5.45857
103 1 4 -0.60118 28.9351 14.9319 13.8671
104 1 4 -0.60118 7.59682 6.15984 1.04697
105 1 4 -0.60118 30.1005 14.2591 11.9641
106 1 4 -0.60118 6.43145 6.83267 2.95001
56864 18921 5 -0.35 20.5624 12.8662 2.06808
56865 18921 6 0.7 21.0191 12.7884 1.0046
56866 18921 5 -0.35 30.6088 17.9835 14.8552
56909 18936 5 -0.35 9.71186 6.60701 10.3523
56910 18936 6 0.7 9.2413 6.26661 9.34812
56911 18936 5 -0.35 8.77074 5.92622 8.34398
57179 19026 5 -0.35 24.2526 10.506 13.7406
57180 19026 6 0.7 24.5596 10.5538 12.623
57181 19026 5 -0.35 24.8666 10.6016 11.5054
57185 19028 5 -0.35 27.2469 12.2338 14.5215
57186 19028 6 0.7 18.4373 7.57861 0.534453
57187 19028 5 -0.35 18.7608 8.19638 1.46147
57236 19045 5 -0.35 27.4889 9.24581 12.2506
57237 19045 6 0.7 28.3221 10.0509 12.1941
57238 19045 5 -0.35 29.1554 10.8559 12.1377
57272 19057 5 -0.35 15.1347 6.16274 14.5426
57273 19057 6 0.7 23.948 20.9277 14.9071
57274 19057 5 -0.35 14.4954 14.601 0.357593
57275 19058 5 -0.35 5.56365 3.45764 1.69775
57276 19058 6 0.7 5.94488 3.6124 0.613168
57277 19058 5 -0.35 15.4591 9.04009 14.4427
57278 19059 5 -0.35 12.8124 5.57122 11.7247
57279 19059 6 0.7 12.6129 6.70397 11.8753
57280 19059 5 -0.35 12.4135 7.83673 12.0259
57290 19063 5 -0.35 21.8121 6.29925 13.5932
57291 19063 6 0.7 21.9327 7.06575 14.4555
57292 19063 5 -0.35 12.9203 2.55932 0.403647
57311 19070 5 -0.35 11.6466 16.0223 5.2568
57312 19070 6 0.7 29.1487 16.8384 4.94689
57313 19070 5 -0.35 19.2517 1.83564 4.63698
57326 19075 5 -0.35 15.524 2.98911 3.28568
57327 19075 6 0.7 15.2673 3.92617 2.6519
57328 19075 5 -0.35 15.0107 4.86322 2.01812
57344 19081 5 -0.35 28.0138 14.59 3.29738
57345 19081 6 0.7 27.2527 14.4582 4.16279
57346 19081 5 -0.35 26.4916 14.3264 5.0282
57347 19082 5 -0.35 18.4871 1.59578 0.328127
57348 19082 6 0.7 17.4986 1.23904 0.819066
57349 19082 5 -0.35 16.51 0.8823 1.31001
57365 19088 5 -0.35 24.5516 4.52283 9.97992
57366 19088 6 0.7 23.6359 4.13689 10.5784
57367 19088 5 -0.35 31.8532 19.5698 11.1768
57371 19090 5 -0.35 9.48525 8.66115 2.30707
57372 19090 6 0.7 9.64358 9.66456 2.86716
57373 19090 5 -0.35 9.80191 10.668 3.42724
57383 19094 5 -0.35 22.7303 7.91349 5.31523
57384 19094 6 0.7 23.2149 7.66915 6.34046
57385 19094 5 -0.35 23.6995 7.42481 7.36568
ITEM: TIMESTEP
80000
ITEM: NUMBER OF ATOMS
184
ITEM: BOX BOUNDS xy xz yz pp pp pp
0.0000000000000000e+00 3.6531964750000000e+01 9.1329911900000003e+00
0.0000000000000000e+00 2.1091739680000000e+01 9.1329911900000003e+00
0.0000000000000000e+00 1.4914112149999999e+01 5.2729349200000000e+00
ITEM: ATOMS id mol type q x y z
1 1 1 1.10383 27.399 17.6496 10.5383
2 1 1 1.10383 9.13299 3.44217 4.3758
3 1 1 1.10383 27.399 15.8188 13.1274
4 1 1 1.10383 9.13299 5.27293 1.78671
5 1 1 1.10383 25.8135 14.9034 10.5383
6 1 1 1.10383 10.7185 6.18832 4.3758
7 1 1 1.10383 28.9845 14.9034 10.5383
8 1 1 1.10383 7.5475 6.18832 4.3758
9 1 2 0.115889 18.266 5.48596 12.6084
10 1 2 0.115889 18.266 15.6058 2.30572
11 1 2 0.115888 18.266 13.716 0.969417
12 1 2 0.115888 18.266 7.37578 13.9447
13 1 2 0.11589 25.3934 11.4908 8.12521
14 1 2 0.11589 11.1386 9.60096 6.7889
15 1 2 0.115888 11.1386 11.4908 8.12521
16 1 2 0.115888 25.3934 9.60096 6.7889
17 1 2 0.115889 15.5206 8.96083 0.969417
18 1 2 0.115889 21.0114 12.1309 13.9447
19 1 2 0.115888 22.648 13.0758 12.6084
20 1 2 0.115888 13.884 8.01592 2.30572
21 1 2 0.115889 21.0114 3.90092 8.12521
22 1 2 0.115889 15.5206 17.1908 6.7889
23 1 2 0.115887 13.884 16.2459 8.12521
24 1 2 0.115887 22.648 4.84583 6.7889
25 1 2 0.115889 22.648 16.2459 8.12521
26 1 2 0.115889 13.884 4.84583 6.7889
27 1 2 0.115887 15.5206 3.90092 8.12521
28 1 2 0.115887 21.0114 17.1908 6.7889
29 1 2 0.115889 21.0114 8.96083 0.969417
30 1 2 0.115889 15.5206 12.1309 13.9447
31 1 2 0.115887 13.884 13.0758 12.6084
32 1 2 0.115887 22.648 8.01592 2.30572
33 1 3 0.671939 27.399 18.7442 13.2542
34 1 3 0.671939 9.13299 2.34751 1.65994
35 1 3 0.671939 27.399 12.8934 9.117
36 1 3 0.671939 9.13299 8.19836 5.79712
37 1 3 0.67194 24.8655 14.3561 13.2542
38 1 3 0.67194 11.6665 6.73565 1.65994
39 1 3 0.67194 29.9325 17.2815 9.117
40 1 3 0.67194 6.5995 3.81022 5.79712
41 1 3 0.67194 24.8655 17.2815 9.117
42 1 3 0.67194 11.6665 3.81022 5.79712
43 1 3 0.67194 29.9325 14.3561 13.2542
44 1 3 0.67194 6.5995 6.73565 1.65994
45 1 3 -0.11508 27.399 19.957 14.1117
46 1 3 -0.11508 9.13299 1.13474 0.802379
47 1 3 -0.11508 27.399 11.6806 8.25944
48 1 3 -0.11508 9.13299 9.41113 6.65468
49 1 3 -0.11508 23.8152 13.7497 14.1117
50 1 3 -0.11508 12.7168 7.34203 0.802379
51 1 3 -0.11508 30.9828 17.8879 8.25944
52 1 3 -0.11508 5.54921 3.20384 6.65468
53 1 3 -0.11508 23.8152 17.8879 8.25944
54 1 3 -0.11508 12.7168 3.20384 6.65468
55 1 3 -0.11508 30.9828 13.7497 14.1117
56 1 3 -0.11508 5.54921 7.34203 0.802379
57 1 3 -0.0559 18.266 5.39949 13.5316
58 1 3 -0.0559 18.266 15.6923 1.38254
59 1 3 -0.055903 18.266 14.5575 0.580159
60 1 3 -0.055903 18.266 6.53422 14.334
61 1 3 -0.0559 26.1971 11.1132 7.85825
62 1 3 -0.0559 10.3349 9.9785 7.05587
63 1 3 -0.055903 10.3349 11.1132 7.85825
64 1 3 -0.055903 26.1971 9.9785 7.05587
65 1 3 -0.0559 14.7918 8.54005 0.580159
66 1 3 -0.0559 21.7402 12.5517 14.334
67 1 3 -0.055903 22.7229 13.1191 13.5316
68 1 3 -0.055903 13.8091 7.97268 1.38254
69 1 3 -0.0559 21.7402 3.39366 7.85825
70 1 3 -0.0559 14.7918 17.6981 7.05587
71 1 3 -0.055903 13.8091 17.1307 7.85825
72 1 3 -0.055903 22.7229 3.96103 7.05587
73 1 3 -0.055901 22.7229 17.1307 7.85825
74 1 3 -0.055901 13.8091 3.96103 7.05587
75 1 3 -0.055903 14.7918 3.39366 7.85825
76 1 3 -0.055903 21.7402 17.6981 7.05587
77 1 3 -0.0559 21.7402 8.54005 0.580159
78 1 3 -0.0559 14.7918 12.5517 14.334
79 1 3 -0.055903 13.8091 13.1191 13.5316
80 1 3 -0.055903 22.7229 7.97268 1.38254
81 1 4 -1.26215 27.399 15.8188 11.1856
82 1 4 -1.26215 9.13299 5.27293 3.72853
83 1 4 -0.60118 27.399 18.9383 11.9641
84 1 4 -0.60118 9.13299 2.15347 2.95001
85 1 4 -0.601179 27.399 17.5926 13.8671
86 1 4 -0.601179 9.13299 3.49912 1.04697
87 1 4 -0.601179 26.2336 13.3722 9.45555
88 1 4 -0.601179 10.2984 7.71958 5.45857
89 1 4 -0.60118 28.5643 13.3722 9.45555
90 1 4 -0.60118 7.96762 7.71958 5.45857
91 1 4 -0.60118 25.8628 14.9319 13.8671
92 1 4 -0.60118 10.6692 6.15984 1.04697
93 1 4 -0.601179 24.6974 14.2591 11.9641
94 1 4 -0.601179 11.8345 6.83267 2.95001
95 1 4 -0.60118 28.9351 18.0514 9.45555
96 1 4 -0.60118 7.59682 3.04037 5.45857
97 1 4 -0.601179 30.1005 16.0329 9.45555
98 1 4 -0.601179 6.43145 5.05885 5.45857
99 1 4 -0.601179 24.6974 16.0329 9.45555
100 1 4 -0.601179 11.8345 5.05885 5.45857
101 1 4 -0.60118 25.8628 18.0514 9.45555
102 1 4 -0.60118 10.6692 3.04037 5.45857
103 1 4 -0.60118 28.9351 14.9319 13.8671
104 1 4 -0.60118 7.59682 6.15984 1.04697
105 1 4 -0.60118 30.1005 14.2591 11.9641
106 1 4 -0.60118 6.43145 6.83267 2.95001
57746 19215 5 -0.35 4.86725 1.05767 0.669555
57747 19215 6 0.7 5.19172 0.892395 1.77092
57748 19215 5 -0.35 14.6492 16.5459 2.87229
57881 19260 5 -0.35 19.442 11.5714 2.12686
57882 19260 6 0.7 20.223 11.7347 1.28489
57883 19260 5 -0.35 21.0041 11.898 0.442918
57908 19269 5 -0.35 23.9461 17.4105 13.5261
57909 19269 6 0.7 23.8928 17.632 14.6635
57910 19269 5 -0.35 14.7064 12.5806 0.886748
57992 19297 5 -0.35 10.0648 9.71493 2.06603
57993 19297 6 0.7 10.9752 10.3934 1.82859
57994 19297 5 -0.35 11.8857 11.072 1.59114
58043 19314 5 -0.35 28.5533 15.3031 6.38263
58044 19314 6 0.7 11.1691 14.8455 5.7839
58045 19314 5 -0.35 12.051 14.3879 5.18516
58070 19323 5 -0.35 4.42958 4.7104 2.22778
58071 19323 6 0.7 21.6324 4.57177 1.78508
58072 19323 5 -0.35 20.5692 4.43313 1.34237
58073 19324 5 -0.35 13.743 13.2879 8.25385
58074 19324 6 0.7 14.746 13.0494 8.78549
58075 19324 5 -0.35 15.7491 12.8109 9.31714
58076 19325 5 -0.35 16.4824 13.8761 6.27245
58077 19325 6 0.7 16.7334 13.543 5.19002
58078 19325 5 -0.35 16.9844 13.2099 4.1076
58175 19358 5 -0.35 18.5265 18.4628 10.8977
58176 19358 6 0.7 18.7859 18.2758 9.78262
58177 19358 5 -0.35 19.0453 18.0889 8.66756
58208 19369 5 -0.35 21.3324 5.27605 10.4427
58209 19369 6 0.7 21.1401 4.5917 11.3594
58210 19369 5 -0.35 30.0809 19.7261 12.276
58211 19370 5 -0.35 27.7065 12.3082 12.9911
58212 19370 6 0.7 27.5928 11.5055 12.1615
58213 19370 5 -0.35 27.4792 10.7027 11.3318
58232 19377 5 -0.35 12.116 1.30056 3.34439
58233 19377 6 0.7 22 16.4808 3.95579
58234 19377 5 -0.35 22.7511 15.8423 4.56719
58244 19381 5 -0.35 19.503 12.3359 4.95567
58245 19381 6 0.7 20.3826 11.5844 4.87007
58246 19381 5 -0.35 21.2621 10.833 4.78446
58247 19382 5 -0.35 19.8907 14.6897 13.1961
58248 19382 6 0.7 19.6432 15.2091 12.1888
58249 19382 5 -0.35 19.3957 15.7285 11.1816
58250 19383 5 -0.35 19.1065 6.87914 2.72367
58251 19383 6 0.7 18.2768 6.70657 1.9316
58252 19383 5 -0.35 17.4471 6.534 1.13954
58253 19384 5 -0.35 32.2072 16.9147 12.8136
58254 19384 6 0.7 32.6318 17.5118 11.9142
58255 19384 5 -0.35 33.0564 18.1088 11.0149
58262 19387 5 -0.35 21.5499 18.4697 10.5748
58263 19387 6 0.7 22.2861 19.197 11.0987
58264 19387 5 -0.35 23.0223 19.9244 11.6226
58277 19392 5 -0.35 12.8841 10.8944 10.017
58278 19392 6 0.7 12.4753 9.82482 10.2029
58279 19392 5 -0.35 12.0665 8.75528 10.3888
58286 19395 5 -0.35 24.9026 10.2079 2.96818
58287 19395 6 0.7 25.0479 11.3522 2.84552
58288 19395 5 -0.35 25.1931 12.4965 2.72286
58289 19396 5 -0.35 18.8498 12.1984 10.4854
58290 19396 6 0.7 19.0534 11.4865 9.59249
58291 19396 5 -0.35 19.2569 10.7746 8.69954
58292 19397 5 -0.35 25.0706 9.22249 11.9316
58293 19397 6 0.7 24.4201 9.92195 11.2734
58294 19397 5 -0.35 23.7697 10.6214 10.6152
58295 19398 5 -0.35 14.4177 3.16175 1.97003
58296 19398 6 0.7 13.5556 3.28405 1.2036
58297 19398 5 -0.35 12.6935 3.40635 0.43716
58298 19399 5 -0.35 24.0739 15.4775 2.21312
58299 19399 6 0.7 25.1669 15.5043 2.60073
58300 19399 5 -0.35 26.2599 15.5312 2.98834
58301 19400 5 -0.35 16.6608 5.46654 9.66076
58302 19400 6 0.7 17.4906 6.02997 9.07798
58303 19400 5 -0.35 18.3204 6.59339 8.49519
58304 19401 5 -0.35 9.85348 4.92723 13.4242
58305 19401 6 0.7 10.2014 5.2195 12.3569
58306 19401 5 -0.35 10.5493 5.51177 11.2896
58307 19402 5 -0.35 17.2672 9.98632 6.28049
58308 19402 6 0.7 16.5992 9.05273 6.44719
58309 19402 5 -0.35 15.9312 8.11914 6.61388
ITEM: TIMESTEP
81000
ITEM: NUMBER OF ATOMS
202
ITEM: BOX BOUNDS xy xz yz pp pp pp
0.0000000000000000e+00 3.6531964750000000e+01 9.1329911900000003e+00
0.0000000000000000e+00 2.1091739680000000e+01 9.1329911900000003e+00
0.0000000000000000e+00 1.4914112149999999e+01 5.2729349200000000e+00
ITEM: ATOMS id mol type q x y z
1 1 1 1.10383 27.399 17.6496 10.5383
2 1 1 1.10383 9.13299 3.44217 4.3758
3 1 1 1.10383 27.399 15.8188 13.1274
4 1 1 1.10383 9.13299 5.27293 1.78671
5 1 1 1.10383 25.8135 14.9034 10.5383
6 1 1 1.10383 10.7185 6.18832 4.3758
7 1 1 1.10383 28.9845 14.9034 10.5383
8 1 1 1.10383 7.5475 6.18832 4.3758
9 1 2 0.115889 18.266 5.48596 12.6084
10 1 2 0.115889 18.266 15.6058 2.30572
11 1 2 0.115888 18.266 13.716 0.969417
12 1 2 0.115888 18.266 7.37578 13.9447
13 1 2 0.11589 25.3934 11.4908 8.12521
14 1 2 0.11589 11.1386 9.60096 6.7889
15 1 2 0.115888 11.1386 11.4908 8.12521
16 1 2 0.115888 25.3934 9.60096 6.7889
17 1 2 0.115889 15.5206 8.96083 0.969417
18 1 2 0.115889 21.0114 12.1309 13.9447
19 1 2 0.115888 22.648 13.0758 12.6084
20 1 2 0.115888 13.884 8.01592 2.30572
21 1 2 0.115889 21.0114 3.90092 8.12521
22 1 2 0.115889 15.5206 17.1908 6.7889
23 1 2 0.115887 13.884 16.2459 8.12521
24 1 2 0.115887 22.648 4.84583 6.7889
25 1 2 0.115889 22.648 16.2459 8.12521
26 1 2 0.115889 13.884 4.84583 6.7889
27 1 2 0.115887 15.5206 3.90092 8.12521
28 1 2 0.115887 21.0114 17.1908 6.7889
29 1 2 0.115889 21.0114 8.96083 0.969417
30 1 2 0.115889 15.5206 12.1309 13.9447
31 1 2 0.115887 13.884 13.0758 12.6084
32 1 2 0.115887 22.648 8.01592 2.30572
33 1 3 0.671939 27.399 18.7442 13.2542
34 1 3 0.671939 9.13299 2.34751 1.65994
35 1 3 0.671939 27.399 12.8934 9.117
36 1 3 0.671939 9.13299 8.19836 5.79712
37 1 3 0.67194 24.8655 14.3561 13.2542
38 1 3 0.67194 11.6665 6.73565 1.65994
39 1 3 0.67194 29.9325 17.2815 9.117
40 1 3 0.67194 6.5995 3.81022 5.79712
41 1 3 0.67194 24.8655 17.2815 9.117
42 1 3 0.67194 11.6665 3.81022 5.79712
43 1 3 0.67194 29.9325 14.3561 13.2542
44 1 3 0.67194 6.5995 6.73565 1.65994
45 1 3 -0.11508 27.399 19.957 14.1117
46 1 3 -0.11508 9.13299 1.13474 0.802379
47 1 3 -0.11508 27.399 11.6806 8.25944
48 1 3 -0.11508 9.13299 9.41113 6.65468
49 1 3 -0.11508 23.8152 13.7497 14.1117
50 1 3 -0.11508 12.7168 7.34203 0.802379
51 1 3 -0.11508 30.9828 17.8879 8.25944
52 1 3 -0.11508 5.54921 3.20384 6.65468
53 1 3 -0.11508 23.8152 17.8879 8.25944
54 1 3 -0.11508 12.7168 3.20384 6.65468
55 1 3 -0.11508 30.9828 13.7497 14.1117
56 1 3 -0.11508 5.54921 7.34203 0.802379
57 1 3 -0.0559 18.266 5.39949 13.5316
58 1 3 -0.0559 18.266 15.6923 1.38254
59 1 3 -0.055903 18.266 14.5575 0.580159
60 1 3 -0.055903 18.266 6.53422 14.334
61 1 3 -0.0559 26.1971 11.1132 7.85825
62 1 3 -0.0559 10.3349 9.9785 7.05587
63 1 3 -0.055903 10.3349 11.1132 7.85825
64 1 3 -0.055903 26.1971 9.9785 7.05587
65 1 3 -0.0559 14.7918 8.54005 0.580159
66 1 3 -0.0559 21.7402 12.5517 14.334
67 1 3 -0.055903 22.7229 13.1191 13.5316
68 1 3 -0.055903 13.8091 7.97268 1.38254
69 1 3 -0.0559 21.7402 3.39366 7.85825
70 1 3 -0.0559 14.7918 17.6981 7.05587
71 1 3 -0.055903 13.8091 17.1307 7.85825
72 1 3 -0.055903 22.7229 3.96103 7.05587
73 1 3 -0.055901 22.7229 17.1307 7.85825
74 1 3 -0.055901 13.8091 3.96103 7.05587
75 1 3 -0.055903 14.7918 3.39366 7.85825
76 1 3 -0.055903 21.7402 17.6981 7.05587
77 1 3 -0.0559 21.7402 8.54005 0.580159
78 1 3 -0.0559 14.7918 12.5517 14.334
79 1 3 -0.055903 13.8091 13.1191 13.5316
80 1 3 -0.055903 22.7229 7.97268 1.38254
81 1 4 -1.26215 27.399 15.8188 11.1856
82 1 4 -1.26215 9.13299 5.27293 3.72853
83 1 4 -0.60118 27.399 18.9383 11.9641
84 1 4 -0.60118 9.13299 2.15347 2.95001
85 1 4 -0.601179 27.399 17.5926 13.8671
86 1 4 -0.601179 9.13299 3.49912 1.04697
87 1 4 -0.601179 26.2336 13.3722 9.45555
88 1 4 -0.601179 10.2984 7.71958 5.45857
89 1 4 -0.60118 28.5643 13.3722 9.45555
90 1 4 -0.60118 7.96762 7.71958 5.45857
91 1 4 -0.60118 25.8628 14.9319 13.8671
92 1 4 -0.60118 10.6692 6.15984 1.04697
93 1 4 -0.601179 24.6974 14.2591 11.9641
94 1 4 -0.601179 11.8345 6.83267 2.95001
95 1 4 -0.60118 28.9351 18.0514 9.45555
96 1 4 -0.60118 7.59682 3.04037 5.45857
97 1 4 -0.601179 30.1005 16.0329 9.45555
98 1 4 -0.601179 6.43145 5.05885 5.45857
99 1 4 -0.601179 24.6974 16.0329 9.45555
100 1 4 -0.601179 11.8345 5.05885 5.45857
101 1 4 -0.60118 25.8628 18.0514 9.45555
102 1 4 -0.60118 10.6692 3.04037 5.45857
103 1 4 -0.60118 28.9351 14.9319 13.8671
104 1 4 -0.60118 7.59682 6.15984 1.04697
105 1 4 -0.60118 30.1005 14.2591 11.9641
106 1 4 -0.60118 6.43145 6.83267 2.95001
58544 19481 5 -0.35 9.41009 8.51363 0.52706
58545 19481 6 0.7 18.5395 13.4917 14.3193
58546 19481 5 -0.35 18.5359 13.1969 13.1974
58628 19509 5 -0.35 27.2746 15.9073 7.83553
58629 19509 6 0.7 28.0152 15.3786 7.11601
58630 19509 5 -0.35 28.7557 14.85 6.39649
58892 19597 5 -0.35 15.0289 6.17126 4.68704
58893 19597 6 0.7 14.591 5.22419 4.18017
58894 19597 5 -0.35 14.1532 4.27712 3.67329
58934 19611 5 -0.35 22.1141 12.5371 1.10082
58935 19611 6 0.7 21.5984 13.3226 1.78101
58936 19611 5 -0.35 21.0828 14.1081 2.4612
58946 19615 5 -0.35 8.95539 5.35556 7.50576
58947 19615 6 0.7 8.84 4.30642 7.987
58948 19615 5 -0.35 8.72461 3.25729 8.46825
58955 19618 5 -0.35 23.6242 13.1432 4.71217
58956 19618 6 0.7 24.672 13.2871 5.18862
58957 19618 5 -0.35 25.7198 13.431 5.66507
58964 19621 5 -0.35 14.5842 15.0902 0.317292
58965 19621 6 0.7 14.8771 13.9679 0.333408
58966 19621 5 -0.35 15.1699 12.8455 0.349524
59027 19642 5 -0.35 20.2994 15.7246 11.9935
59028 19642 6 0.7 20.011 16.4651 11.1485
59029 19642 5 -0.35 19.7226 17.2056 10.3034
59036 19645 5 -0.35 23.4477 16.9385 3.97132
59037 19645 6 0.7 13.204 1.3281 3.70925
59038 19645 5 -0.35 12.0934 1.53647 3.44718
59042 19647 5 -0.35 7.85258 11.1653 2.57265
59043 19647 6 0.7 7.36948 10.7855 1.5888
59044 19647 5 -0.35 6.88639 10.4057 0.604953
59045 19648 5 -0.35 11.6376 9.86183 13.2534
59046 19648 6 0.7 11.8984 9.91928 12.1246
59047 19648 5 -0.35 12.1591 9.97672 10.9957
59087 19662 5 -0.35 21.1863 17.6258 14.0331
59088 19662 6 0.7 11.5935 11.9152 0.0898343
59089 19662 5 -0.35 11.1337 11.4776 1.06072
59093 19664 5 -0.35 24.4738 19.7252 12.2458
59094 19664 6 0.7 23.3483 19.9669 12.1022
59095 19664 5 -0.35 13.0899 4.38971 11.9586
59096 19665 5 -0.35 10.6222 7.61151 9.44403
59097 19665 6 0.7 11.4359 6.84813 9.12673
59098 19665 5 -0.35 12.2497 6.08476 8.80943
59117 19672 5 -0.35 30.6977 18.2013 12.6601
59118 19672 6 0.7 30.8994 19.0114 11.8547
59119 19672 5 -0.35 21.968 4.00261 11.0493
59120 19673 5 -0.35 14.1516 7.4962 11.2595
59121 19673 6 0.7 14.6843 8.50796 11.0643
59122 19673 5 -0.35 15.217 9.51973 10.869
59123 19674 5 -0.35 15.0736 6.9779 7.35041
59124 19674 6 0.7 14.2266 7.74637 7.54416
59125 19674 5 -0.35 13.3795 8.51483 7.7379
59126 19675 5 -0.35 18.0196 5.85259 1.93347
59127 19675 6 0.7 18.1459 6.6308 1.08257
59128 19675 5 -0.35 18.2723 7.40901 0.23167
59135 19678 5 -0.35 17.3227 5.97989 9.88782
59136 19678 6 0.7 17.8953 5.37039 9.0839
59137 19678 5 -0.35 18.4678 4.76089 8.27997
59141 19680 5 -0.35 14.8157 9.482 4.52003
59142 19680 6 0.7 14.2392 10.3049 3.94041
59143 19680 5 -0.35 13.6626 11.1279 3.36079
59153 19684 5 -0.35 17.5598 3.4515 4.95247
59154 19684 6 0.7 17.9491 2.75095 4.11384
59155 19684 5 -0.35 18.3383 2.0504 3.27522
59162 19687 5 -0.35 13.4739 13.4589 8.96785
59163 19687 6 0.7 13.5964 13.5508 7.81801
59164 19687 5 -0.35 13.719 13.6427 6.66817
59165 19688 5 -0.35 34.79 18.9134 14.771
59166 19688 6 0.7 25.0331 13.8497 0.812128
59167 19688 5 -0.35 24.4091 14.0589 1.76738
59168 19689 5 -0.35 26.3079 11.7052 12.2546
59169 19689 6 0.7 25.6649 10.7398 12.2659
59170 19689 5 -0.35 25.0219 9.77442 12.2773
59189 19696 5 -0.35 16.7369 12.5827 5.10719
59190 19696 6 0.7 16.9617 13.6423 5.52246
59191 19696 5 -0.35 17.1864 14.7018 5.93774
59195 19698 5 -0.35 25.0298 5.44845 12.3237
59196 19698 6 0.7 25.0098 5.57739 11.171
59197 19698 5 -0.35 24.9899 5.70634 10.0184
59198 19699 5 -0.35 21.2492 7.39265 12.7922
59199 19699 6 0.7 20.7884 7.22556 11.7409
59200 19699 5 -0.35 20.3275 7.05847 10.6895
59201 19700 5 -0.35 14.6944 1.47105 0.911527
59202 19700 6 0.7 15.1674 2.52996 0.887313
59203 19700 5 -0.35 15.6404 3.58888 0.863099
59204 19701 5 -0.35 18.8296 10.2672 9.06577
59205 19701 6 0.7 19.7533 10.6711 9.63959
59206 19701 5 -0.35 20.677 11.075 10.2134
59207 19702 5 -0.35 22.7489 10.2671 6.052
59208 19702 6 0.7 23.3966 10.1408 5.09799
59209 19702 5 -0.35 24.0443 10.0145 4.14398
59213 19704 5 -0.35 10.4149 4.85633 13.6973
59214 19704 6 0.7 10.1193 4.69897 12.5867
59215 19704 5 -0.35 9.82377 4.5416 11.4761
59216 19705 5 -0.35 19.2534 11.13 5.6216
59217 19705 6 0.7 19.5528 10.9611 4.5137
59218 19705 5 -0.35 19.8522 10.7922 3.40579
ITEM: TIMESTEP
82000
ITEM: NUMBER OF ATOMS
148
ITEM: BOX BOUNDS xy xz yz pp pp pp
0.0000000000000000e+00 3.6531964750000000e+01 9.1329911900000003e+00
0.0000000000000000e+00 2.1091739680000000e+01 9.1329911900000003e+00
0.0000000000000000e+00 1.4914112149999999e+01 5.2729349200000000e+00
ITEM: ATOMS id mol type q x y z
1 1 1 1.10383 27.399 17.6496 10.5383
2 1 1 1.10383 9.13299 3.44217 4.3758
3 1 1 1.10383 27.399 15.8188 13.1274
4 1 1 1.10383 9.13299 5.27293 1.78671
5 1 1 1.10383 25.8135 14.9034 10.5383
6 1 1 1.10383 10.7185 6.18832 4.3758
7 1 1 1.10383 28.9845 14.9034 10.5383
8 1 1 1.10383 7.5475 6.18832 4.3758
9 1 2 0.115889 18.266 5.48596 12.6084
10 1 2 0.115889 18.266 15.6058 2.30572
11 1 2 0.115888 18.266 13.716 0.969417
12 1 2 0.115888 18.266 7.37578 13.9447
13 1 2 0.11589 25.3934 11.4908 8.12521
14 1 2 0.11589 11.1386 9.60096 6.7889
15 1 2 0.115888 11.1386 11.4908 8.12521
16 1 2 0.115888 25.3934 9.60096 6.7889
17 1 2 0.115889 15.5206 8.96083 0.969417
18 1 2 0.115889 21.0114 12.1309 13.9447
19 1 2 0.115888 22.648 13.0758 12.6084
20 1 2 0.115888 13.884 8.01592 2.30572
21 1 2 0.115889 21.0114 3.90092 8.12521
22 1 2 0.115889 15.5206 17.1908 6.7889
23 1 2 0.115887 13.884 16.2459 8.12521
24 1 2 0.115887 22.648 4.84583 6.7889
25 1 2 0.115889 22.648 16.2459 8.12521
26 1 2 0.115889 13.884 4.84583 6.7889
27 1 2 0.115887 15.5206 3.90092 8.12521
28 1 2 0.115887 21.0114 17.1908 6.7889
29 1 2 0.115889 21.0114 8.96083 0.969417
30 1 2 0.115889 15.5206 12.1309 13.9447
31 1 2 0.115887 13.884 13.0758 12.6084
32 1 2 0.115887 22.648 8.01592 2.30572
33 1 3 0.671939 27.399 18.7442 13.2542
34 1 3 0.671939 9.13299 2.34751 1.65994
35 1 3 0.671939 27.399 12.8934 9.117
36 1 3 0.671939 9.13299 8.19836 5.79712
37 1 3 0.67194 24.8655 14.3561 13.2542
38 1 3 0.67194 11.6665 6.73565 1.65994
39 1 3 0.67194 29.9325 17.2815 9.117
40 1 3 0.67194 6.5995 3.81022 5.79712
41 1 3 0.67194 24.8655 17.2815 9.117
42 1 3 0.67194 11.6665 3.81022 5.79712
43 1 3 0.67194 29.9325 14.3561 13.2542
44 1 3 0.67194 6.5995 6.73565 1.65994
45 1 3 -0.11508 27.399 19.957 14.1117
46 1 3 -0.11508 9.13299 1.13474 0.802379
47 1 3 -0.11508 27.399 11.6806 8.25944
48 1 3 -0.11508 9.13299 9.41113 6.65468
49 1 3 -0.11508 23.8152 13.7497 14.1117
50 1 3 -0.11508 12.7168 7.34203 0.802379
51 1 3 -0.11508 30.9828 17.8879 8.25944
52 1 3 -0.11508 5.54921 3.20384 6.65468
53 1 3 -0.11508 23.8152 17.8879 8.25944
54 1 3 -0.11508 12.7168 3.20384 6.65468
55 1 3 -0.11508 30.9828 13.7497 14.1117
56 1 3 -0.11508 5.54921 7.34203 0.802379
57 1 3 -0.0559 18.266 5.39949 13.5316
58 1 3 -0.0559 18.266 15.6923 1.38254
59 1 3 -0.055903 18.266 14.5575 0.580159
60 1 3 -0.055903 18.266 6.53422 14.334
61 1 3 -0.0559 26.1971 11.1132 7.85825
62 1 3 -0.0559 10.3349 9.9785 7.05587
63 1 3 -0.055903 10.3349 11.1132 7.85825
64 1 3 -0.055903 26.1971 9.9785 7.05587
65 1 3 -0.0559 14.7918 8.54005 0.580159
66 1 3 -0.0559 21.7402 12.5517 14.334
67 1 3 -0.055903 22.7229 13.1191 13.5316
68 1 3 -0.055903 13.8091 7.97268 1.38254
69 1 3 -0.0559 21.7402 3.39366 7.85825
70 1 3 -0.0559 14.7918 17.6981 7.05587
71 1 3 -0.055903 13.8091 17.1307 7.85825
72 1 3 -0.055903 22.7229 3.96103 7.05587
73 1 3 -0.055901 22.7229 17.1307 7.85825
74 1 3 -0.055901 13.8091 3.96103 7.05587
75 1 3 -0.055903 14.7918 3.39366 7.85825
76 1 3 -0.055903 21.7402 17.6981 7.05587
77 1 3 -0.0559 21.7402 8.54005 0.580159
78 1 3 -0.0559 14.7918 12.5517 14.334
79 1 3 -0.055903 13.8091 13.1191 13.5316
80 1 3 -0.055903 22.7229 7.97268 1.38254
81 1 4 -1.26215 27.399 15.8188 11.1856
82 1 4 -1.26215 9.13299 5.27293 3.72853
83 1 4 -0.60118 27.399 18.9383 11.9641
84 1 4 -0.60118 9.13299 2.15347 2.95001
85 1 4 -0.601179 27.399 17.5926 13.8671
86 1 4 -0.601179 9.13299 3.49912 1.04697
87 1 4 -0.601179 26.2336 13.3722 9.45555
88 1 4 -0.601179 10.2984 7.71958 5.45857
89 1 4 -0.60118 28.5643 13.3722 9.45555
90 1 4 -0.60118 7.96762 7.71958 5.45857
91 1 4 -0.60118 25.8628 14.9319 13.8671
92 1 4 -0.60118 10.6692 6.15984 1.04697
93 1 4 -0.601179 24.6974 14.2591 11.9641
94 1 4 -0.601179 11.8345 6.83267 2.95001
95 1 4 -0.60118 28.9351 18.0514 9.45555
96 1 4 -0.60118 7.59682 3.04037 5.45857
97 1 4 -0.601179 30.1005 16.0329 9.45555
98 1 4 -0.601179 6.43145 5.05885 5.45857
99 1 4 -0.601179 24.6974 16.0329 9.45555
100 1 4 -0.601179 11.8345 5.05885 5.45857
101 1 4 -0.60118 25.8628 18.0514 9.45555
102 1 4 -0.60118 10.6692 3.04037 5.45857
103 1 4 -0.60118 28.9351 14.9319 13.8671
104 1 4 -0.60118 7.59682 6.15984 1.04697
105 1 4 -0.60118 30.1005 14.2591 11.9641
106 1 4 -0.60118 6.43145 6.83267 2.95001
59672 19857 5 -0.35 14.8519 12.4921 0.990167
59673 19857 6 0.7 23.9335 17.5548 14.7646
59674 19857 5 -0.35 23.882 17.3446 13.625
59792 19897 5 -0.35 26.5727 10.2326 12.1938
59793 19897 6 0.7 26.9518 11.3289 12.2041
59794 19897 5 -0.35 27.3309 12.4251 12.2144
59891 19930 5 -0.35 12.9758 12.0982 4.53908
59892 19930 6 0.7 12.4805 11.9051 3.50805
59893 19930 5 -0.35 11.9853 11.712 2.47702
60002 19967 5 -0.35 23.6615 9.72907 13.2444
60003 19967 6 0.7 24.1953 9.78244 14.2729
60004 19967 5 -0.35 15.596 4.56286 0.387282
60035 19978 5 -0.35 29.6426 17.2646 5.40597
60036 19978 6 0.7 28.9029 16.4201 5.69797
60037 19978 5 -0.35 28.1632 15.5755 5.98998
60047 19982 5 -0.35 21.854 14.798 4.60133
60048 19982 6 0.7 21.4489 14.7461 3.51562
60049 19982 5 -0.35 21.0437 14.6942 2.42991
60053 19984 5 -0.35 8.60254 9.18446 0.647174
60054 19984 6 0.7 17.9024 14.7944 14.4639
60055 19984 5 -0.35 18.0693 15.1314 13.3666
60074 19991 5 -0.35 23.085 9.82191 4.49701
60075 19991 6 0.7 22.8911 8.98615 5.27771
60076 19991 5 -0.35 22.6971 8.1504 6.05842
60077 19992 5 -0.35 23.5238 20.4193 13.1881
60078 19992 6 0.7 13.6128 5.4308 12.9625
60079 19992 5 -0.35 12.8348 6.26107 12.7369
60080 19993 5 -0.35 15.3137 16.6228 13.2194
60081 19993 6 0.7 15.5629 17.0691 12.1781
60082 19993 5 -0.35 15.8121 17.5155 11.1369
60095 19998 5 -0.35 30.6619 19.2557 13.6244
60096 19998 6 0.7 31.6379 19.2677 14.2513
60097 19998 5 -0.35 32.6138 19.2797 14.8783
60131 20010 5 -0.35 21.2117 14.7526 11.1063
60132 20010 6 0.7 20.7809 15.8116 11.3023
60133 20010 5 -0.35 20.35 16.8706 11.4983
60140 20013 5 -0.35 9.93601 6.13555 9.97363
60141 20013 6 0.7 10.4254 7.06471 9.48091
60142 20013 5 -0.35 10.9148 7.99388 8.9882
60143 20014 5 -0.35 15.4263 10.0582 5.01087
60144 20014 6 0.7 16.4632 9.77603 5.44768
60145 20014 5 -0.35 17.5001 9.4939 5.88449
ITEM: TIMESTEP
83000
ITEM: NUMBER OF ATOMS
193
ITEM: BOX BOUNDS xy xz yz pp pp pp
0.0000000000000000e+00 3.6531964750000000e+01 9.1329911900000003e+00
0.0000000000000000e+00 2.1091739680000000e+01 9.1329911900000003e+00
0.0000000000000000e+00 1.4914112149999999e+01 5.2729349200000000e+00
ITEM: ATOMS id mol type q x y z
1 1 1 1.10383 27.399 17.6496 10.5383
2 1 1 1.10383 9.13299 3.44217 4.3758
3 1 1 1.10383 27.399 15.8188 13.1274
4 1 1 1.10383 9.13299 5.27293 1.78671
5 1 1 1.10383 25.8135 14.9034 10.5383
6 1 1 1.10383 10.7185 6.18832 4.3758
7 1 1 1.10383 28.9845 14.9034 10.5383
8 1 1 1.10383 7.5475 6.18832 4.3758
9 1 2 0.115889 18.266 5.48596 12.6084
10 1 2 0.115889 18.266 15.6058 2.30572
11 1 2 0.115888 18.266 13.716 0.969417
12 1 2 0.115888 18.266 7.37578 13.9447
13 1 2 0.11589 25.3934 11.4908 8.12521
14 1 2 0.11589 11.1386 9.60096 6.7889
15 1 2 0.115888 11.1386 11.4908 8.12521
16 1 2 0.115888 25.3934 9.60096 6.7889
17 1 2 0.115889 15.5206 8.96083 0.969417
18 1 2 0.115889 21.0114 12.1309 13.9447
19 1 2 0.115888 22.648 13.0758 12.6084
20 1 2 0.115888 13.884 8.01592 2.30572
21 1 2 0.115889 21.0114 3.90092 8.12521
22 1 2 0.115889 15.5206 17.1908 6.7889
23 1 2 0.115887 13.884 16.2459 8.12521
24 1 2 0.115887 22.648 4.84583 6.7889
25 1 2 0.115889 22.648 16.2459 8.12521
26 1 2 0.115889 13.884 4.84583 6.7889
27 1 2 0.115887 15.5206 3.90092 8.12521
28 1 2 0.115887 21.0114 17.1908 6.7889
29 1 2 0.115889 21.0114 8.96083 0.969417
30 1 2 0.115889 15.5206 12.1309 13.9447
31 1 2 0.115887 13.884 13.0758 12.6084
32 1 2 0.115887 22.648 8.01592 2.30572
33 1 3 0.671939 27.399 18.7442 13.2542
34 1 3 0.671939 9.13299 2.34751 1.65994
35 1 3 0.671939 27.399 12.8934 9.117
36 1 3 0.671939 9.13299 8.19836 5.79712
37 1 3 0.67194 24.8655 14.3561 13.2542
38 1 3 0.67194 11.6665 6.73565 1.65994
39 1 3 0.67194 29.9325 17.2815 9.117
40 1 3 0.67194 6.5995 3.81022 5.79712
41 1 3 0.67194 24.8655 17.2815 9.117
42 1 3 0.67194 11.6665 3.81022 5.79712
43 1 3 0.67194 29.9325 14.3561 13.2542
44 1 3 0.67194 6.5995 6.73565 1.65994
45 1 3 -0.11508 27.399 19.957 14.1117
46 1 3 -0.11508 9.13299 1.13474 0.802379
47 1 3 -0.11508 27.399 11.6806 8.25944
48 1 3 -0.11508 9.13299 9.41113 6.65468
49 1 3 -0.11508 23.8152 13.7497 14.1117
50 1 3 -0.11508 12.7168 7.34203 0.802379
51 1 3 -0.11508 30.9828 17.8879 8.25944
52 1 3 -0.11508 5.54921 3.20384 6.65468
53 1 3 -0.11508 23.8152 17.8879 8.25944
54 1 3 -0.11508 12.7168 3.20384 6.65468
55 1 3 -0.11508 30.9828 13.7497 14.1117
56 1 3 -0.11508 5.54921 7.34203 0.802379
57 1 3 -0.0559 18.266 5.39949 13.5316
58 1 3 -0.0559 18.266 15.6923 1.38254
59 1 3 -0.055903 18.266 14.5575 0.580159
60 1 3 -0.055903 18.266 6.53422 14.334
61 1 3 -0.0559 26.1971 11.1132 7.85825
62 1 3 -0.0559 10.3349 9.9785 7.05587
63 1 3 -0.055903 10.3349 11.1132 7.85825
64 1 3 -0.055903 26.1971 9.9785 7.05587
65 1 3 -0.0559 14.7918 8.54005 0.580159
66 1 3 -0.0559 21.7402 12.5517 14.334
67 1 3 -0.055903 22.7229 13.1191 13.5316
68 1 3 -0.055903 13.8091 7.97268 1.38254
69 1 3 -0.0559 21.7402 3.39366 7.85825
70 1 3 -0.0559 14.7918 17.6981 7.05587
71 1 3 -0.055903 13.8091 17.1307 7.85825
72 1 3 -0.055903 22.7229 3.96103 7.05587
73 1 3 -0.055901 22.7229 17.1307 7.85825
74 1 3 -0.055901 13.8091 3.96103 7.05587
75 1 3 -0.055903 14.7918 3.39366 7.85825
76 1 3 -0.055903 21.7402 17.6981 7.05587
77 1 3 -0.0559 21.7402 8.54005 0.580159
78 1 3 -0.0559 14.7918 12.5517 14.334
79 1 3 -0.055903 13.8091 13.1191 13.5316
80 1 3 -0.055903 22.7229 7.97268 1.38254
81 1 4 -1.26215 27.399 15.8188 11.1856
82 1 4 -1.26215 9.13299 5.27293 3.72853
83 1 4 -0.60118 27.399 18.9383 11.9641
84 1 4 -0.60118 9.13299 2.15347 2.95001
85 1 4 -0.601179 27.399 17.5926 13.8671
86 1 4 -0.601179 9.13299 3.49912 1.04697
87 1 4 -0.601179 26.2336 13.3722 9.45555
88 1 4 -0.601179 10.2984 7.71958 5.45857
89 1 4 -0.60118 28.5643 13.3722 9.45555
90 1 4 -0.60118 7.96762 7.71958 5.45857
91 1 4 -0.60118 25.8628 14.9319 13.8671
92 1 4 -0.60118 10.6692 6.15984 1.04697
93 1 4 -0.601179 24.6974 14.2591 11.9641
94 1 4 -0.601179 11.8345 6.83267 2.95001
95 1 4 -0.60118 28.9351 18.0514 9.45555
96 1 4 -0.60118 7.59682 3.04037 5.45857
97 1 4 -0.601179 30.1005 16.0329 9.45555
98 1 4 -0.601179 6.43145 5.05885 5.45857
99 1 4 -0.601179 24.6974 16.0329 9.45555
100 1 4 -0.601179 11.8345 5.05885 5.45857
101 1 4 -0.60118 25.8628 18.0514 9.45555
102 1 4 -0.60118 10.6692 3.04037 5.45857
103 1 4 -0.60118 28.9351 14.9319 13.8671
104 1 4 -0.60118 7.59682 6.15984 1.04697
105 1 4 -0.60118 30.1005 14.2591 11.9641
106 1 4 -0.60118 6.43145 6.83267 2.95001
60410 20103 5 -0.35 27.5154 11.8907 13.7618
60411 20103 6 0.7 27.283 12.1484 14.8687
60412 20103 5 -0.35 17.9177 7.13326 1.06149
60506 20135 5 -0.35 20.4711 16.5525 14.6583
60507 20135 6 0.7 20.6716 16.0865 13.6151
60508 20135 5 -0.35 20.8721 15.6204 12.572
60608 20169 5 -0.35 25.7361 10.8296 3.97202
60609 20169 6 0.7 7.96343 9.95997 3.38381
60610 20169 5 -0.35 8.45676 9.09035 2.79559
60692 20197 5 -0.35 6.40648 2.63255 2.38608
60693 20197 6 0.7 6.10183 1.58334 2.77585
60694 20197 5 -0.35 14.9302 16.3529 3.16563
60728 20209 5 -0.35 11.2449 15.5094 0.945601
60729 20209 6 0.7 12.1918 14.9135 0.639073
60730 20209 5 -0.35 13.1386 14.3176 0.332545
60737 20212 5 -0.35 32.9935 18.7977 12.1298
60738 20212 6 0.7 15.7826 18.5618 11.7093
60739 20212 5 -0.35 16.8377 18.3259 11.2889
60791 20230 5 -0.35 22.6979 14.5686 0.242561
60792 20230 6 0.7 22.2524 15.613 0.00508653
60793 20230 5 -0.35 21.8069 6.11151 14.6817
60812 20237 5 -0.35 7.40228 6.10887 8.59555
60813 20237 6 0.7 8.29178 5.76744 7.93386
60814 20237 5 -0.35 9.18127 5.42602 7.27217
60833 20244 5 -0.35 12.3817 9.99006 14.383
60834 20244 6 0.7 12.1674 10.0981 13.2481
60835 20244 5 -0.35 11.9531 10.2061 12.1132
60851 20250 5 -0.35 14.9834 1.94201 3.87173
60852 20250 6 0.7 14.3155 1.21475 3.26288
60853 20250 5 -0.35 22.7807 16.3063 2.65403
60857 20252 5 -0.35 15.8852 4.69285 1.22475
60858 20252 6 0.7 14.8539 4.26496 1.53929
60859 20252 5 -0.35 13.8226 3.83707 1.85383
60941 20280 5 -0.35 16.7291 9.31252 13.2681
60942 20280 6 0.7 17.6806 9.97244 13.1993
60943 20280 5 -0.35 18.6322 10.6324 13.1305
60956 20285 5 -0.35 22.2933 18.6207 12.0918
60957 20285 6 0.7 22.7152 19.5853 11.6049
60958 20285 5 -0.35 14.004 4.7312 11.118
60992 20297 5 -0.35 17.7283 3.45302 5.81677
60993 20297 6 0.7 17.7681 3.90955 4.75113
60994 20297 5 -0.35 17.8079 4.36607 3.68548
60995 20298 5 -0.35 20.272 12.113 4.17775
60996 20298 6 0.7 21.339 11.8524 3.80452
60997 20298 5 -0.35 22.4059 11.5918 3.43128
61004 20301 5 -0.35 18.9292 12.8771 11.5999
61005 20301 6 0.7 19.2046 13.4735 10.6438
61006 20301 5 -0.35 19.4801 14.0698 9.68772
61007 20302 5 -0.35 19.439 17.5856 9.80725
61008 20302 6 0.7 18.6032 16.9147 9.36338
61009 20302 5 -0.35 17.7674 16.2439 8.91952
61013 20304 5 -0.35 16.0683 15.2668 11.7392
61014 20304 6 0.7 15.5699 14.9654 10.736
61015 20304 5 -0.35 15.0715 14.6639 9.73288
61016 20305 5 -0.35 27.6741 15.6494 7.23764
61017 20305 6 0.7 27.2336 15.6783 6.16491
61018 20305 5 -0.35 26.7932 15.7073 5.09218
61028 20309 5 -0.35 16.6643 0.808008 0.470905
61029 20309 6 0.7 25.9683 5.38438 14.4733
61030 20309 5 -0.35 35.2723 20.5066 13.5616
61031 20310 5 -0.35 19.6001 8.82421 4.4058
61032 20310 6 0.7 18.7405 8.10241 4.6987
61033 20310 5 -0.35 17.881 7.38061 4.99161
61034 20311 5 -0.35 21.7079 7.0514 10.4256
61035 20311 6 0.7 21.8232 7.01834 9.27186
61036 20311 5 -0.35 21.9386 6.98529 8.11808
61037 20312 5 -0.35 24.8103 8.49182 12.6737
61038 20312 6 0.7 24.4218 9.10272 11.7674
61039 20312 5 -0.35 24.0332 9.71362 10.8611
61040 20313 5 -0.35 9.75866 7.62933 12.0152
61041 20313 6 0.7 9.98437 7.56268 10.8794
61042 20313 5 -0.35 10.2101 7.49603 9.7435
61043 20314 5 -0.35 20.9051 2.76398 4.21867
61044 20314 6 0.7 20.911 3.34284 3.21344
61045 20314 5 -0.35 20.9169 3.9217 2.20821
61046 20315 5 -0.35 32.6404 16.4573 14.8009
61047 20315 6 0.7 33.6242 17.057 14.666
61048 20315 5 -0.35 16.3419 17.6567 14.5311
61052 20317 5 -0.35 14.3888 8.22088 11.2819
61053 20317 6 0.7 14.8269 9.14913 10.7415
61054 20317 5 -0.35 15.265 10.0774 10.2012
61055 20318 5 -0.35 17.2511 12.9053 5.2297
61056 20318 6 0.7 17.5499 12.602 6.30874
61057 20318 5 -0.35 17.8486 12.2986 7.38778
61058 20319 5 -0.35 13.6731 7.4162 6.68006
61059 20319 6 0.7 13.4104 8.16607 5.83487
61060 20319 5 -0.35 13.1478 8.91593 4.98969
ITEM: TIMESTEP
84000
ITEM: NUMBER OF ATOMS
169
ITEM: BOX BOUNDS xy xz yz pp pp pp
0.0000000000000000e+00 3.6531964750000000e+01 9.1329911900000003e+00
0.0000000000000000e+00 2.1091739680000000e+01 9.1329911900000003e+00
0.0000000000000000e+00 1.4914112149999999e+01 5.2729349200000000e+00
ITEM: ATOMS id mol type q x y z
1 1 1 1.10383 27.399 17.6496 10.5383
2 1 1 1.10383 9.13299 3.44217 4.3758
3 1 1 1.10383 27.399 15.8188 13.1274
4 1 1 1.10383 9.13299 5.27293 1.78671
5 1 1 1.10383 25.8135 14.9034 10.5383
6 1 1 1.10383 10.7185 6.18832 4.3758
7 1 1 1.10383 28.9845 14.9034 10.5383
8 1 1 1.10383 7.5475 6.18832 4.3758
9 1 2 0.115889 18.266 5.48596 12.6084
10 1 2 0.115889 18.266 15.6058 2.30572
11 1 2 0.115888 18.266 13.716 0.969417
12 1 2 0.115888 18.266 7.37578 13.9447
13 1 2 0.11589 25.3934 11.4908 8.12521
14 1 2 0.11589 11.1386 9.60096 6.7889
15 1 2 0.115888 11.1386 11.4908 8.12521
16 1 2 0.115888 25.3934 9.60096 6.7889
17 1 2 0.115889 15.5206 8.96083 0.969417
18 1 2 0.115889 21.0114 12.1309 13.9447
19 1 2 0.115888 22.648 13.0758 12.6084
20 1 2 0.115888 13.884 8.01592 2.30572
21 1 2 0.115889 21.0114 3.90092 8.12521
22 1 2 0.115889 15.5206 17.1908 6.7889
23 1 2 0.115887 13.884 16.2459 8.12521
24 1 2 0.115887 22.648 4.84583 6.7889
25 1 2 0.115889 22.648 16.2459 8.12521
26 1 2 0.115889 13.884 4.84583 6.7889
27 1 2 0.115887 15.5206 3.90092 8.12521
28 1 2 0.115887 21.0114 17.1908 6.7889
29 1 2 0.115889 21.0114 8.96083 0.969417
30 1 2 0.115889 15.5206 12.1309 13.9447
31 1 2 0.115887 13.884 13.0758 12.6084
32 1 2 0.115887 22.648 8.01592 2.30572
33 1 3 0.671939 27.399 18.7442 13.2542
34 1 3 0.671939 9.13299 2.34751 1.65994
35 1 3 0.671939 27.399 12.8934 9.117
36 1 3 0.671939 9.13299 8.19836 5.79712
37 1 3 0.67194 24.8655 14.3561 13.2542
38 1 3 0.67194 11.6665 6.73565 1.65994
39 1 3 0.67194 29.9325 17.2815 9.117
40 1 3 0.67194 6.5995 3.81022 5.79712
41 1 3 0.67194 24.8655 17.2815 9.117
42 1 3 0.67194 11.6665 3.81022 5.79712
43 1 3 0.67194 29.9325 14.3561 13.2542
44 1 3 0.67194 6.5995 6.73565 1.65994
45 1 3 -0.11508 27.399 19.957 14.1117
46 1 3 -0.11508 9.13299 1.13474 0.802379
47 1 3 -0.11508 27.399 11.6806 8.25944
48 1 3 -0.11508 9.13299 9.41113 6.65468
49 1 3 -0.11508 23.8152 13.7497 14.1117
50 1 3 -0.11508 12.7168 7.34203 0.802379
51 1 3 -0.11508 30.9828 17.8879 8.25944
52 1 3 -0.11508 5.54921 3.20384 6.65468
53 1 3 -0.11508 23.8152 17.8879 8.25944
54 1 3 -0.11508 12.7168 3.20384 6.65468
55 1 3 -0.11508 30.9828 13.7497 14.1117
56 1 3 -0.11508 5.54921 7.34203 0.802379
57 1 3 -0.0559 18.266 5.39949 13.5316
58 1 3 -0.0559 18.266 15.6923 1.38254
59 1 3 -0.055903 18.266 14.5575 0.580159
60 1 3 -0.055903 18.266 6.53422 14.334
61 1 3 -0.0559 26.1971 11.1132 7.85825
62 1 3 -0.0559 10.3349 9.9785 7.05587
63 1 3 -0.055903 10.3349 11.1132 7.85825
64 1 3 -0.055903 26.1971 9.9785 7.05587
65 1 3 -0.0559 14.7918 8.54005 0.580159
66 1 3 -0.0559 21.7402 12.5517 14.334
67 1 3 -0.055903 22.7229 13.1191 13.5316
68 1 3 -0.055903 13.8091 7.97268 1.38254
69 1 3 -0.0559 21.7402 3.39366 7.85825
70 1 3 -0.0559 14.7918 17.6981 7.05587
71 1 3 -0.055903 13.8091 17.1307 7.85825
72 1 3 -0.055903 22.7229 3.96103 7.05587
73 1 3 -0.055901 22.7229 17.1307 7.85825
74 1 3 -0.055901 13.8091 3.96103 7.05587
75 1 3 -0.055903 14.7918 3.39366 7.85825
76 1 3 -0.055903 21.7402 17.6981 7.05587
77 1 3 -0.0559 21.7402 8.54005 0.580159
78 1 3 -0.0559 14.7918 12.5517 14.334
79 1 3 -0.055903 13.8091 13.1191 13.5316
80 1 3 -0.055903 22.7229 7.97268 1.38254
81 1 4 -1.26215 27.399 15.8188 11.1856
82 1 4 -1.26215 9.13299 5.27293 3.72853
83 1 4 -0.60118 27.399 18.9383 11.9641
84 1 4 -0.60118 9.13299 2.15347 2.95001
85 1 4 -0.601179 27.399 17.5926 13.8671
86 1 4 -0.601179 9.13299 3.49912 1.04697
87 1 4 -0.601179 26.2336 13.3722 9.45555
88 1 4 -0.601179 10.2984 7.71958 5.45857
89 1 4 -0.60118 28.5643 13.3722 9.45555
90 1 4 -0.60118 7.96762 7.71958 5.45857
91 1 4 -0.60118 25.8628 14.9319 13.8671
92 1 4 -0.60118 10.6692 6.15984 1.04697
93 1 4 -0.601179 24.6974 14.2591 11.9641
94 1 4 -0.601179 11.8345 6.83267 2.95001
95 1 4 -0.60118 28.9351 18.0514 9.45555
96 1 4 -0.60118 7.59682 3.04037 5.45857
97 1 4 -0.601179 30.1005 16.0329 9.45555
98 1 4 -0.601179 6.43145 5.05885 5.45857
99 1 4 -0.601179 24.6974 16.0329 9.45555
100 1 4 -0.601179 11.8345 5.05885 5.45857
101 1 4 -0.60118 25.8628 18.0514 9.45555
102 1 4 -0.60118 10.6692 3.04037 5.45857
103 1 4 -0.60118 28.9351 14.9319 13.8671
104 1 4 -0.60118 7.59682 6.15984 1.04697
105 1 4 -0.60118 30.1005 14.2591 11.9641
106 1 4 -0.60118 6.43145 6.83267 2.95001
61469 20456 5 -0.35 21.7534 13.5467 1.66631
61470 20456 6 0.7 21.8602 12.6076 0.993703
61471 20456 5 -0.35 21.967 11.6686 0.321096
61610 20503 5 -0.35 15.716 15.4611 12.4919
61611 20503 6 0.7 14.842 16.1798 12.2366
61612 20503 5 -0.35 32.2339 16.8985 11.9814
61628 20509 5 -0.35 10.1132 11.0746 3.76078
61629 20509 6 0.7 10.9968 10.9709 3.01636
61630 20509 5 -0.35 11.8804 10.8673 2.27195
61640 20513 5 -0.35 18.6304 14.0337 14.4825
61641 20513 6 0.7 9.1837 8.66517 0.681035
61642 20513 5 -0.35 8.87001 8.5696 1.79372
61679 20526 5 -0.35 15.5552 12.7999 1.07792
61680 20526 6 0.7 24.573 17.8804 14.8539
61681 20526 5 -0.35 24.4578 17.688 13.7158
61742 20547 5 -0.35 22.8123 9.88324 4.94239
61743 20547 6 0.7 23.1372 10.6354 4.12126
61744 20547 5 -0.35 23.4621 11.3876 3.30014
61775 20558 5 -0.35 26.913 15.373 7.19779
61776 20558 6 0.7 25.8773 15.198 6.70561
61777 20558 5 -0.35 24.8416 15.023 6.21343
61787 20562 5 -0.35 17.0333 15.0144 9.65344
61788 20562 6 0.7 17.2587 14.0304 10.2249
61789 20562 5 -0.35 17.4842 13.0465 10.7964
61790 20563 5 -0.35 15.6461 14.901 4.10182
61791 20563 6 0.7 15.865 14.0861 4.89783
61792 20563 5 -0.35 16.084 13.2712 5.69384
61814 20571 5 -0.35 21.7691 19.6607 13.461
61815 20571 6 0.7 22.208 19.6253 12.3878
61816 20571 5 -0.35 22.6468 19.5898 11.3146
61817 20572 5 -0.35 21.9956 15.9164 3.94273
61818 20572 6 0.7 22.8577 16.1648 3.20753
61819 20572 5 -0.35 23.7199 16.4133 2.47233
61823 20574 5 -0.35 14.4922 12.311 9.51342
61824 20574 6 0.7 14.7457 11.4207 10.2124
61825 20574 5 -0.35 14.9993 10.5304 10.9115
61832 20577 5 -0.35 6.25839 3.63097 1.06037
61833 20577 6 0.7 15.7621 9.06992 14.8879
61834 20577 5 -0.35 16.1327 9.23592 13.8013
61853 20584 5 -0.35 12.7332 9.43172 9.79247
61854 20584 6 0.7 12.3598 8.47099 10.3246
61855 20584 5 -0.35 11.9864 7.51027 10.8567
61856 20585 5 -0.35 13.1409 15.6378 2.79599
61857 20585 6 0.7 13.6822 15.8937 1.80245
61858 20585 5 -0.35 5.09046 0.330831 0.808917
61859 20586 5 -0.35 20.5746 16.6973 13.6955
61860 20586 6 0.7 20.7565 15.9065 12.8666
61861 20586 5 -0.35 20.9385 15.1158 12.0376
61865 20588 5 -0.35 10.6598 5.56334 8.48309
61866 20588 6 0.7 9.5268 5.33409 8.3864
61867 20588 5 -0.35 8.3938 5.10485 8.2897
61874 20591 5 -0.35 14.3086 10.1452 7.00353
61875 20591 6 0.7 14.2535 9.98878 5.85545
61876 20591 5 -0.35 14.1983 9.83238 4.70736
61877 20592 5 -0.35 7.84289 11.4952 0.151014
61878 20592 6 0.7 8.169 12.6011 0.278712
61879 20592 5 -0.35 8.4951 13.707 0.40641
61883 20594 5 -0.35 14.5196 6.22789 12.1272
61884 20594 6 0.7 14.5988 6.3307 10.9745
61885 20594 5 -0.35 14.6781 6.43351 9.8218
61886 20595 5 -0.35 16.594 5.66238 3.84996
61887 20595 6 0.7 16.4422 4.58112 3.45827
61888 20595 5 -0.35 16.2905 3.49985 3.06659
ITEM: TIMESTEP
85000
ITEM: NUMBER OF ATOMS
169
ITEM: BOX BOUNDS xy xz yz pp pp pp
0.0000000000000000e+00 3.6531964750000000e+01 9.1329911900000003e+00
0.0000000000000000e+00 2.1091739680000000e+01 9.1329911900000003e+00
0.0000000000000000e+00 1.4914112149999999e+01 5.2729349200000000e+00
ITEM: ATOMS id mol type q x y z
1 1 1 1.10383 27.399 17.6496 10.5383
2 1 1 1.10383 9.13299 3.44217 4.3758
3 1 1 1.10383 27.399 15.8188 13.1274
4 1 1 1.10383 9.13299 5.27293 1.78671
5 1 1 1.10383 25.8135 14.9034 10.5383
6 1 1 1.10383 10.7185 6.18832 4.3758
7 1 1 1.10383 28.9845 14.9034 10.5383
8 1 1 1.10383 7.5475 6.18832 4.3758
9 1 2 0.115889 18.266 5.48596 12.6084
10 1 2 0.115889 18.266 15.6058 2.30572
11 1 2 0.115888 18.266 13.716 0.969417
12 1 2 0.115888 18.266 7.37578 13.9447
13 1 2 0.11589 25.3934 11.4908 8.12521
14 1 2 0.11589 11.1386 9.60096 6.7889
15 1 2 0.115888 11.1386 11.4908 8.12521
16 1 2 0.115888 25.3934 9.60096 6.7889
17 1 2 0.115889 15.5206 8.96083 0.969417
18 1 2 0.115889 21.0114 12.1309 13.9447
19 1 2 0.115888 22.648 13.0758 12.6084
20 1 2 0.115888 13.884 8.01592 2.30572
21 1 2 0.115889 21.0114 3.90092 8.12521
22 1 2 0.115889 15.5206 17.1908 6.7889
23 1 2 0.115887 13.884 16.2459 8.12521
24 1 2 0.115887 22.648 4.84583 6.7889
25 1 2 0.115889 22.648 16.2459 8.12521
26 1 2 0.115889 13.884 4.84583 6.7889
27 1 2 0.115887 15.5206 3.90092 8.12521
28 1 2 0.115887 21.0114 17.1908 6.7889
29 1 2 0.115889 21.0114 8.96083 0.969417
30 1 2 0.115889 15.5206 12.1309 13.9447
31 1 2 0.115887 13.884 13.0758 12.6084
32 1 2 0.115887 22.648 8.01592 2.30572
33 1 3 0.671939 27.399 18.7442 13.2542
34 1 3 0.671939 9.13299 2.34751 1.65994
35 1 3 0.671939 27.399 12.8934 9.117
36 1 3 0.671939 9.13299 8.19836 5.79712
37 1 3 0.67194 24.8655 14.3561 13.2542
38 1 3 0.67194 11.6665 6.73565 1.65994
39 1 3 0.67194 29.9325 17.2815 9.117
40 1 3 0.67194 6.5995 3.81022 5.79712
41 1 3 0.67194 24.8655 17.2815 9.117
42 1 3 0.67194 11.6665 3.81022 5.79712
43 1 3 0.67194 29.9325 14.3561 13.2542
44 1 3 0.67194 6.5995 6.73565 1.65994
45 1 3 -0.11508 27.399 19.957 14.1117
46 1 3 -0.11508 9.13299 1.13474 0.802379
47 1 3 -0.11508 27.399 11.6806 8.25944
48 1 3 -0.11508 9.13299 9.41113 6.65468
49 1 3 -0.11508 23.8152 13.7497 14.1117
50 1 3 -0.11508 12.7168 7.34203 0.802379
51 1 3 -0.11508 30.9828 17.8879 8.25944
52 1 3 -0.11508 5.54921 3.20384 6.65468
53 1 3 -0.11508 23.8152 17.8879 8.25944
54 1 3 -0.11508 12.7168 3.20384 6.65468
55 1 3 -0.11508 30.9828 13.7497 14.1117
56 1 3 -0.11508 5.54921 7.34203 0.802379
57 1 3 -0.0559 18.266 5.39949 13.5316
58 1 3 -0.0559 18.266 15.6923 1.38254
59 1 3 -0.055903 18.266 14.5575 0.580159
60 1 3 -0.055903 18.266 6.53422 14.334
61 1 3 -0.0559 26.1971 11.1132 7.85825
62 1 3 -0.0559 10.3349 9.9785 7.05587
63 1 3 -0.055903 10.3349 11.1132 7.85825
64 1 3 -0.055903 26.1971 9.9785 7.05587
65 1 3 -0.0559 14.7918 8.54005 0.580159
66 1 3 -0.0559 21.7402 12.5517 14.334
67 1 3 -0.055903 22.7229 13.1191 13.5316
68 1 3 -0.055903 13.8091 7.97268 1.38254
69 1 3 -0.0559 21.7402 3.39366 7.85825
70 1 3 -0.0559 14.7918 17.6981 7.05587
71 1 3 -0.055903 13.8091 17.1307 7.85825
72 1 3 -0.055903 22.7229 3.96103 7.05587
73 1 3 -0.055901 22.7229 17.1307 7.85825
74 1 3 -0.055901 13.8091 3.96103 7.05587
75 1 3 -0.055903 14.7918 3.39366 7.85825
76 1 3 -0.055903 21.7402 17.6981 7.05587
77 1 3 -0.0559 21.7402 8.54005 0.580159
78 1 3 -0.0559 14.7918 12.5517 14.334
79 1 3 -0.055903 13.8091 13.1191 13.5316
80 1 3 -0.055903 22.7229 7.97268 1.38254
81 1 4 -1.26215 27.399 15.8188 11.1856
82 1 4 -1.26215 9.13299 5.27293 3.72853
83 1 4 -0.60118 27.399 18.9383 11.9641
84 1 4 -0.60118 9.13299 2.15347 2.95001
85 1 4 -0.601179 27.399 17.5926 13.8671
86 1 4 -0.601179 9.13299 3.49912 1.04697
87 1 4 -0.601179 26.2336 13.3722 9.45555
88 1 4 -0.601179 10.2984 7.71958 5.45857
89 1 4 -0.60118 28.5643 13.3722 9.45555
90 1 4 -0.60118 7.96762 7.71958 5.45857
91 1 4 -0.60118 25.8628 14.9319 13.8671
92 1 4 -0.60118 10.6692 6.15984 1.04697
93 1 4 -0.601179 24.6974 14.2591 11.9641
94 1 4 -0.601179 11.8345 6.83267 2.95001
95 1 4 -0.60118 28.9351 18.0514 9.45555
96 1 4 -0.60118 7.59682 3.04037 5.45857
97 1 4 -0.601179 30.1005 16.0329 9.45555
98 1 4 -0.601179 6.43145 5.05885 5.45857
99 1 4 -0.601179 24.6974 16.0329 9.45555
100 1 4 -0.601179 11.8345 5.05885 5.45857
101 1 4 -0.60118 25.8628 18.0514 9.45555
102 1 4 -0.60118 10.6692 3.04037 5.45857
103 1 4 -0.60118 28.9351 14.9319 13.8671
104 1 4 -0.60118 7.59682 6.15984 1.04697
105 1 4 -0.60118 30.1005 14.2591 11.9641
106 1 4 -0.60118 6.43145 6.83267 2.95001
61640 20513 5 -0.35 18.5006 12.9981 13.6102
61641 20513 6 0.7 18.4363 13.5919 14.6047
61642 20513 5 -0.35 9.23896 8.91271 0.684992
61991 20630 5 -0.35 5.91551 1.49313 3.18731
61992 20630 6 0.7 14.5836 16.3109 2.83039
61993 20630 5 -0.35 14.1187 15.3099 2.47347
61994 20631 5 -0.35 12.2358 3.76026 1.38462
61995 20631 6 0.7 12.8871 2.81315 1.2285
61996 20631 5 -0.35 13.5384 1.86604 1.07237
62027 20642 5 -0.35 18.2969 15.3322 5.60156
62028 20642 6 0.7 19.2383 15.6342 4.99484
62029 20642 5 -0.35 20.1798 15.9361 4.38812
62126 20675 5 -0.35 26.0758 17.3724 6.13635
62127 20675 6 0.7 16.7997 2.08624 5.11587
62128 20675 5 -0.35 16.6566 2.61893 4.09539
62129 20676 5 -0.35 9.30136 4.06451 7.78449
62130 20676 6 0.7 9.0885 3.28464 8.61642
62131 20676 5 -0.35 18.0086 18.3236 9.44834
62135 20678 5 -0.35 10.7669 13.5427 5.29468
62136 20678 6 0.7 10.0832 14.1127 4.55088
62137 20678 5 -0.35 27.6655 14.6828 3.80708
62411 20770 5 -0.35 25.4088 13.3726 5.48106
62412 20770 6 0.7 24.3699 12.8571 5.50367
62413 20770 5 -0.35 23.331 12.3415 5.52628
62489 20796 5 -0.35 12.0055 9.95294 3.99963
62490 20796 6 0.7 12.895 10.6752 3.81904
62491 20796 5 -0.35 13.7846 11.3974 3.63845
62492 20797 5 -0.35 24.2935 10.828 1.84836
62493 20797 6 0.7 24.3053 10.8901 0.690087
62494 20797 5 -0.35 33.4501 16.2252 14.4459
62495 20798 5 -0.35 3.66742 5.00646 1.78872
62496 20798 6 0.7 3.29802 4.82969 0.703409
62497 20798 5 -0.35 12.0616 9.92585 14.5322
62507 20802 5 -0.35 15.9948 13.0201 5.23677
62508 20802 6 0.7 16.4336 12.9522 4.1651
62509 20802 5 -0.35 16.8724 12.8843 3.09343
62519 20806 5 -0.35 24.5398 19.3955 14.3974
62520 20806 6 0.7 24.1275 18.4145 14.8591
62521 20806 5 -0.35 14.5822 12.1605 0.406739
62534 20811 5 -0.35 15.2653 6.26517 12.294
62535 20811 6 0.7 14.6822 5.38776 11.8085
62536 20811 5 -0.35 14.099 4.51035 11.323
62582 20827 5 -0.35 15.999 7.5616 6.98304
62583 20827 6 0.7 15.9302 7.90248 5.87639
62584 20827 5 -0.35 15.8614 8.24336 4.76975
62588 20829 5 -0.35 16.6168 15.1142 11.7679
62589 20829 6 0.7 17.0972 14.7346 10.7827
62590 20829 5 -0.35 17.5775 14.355 9.79739
62594 20831 5 -0.35 20.1241 12.2132 5.56307
62595 20831 6 0.7 20.2211 12.4579 4.43334
62596 20831 5 -0.35 20.3181 12.7027 3.30362
62597 20832 5 -0.35 2.59461 1.48405 2.3588
62598 20832 6 0.7 2.27324 1.52831 1.24508
62599 20832 5 -0.35 1.95186 1.57257 0.131366
62600 20833 5 -0.35 20.4452 7.80264 5.61121
62601 20833 6 0.7 20.6621 7.88464 6.7478
62602 20833 5 -0.35 20.8789 7.96665 7.8844
62603 20834 5 -0.35 21.9887 6.99216 11.9278
62604 20834 6 0.7 22.298 7.87193 11.238
62605 20834 5 -0.35 22.6074 8.7517 10.5481
62609 20836 5 -0.35 21.7259 17.4795 13.3736
62610 20836 6 0.7 21.784 17.5296 12.2161
62611 20836 5 -0.35 21.8421 17.5797 11.0587
ITEM: TIMESTEP
86000
ITEM: NUMBER OF ATOMS
184
ITEM: BOX BOUNDS xy xz yz pp pp pp
0.0000000000000000e+00 3.6531964750000000e+01 9.1329911900000003e+00
0.0000000000000000e+00 2.1091739680000000e+01 9.1329911900000003e+00
0.0000000000000000e+00 1.4914112149999999e+01 5.2729349200000000e+00
ITEM: ATOMS id mol type q x y z
1 1 1 1.10383 27.399 17.6496 10.5383
2 1 1 1.10383 9.13299 3.44217 4.3758
3 1 1 1.10383 27.399 15.8188 13.1274
4 1 1 1.10383 9.13299 5.27293 1.78671
5 1 1 1.10383 25.8135 14.9034 10.5383
6 1 1 1.10383 10.7185 6.18832 4.3758
7 1 1 1.10383 28.9845 14.9034 10.5383
8 1 1 1.10383 7.5475 6.18832 4.3758
9 1 2 0.115889 18.266 5.48596 12.6084
10 1 2 0.115889 18.266 15.6058 2.30572
11 1 2 0.115888 18.266 13.716 0.969417
12 1 2 0.115888 18.266 7.37578 13.9447
13 1 2 0.11589 25.3934 11.4908 8.12521
14 1 2 0.11589 11.1386 9.60096 6.7889
15 1 2 0.115888 11.1386 11.4908 8.12521
16 1 2 0.115888 25.3934 9.60096 6.7889
17 1 2 0.115889 15.5206 8.96083 0.969417
18 1 2 0.115889 21.0114 12.1309 13.9447
19 1 2 0.115888 22.648 13.0758 12.6084
20 1 2 0.115888 13.884 8.01592 2.30572
21 1 2 0.115889 21.0114 3.90092 8.12521
22 1 2 0.115889 15.5206 17.1908 6.7889
23 1 2 0.115887 13.884 16.2459 8.12521
24 1 2 0.115887 22.648 4.84583 6.7889
25 1 2 0.115889 22.648 16.2459 8.12521
26 1 2 0.115889 13.884 4.84583 6.7889
27 1 2 0.115887 15.5206 3.90092 8.12521
28 1 2 0.115887 21.0114 17.1908 6.7889
29 1 2 0.115889 21.0114 8.96083 0.969417
30 1 2 0.115889 15.5206 12.1309 13.9447
31 1 2 0.115887 13.884 13.0758 12.6084
32 1 2 0.115887 22.648 8.01592 2.30572
33 1 3 0.671939 27.399 18.7442 13.2542
34 1 3 0.671939 9.13299 2.34751 1.65994
35 1 3 0.671939 27.399 12.8934 9.117
36 1 3 0.671939 9.13299 8.19836 5.79712
37 1 3 0.67194 24.8655 14.3561 13.2542
38 1 3 0.67194 11.6665 6.73565 1.65994
39 1 3 0.67194 29.9325 17.2815 9.117
40 1 3 0.67194 6.5995 3.81022 5.79712
41 1 3 0.67194 24.8655 17.2815 9.117
42 1 3 0.67194 11.6665 3.81022 5.79712
43 1 3 0.67194 29.9325 14.3561 13.2542
44 1 3 0.67194 6.5995 6.73565 1.65994
45 1 3 -0.11508 27.399 19.957 14.1117
46 1 3 -0.11508 9.13299 1.13474 0.802379
47 1 3 -0.11508 27.399 11.6806 8.25944
48 1 3 -0.11508 9.13299 9.41113 6.65468
49 1 3 -0.11508 23.8152 13.7497 14.1117
50 1 3 -0.11508 12.7168 7.34203 0.802379
51 1 3 -0.11508 30.9828 17.8879 8.25944
52 1 3 -0.11508 5.54921 3.20384 6.65468
53 1 3 -0.11508 23.8152 17.8879 8.25944
54 1 3 -0.11508 12.7168 3.20384 6.65468
55 1 3 -0.11508 30.9828 13.7497 14.1117
56 1 3 -0.11508 5.54921 7.34203 0.802379
57 1 3 -0.0559 18.266 5.39949 13.5316
58 1 3 -0.0559 18.266 15.6923 1.38254
59 1 3 -0.055903 18.266 14.5575 0.580159
60 1 3 -0.055903 18.266 6.53422 14.334
61 1 3 -0.0559 26.1971 11.1132 7.85825
62 1 3 -0.0559 10.3349 9.9785 7.05587
63 1 3 -0.055903 10.3349 11.1132 7.85825
64 1 3 -0.055903 26.1971 9.9785 7.05587
65 1 3 -0.0559 14.7918 8.54005 0.580159
66 1 3 -0.0559 21.7402 12.5517 14.334
67 1 3 -0.055903 22.7229 13.1191 13.5316
68 1 3 -0.055903 13.8091 7.97268 1.38254
69 1 3 -0.0559 21.7402 3.39366 7.85825
70 1 3 -0.0559 14.7918 17.6981 7.05587
71 1 3 -0.055903 13.8091 17.1307 7.85825
72 1 3 -0.055903 22.7229 3.96103 7.05587
73 1 3 -0.055901 22.7229 17.1307 7.85825
74 1 3 -0.055901 13.8091 3.96103 7.05587
75 1 3 -0.055903 14.7918 3.39366 7.85825
76 1 3 -0.055903 21.7402 17.6981 7.05587
77 1 3 -0.0559 21.7402 8.54005 0.580159
78 1 3 -0.0559 14.7918 12.5517 14.334
79 1 3 -0.055903 13.8091 13.1191 13.5316
80 1 3 -0.055903 22.7229 7.97268 1.38254
81 1 4 -1.26215 27.399 15.8188 11.1856
82 1 4 -1.26215 9.13299 5.27293 3.72853
83 1 4 -0.60118 27.399 18.9383 11.9641
84 1 4 -0.60118 9.13299 2.15347 2.95001
85 1 4 -0.601179 27.399 17.5926 13.8671
86 1 4 -0.601179 9.13299 3.49912 1.04697
87 1 4 -0.601179 26.2336 13.3722 9.45555
88 1 4 -0.601179 10.2984 7.71958 5.45857
89 1 4 -0.60118 28.5643 13.3722 9.45555
90 1 4 -0.60118 7.96762 7.71958 5.45857
91 1 4 -0.60118 25.8628 14.9319 13.8671
92 1 4 -0.60118 10.6692 6.15984 1.04697
93 1 4 -0.601179 24.6974 14.2591 11.9641
94 1 4 -0.601179 11.8345 6.83267 2.95001
95 1 4 -0.60118 28.9351 18.0514 9.45555
96 1 4 -0.60118 7.59682 3.04037 5.45857
97 1 4 -0.601179 30.1005 16.0329 9.45555
98 1 4 -0.601179 6.43145 5.05885 5.45857
99 1 4 -0.601179 24.6974 16.0329 9.45555
100 1 4 -0.601179 11.8345 5.05885 5.45857
101 1 4 -0.60118 25.8628 18.0514 9.45555
102 1 4 -0.60118 10.6692 3.04037 5.45857
103 1 4 -0.60118 28.9351 14.9319 13.8671
104 1 4 -0.60118 7.59682 6.15984 1.04697
105 1 4 -0.60118 30.1005 14.2591 11.9641
106 1 4 -0.60118 6.43145 6.83267 2.95001
61640 20513 5 -0.35 17.261 15.3911 14.0263
61641 20513 6 0.7 8.56237 9.90665 0.166844
61642 20513 5 -0.35 8.9967 9.69514 1.22146
62027 20642 5 -0.35 20.4544 15.7063 4.6397
62028 20642 6 0.7 20.9913 16.2078 3.74202
62029 20642 5 -0.35 21.5283 16.7093 2.84433
62723 20874 5 -0.35 25.9978 14.6633 6.73466
62724 20874 6 0.7 24.9235 14.6734 6.29716
62725 20874 5 -0.35 23.8492 14.6835 5.85967
62933 20944 5 -0.35 16.1056 4.78422 10.4737
62934 20944 6 0.7 15.6964 4.04554 11.269
62935 20944 5 -0.35 24.4202 19.1257 12.0643
62963 20954 5 -0.35 25.9101 11.2928 14.1524
62964 20954 6 0.7 26.4333 11.0597 13.1436
62965 20954 5 -0.35 26.9566 10.8266 12.1349
63029 20976 5 -0.35 15.6862 6.19949 4.39382
63030 20976 6 0.7 16.2193 5.7995 3.44442
63031 20976 5 -0.35 16.7525 5.3995 2.49502
63065 20988 5 -0.35 27.533 17.3698 6.65253
63066 20988 6 0.7 17.7227 2.16789 5.94095
63067 20988 5 -0.35 17.0454 2.78475 5.22937
63068 20989 5 -0.35 23.1731 10.3308 11.2216
63069 20989 6 0.7 22.332 9.71272 11.7278
63070 20989 5 -0.35 21.4909 9.09462 12.2339
63083 20994 5 -0.35 23.7133 15.5648 0.720395
63084 20994 6 0.7 14.5867 0.804906 0.246761
63085 20994 5 -0.35 23.726 7.13672 14.6872
63089 20996 5 -0.35 16.9974 15.1592 8.51753
63090 20996 6 0.7 17.6893 16.0903 8.51241
63091 20996 5 -0.35 18.3812 17.0213 8.5073
63095 20998 5 -0.35 12.7236 7.32522 7.88244
63096 20998 6 0.7 11.6304 7.20444 8.25107
63097 20998 5 -0.35 10.5372 7.08366 8.6197
63101 21000 5 -0.35 25.84 13.2309 3.12258
63102 21000 6 0.7 8.67078 12.91 2.9231
63103 21000 5 -0.35 9.7675 12.589 2.72361
63125 21008 5 -0.35 11.4626 9.21821 10.7868
63126 21008 6 0.7 11.8526 9.90765 11.6343
63127 21008 5 -0.35 12.2425 10.5971 12.4818
63143 21014 5 -0.35 22.0354 4.60272 11.8531
63144 21014 6 0.7 22.1346 5.46389 11.0823
63145 21014 5 -0.35 22.2338 6.32506 10.3115
63146 21015 5 -0.35 9.41946 4.2279 10.9394
63147 21015 6 0.7 10.1973 3.9619 10.1209
63148 21015 5 -0.35 10.9751 3.6959 9.30246
63149 21016 5 -0.35 5.13536 4.13628 2.52828
63150 21016 6 0.7 4.58127 3.24159 3.01626
63151 21016 5 -0.35 4.02718 2.3469 3.50423
63152 21017 5 -0.35 30.8097 17.3433 12.0848
63153 21017 6 0.7 31.6745 16.7964 12.6314
63154 21017 5 -0.35 32.5392 16.2496 13.178
63158 21019 5 -0.35 18.0232 12.601 11.9052
63159 21019 6 0.7 19.0693 12.23 11.5681
63160 21019 5 -0.35 20.1154 11.8589 11.231
63161 21020 5 -0.35 17.7738 17.9942 12.7351
63162 21020 6 0.7 17.058 17.4568 11.9972
63163 21020 5 -0.35 16.3421 16.9194 11.2594
63167 21022 5 -0.35 19.1965 12.4005 8.44299
63168 21022 6 0.7 19.0451 11.7135 7.5207
63169 21022 5 -0.35 18.8938 11.0264 6.59842
63170 21023 5 -0.35 22.4173 11.8142 4.98619
63171 21023 6 0.7 22.1468 12.2079 6.04329
63172 21023 5 -0.35 21.8764 12.6016 7.10039
63173 21024 5 -0.35 20.3012 15.2445 12.233
63174 21024 6 0.7 21.1847 15.9853 12.3604
63175 21024 5 -0.35 22.0682 16.7262 12.4878
63176 21025 5 -0.35 21.724 13.866 2.55197
63177 21025 6 0.7 22.3293 13.1013 1.92396
63178 21025 5 -0.35 22.9347 12.3366 1.29594
63179 21026 5 -0.35 17.6746 8.50767 9.61148
63180 21026 6 0.7 18.4087 7.78713 9.07518
63181 21026 5 -0.35 19.1427 7.0666 8.53888
63185 21028 5 -0.35 28.6162 7.63882 14.7244
63186 21028 6 0.7 1.74501 1.83382 0.69571
63187 21028 5 -0.35 2.27279 1.30176 1.58112
63188 21029 5 -0.35 14.9303 7.06733 13.8785
63189 21029 6 0.7 15.5727 7.06875 12.9126
63190 21029 5 -0.35 16.215 7.07017 11.9466
ITEM: TIMESTEP
87000
ITEM: NUMBER OF ATOMS
187
ITEM: BOX BOUNDS xy xz yz pp pp pp
0.0000000000000000e+00 3.6531964750000000e+01 9.1329911900000003e+00
0.0000000000000000e+00 2.1091739680000000e+01 9.1329911900000003e+00
0.0000000000000000e+00 1.4914112149999999e+01 5.2729349200000000e+00
ITEM: ATOMS id mol type q x y z
1 1 1 1.10383 27.399 17.6496 10.5383
2 1 1 1.10383 9.13299 3.44217 4.3758
3 1 1 1.10383 27.399 15.8188 13.1274
4 1 1 1.10383 9.13299 5.27293 1.78671
5 1 1 1.10383 25.8135 14.9034 10.5383
6 1 1 1.10383 10.7185 6.18832 4.3758
7 1 1 1.10383 28.9845 14.9034 10.5383
8 1 1 1.10383 7.5475 6.18832 4.3758
9 1 2 0.115889 18.266 5.48596 12.6084
10 1 2 0.115889 18.266 15.6058 2.30572
11 1 2 0.115888 18.266 13.716 0.969417
12 1 2 0.115888 18.266 7.37578 13.9447
13 1 2 0.11589 25.3934 11.4908 8.12521
14 1 2 0.11589 11.1386 9.60096 6.7889
15 1 2 0.115888 11.1386 11.4908 8.12521
16 1 2 0.115888 25.3934 9.60096 6.7889
17 1 2 0.115889 15.5206 8.96083 0.969417
18 1 2 0.115889 21.0114 12.1309 13.9447
19 1 2 0.115888 22.648 13.0758 12.6084
20 1 2 0.115888 13.884 8.01592 2.30572
21 1 2 0.115889 21.0114 3.90092 8.12521
22 1 2 0.115889 15.5206 17.1908 6.7889
23 1 2 0.115887 13.884 16.2459 8.12521
24 1 2 0.115887 22.648 4.84583 6.7889
25 1 2 0.115889 22.648 16.2459 8.12521
26 1 2 0.115889 13.884 4.84583 6.7889
27 1 2 0.115887 15.5206 3.90092 8.12521
28 1 2 0.115887 21.0114 17.1908 6.7889
29 1 2 0.115889 21.0114 8.96083 0.969417
30 1 2 0.115889 15.5206 12.1309 13.9447
31 1 2 0.115887 13.884 13.0758 12.6084
32 1 2 0.115887 22.648 8.01592 2.30572
33 1 3 0.671939 27.399 18.7442 13.2542
34 1 3 0.671939 9.13299 2.34751 1.65994
35 1 3 0.671939 27.399 12.8934 9.117
36 1 3 0.671939 9.13299 8.19836 5.79712
37 1 3 0.67194 24.8655 14.3561 13.2542
38 1 3 0.67194 11.6665 6.73565 1.65994
39 1 3 0.67194 29.9325 17.2815 9.117
40 1 3 0.67194 6.5995 3.81022 5.79712
41 1 3 0.67194 24.8655 17.2815 9.117
42 1 3 0.67194 11.6665 3.81022 5.79712
43 1 3 0.67194 29.9325 14.3561 13.2542
44 1 3 0.67194 6.5995 6.73565 1.65994
45 1 3 -0.11508 27.399 19.957 14.1117
46 1 3 -0.11508 9.13299 1.13474 0.802379
47 1 3 -0.11508 27.399 11.6806 8.25944
48 1 3 -0.11508 9.13299 9.41113 6.65468
49 1 3 -0.11508 23.8152 13.7497 14.1117
50 1 3 -0.11508 12.7168 7.34203 0.802379
51 1 3 -0.11508 30.9828 17.8879 8.25944
52 1 3 -0.11508 5.54921 3.20384 6.65468
53 1 3 -0.11508 23.8152 17.8879 8.25944
54 1 3 -0.11508 12.7168 3.20384 6.65468
55 1 3 -0.11508 30.9828 13.7497 14.1117
56 1 3 -0.11508 5.54921 7.34203 0.802379
57 1 3 -0.0559 18.266 5.39949 13.5316
58 1 3 -0.0559 18.266 15.6923 1.38254
59 1 3 -0.055903 18.266 14.5575 0.580159
60 1 3 -0.055903 18.266 6.53422 14.334
61 1 3 -0.0559 26.1971 11.1132 7.85825
62 1 3 -0.0559 10.3349 9.9785 7.05587
63 1 3 -0.055903 10.3349 11.1132 7.85825
64 1 3 -0.055903 26.1971 9.9785 7.05587
65 1 3 -0.0559 14.7918 8.54005 0.580159
66 1 3 -0.0559 21.7402 12.5517 14.334
67 1 3 -0.055903 22.7229 13.1191 13.5316
68 1 3 -0.055903 13.8091 7.97268 1.38254
69 1 3 -0.0559 21.7402 3.39366 7.85825
70 1 3 -0.0559 14.7918 17.6981 7.05587
71 1 3 -0.055903 13.8091 17.1307 7.85825
72 1 3 -0.055903 22.7229 3.96103 7.05587
73 1 3 -0.055901 22.7229 17.1307 7.85825
74 1 3 -0.055901 13.8091 3.96103 7.05587
75 1 3 -0.055903 14.7918 3.39366 7.85825
76 1 3 -0.055903 21.7402 17.6981 7.05587
77 1 3 -0.0559 21.7402 8.54005 0.580159
78 1 3 -0.0559 14.7918 12.5517 14.334
79 1 3 -0.055903 13.8091 13.1191 13.5316
80 1 3 -0.055903 22.7229 7.97268 1.38254
81 1 4 -1.26215 27.399 15.8188 11.1856
82 1 4 -1.26215 9.13299 5.27293 3.72853
83 1 4 -0.60118 27.399 18.9383 11.9641
84 1 4 -0.60118 9.13299 2.15347 2.95001
85 1 4 -0.601179 27.399 17.5926 13.8671
86 1 4 -0.601179 9.13299 3.49912 1.04697
87 1 4 -0.601179 26.2336 13.3722 9.45555
88 1 4 -0.601179 10.2984 7.71958 5.45857
89 1 4 -0.60118 28.5643 13.3722 9.45555
90 1 4 -0.60118 7.96762 7.71958 5.45857
91 1 4 -0.60118 25.8628 14.9319 13.8671
92 1 4 -0.60118 10.6692 6.15984 1.04697
93 1 4 -0.601179 24.6974 14.2591 11.9641
94 1 4 -0.601179 11.8345 6.83267 2.95001
95 1 4 -0.60118 28.9351 18.0514 9.45555
96 1 4 -0.60118 7.59682 3.04037 5.45857
97 1 4 -0.601179 30.1005 16.0329 9.45555
98 1 4 -0.601179 6.43145 5.05885 5.45857
99 1 4 -0.601179 24.6974 16.0329 9.45555
100 1 4 -0.601179 11.8345 5.05885 5.45857
101 1 4 -0.60118 25.8628 18.0514 9.45555
102 1 4 -0.60118 10.6692 3.04037 5.45857
103 1 4 -0.60118 28.9351 14.9319 13.8671
104 1 4 -0.60118 7.59682 6.15984 1.04697
105 1 4 -0.60118 30.1005 14.2591 11.9641
106 1 4 -0.60118 6.43145 6.83267 2.95001
63176 21025 5 -0.35 21.3175 11.7208 1.29426
63177 21025 6 0.7 21.3255 11.8791 0.14514
63178 21025 5 -0.35 30.4665 17.3103 13.9101
63194 21031 5 -0.35 5.72145 3.07736 0.395669
63195 21031 6 0.7 15.4729 8.74896 14.413
63196 21031 5 -0.35 16.0914 9.14763 13.5163
63725 21208 5 -0.35 16.9567 13.562 12.0204
63726 21208 6 0.7 17.8957 12.887 12.111
63727 21208 5 -0.35 18.8347 12.2119 12.2015
63749 21216 5 -0.35 17.0062 15.0204 4.47188
63750 21216 6 0.7 16.0917 14.9507 3.76163
63751 21216 5 -0.35 15.1772 14.881 3.05138
63758 21219 5 -0.35 11.9457 11.2418 1.83066
63759 21219 6 0.7 11.7778 10.9744 2.94687
63760 21219 5 -0.35 11.6099 10.7071 4.06309
63764 21221 5 -0.35 24.9373 5.97436 9.53592
63765 21221 6 0.7 7.41822 5.39798 8.86105
63766 21221 5 -0.35 8.16516 4.8216 8.18617
63797 21232 5 -0.35 15.1823 16.804 11.0006
63798 21232 6 0.7 15.9135 17.4199 10.3437
63799 21232 5 -0.35 16.6447 18.0359 9.68682
63824 21241 5 -0.35 31.8351 19.4068 11.6488
63825 21241 6 0.7 21.866 4.38638 11.5532
63826 21241 5 -0.35 21.0299 5.18474 11.4575
63830 21243 5 -0.35 23.9604 10.3101 3.96344
63831 21243 6 0.7 24.7828 9.97329 3.21795
63832 21243 5 -0.35 7.33931 9.6365 2.47246
63851 21250 5 -0.35 20.0519 11.6713 5.55603
63852 21250 6 0.7 19.9592 12.2833 4.575
63853 21250 5 -0.35 19.8665 12.8953 3.59396
63893 21264 5 -0.35 16.0131 12.2364 1.20132
63894 21264 6 0.7 17.021 11.6686 1.28697
63895 21264 5 -0.35 18.0289 11.1008 1.37263
63899 21266 5 -0.35 13.9011 8.77638 6.59792
63900 21266 6 0.7 13.9283 9.85332 6.16774
63901 21266 5 -0.35 13.9554 10.9303 5.73755
63905 21268 5 -0.35 21.4598 4.60362 3.49853
63906 21268 6 0.7 21.3573 3.54378 3.95878
63907 21268 5 -0.35 21.2548 2.48394 4.41902
63908 21269 5 -0.35 22.1179 10.8214 9.78773
63909 21269 6 0.7 22.0876 10.8582 8.62871
63910 21269 5 -0.35 22.0574 10.8951 7.46969
63911 21270 5 -0.35 18.5248 4.42474 0.698416
63912 21270 6 0.7 27.9644 10.3977 14.7398
63913 21270 5 -0.35 28.271 11.0977 13.8672
63914 21271 5 -0.35 19.476 8.10769 3.66184
63915 21271 6 0.7 18.8892 7.7702 2.71983
63916 21271 5 -0.35 18.3024 7.43271 1.77782
63935 21278 5 -0.35 16.3825 5.30569 3.16875
63936 21278 6 0.7 16.0085 5.368 2.07246
63937 21278 5 -0.35 15.6345 5.43031 0.976173
63938 21279 5 -0.35 16.8537 10.04 9.00614
63939 21279 6 0.7 17.7408 9.426 9.43247
63940 21279 5 -0.35 18.6278 8.812 9.8588
63941 21280 5 -0.35 18.8046 6.59893 6.241
63942 21280 6 0.7 19.7726 6.92364 6.79148
63943 21280 5 -0.35 20.7407 7.24835 7.34197
63947 21282 5 -0.35 23.4512 15.5705 2.67043
63948 21282 6 0.7 22.5362 15.3391 1.99602
63949 21282 5 -0.35 21.6212 15.1077 1.32161
63950 21283 5 -0.35 22.3036 7.89937 10.4152
63951 21283 6 0.7 21.8558 8.14622 11.4564
63952 21283 5 -0.35 21.408 8.39308 12.4976
63953 21284 5 -0.35 28.5659 14.5509 6.39456
63954 21284 6 0.7 11.3678 14.1309 6.22514
63955 21284 5 -0.35 12.4358 13.7109 6.05571
63956 21285 5 -0.35 18.7207 14.8133 14.8636
63957 21285 6 0.7 18.5264 15.7619 14.2248
63958 21285 5 -0.35 18.332 16.7104 13.586
63962 21287 5 -0.35 17.1726 2.48344 5.8649
63963 21287 6 0.7 17.6796 2.63797 4.83304
63964 21287 5 -0.35 18.1865 2.7925 3.80118
63971 21290 5 -0.35 15.7299 7.30106 9.97802
63972 21290 6 0.7 15.7856 6.22047 10.3961
63973 21290 5 -0.35 15.8412 5.13988 10.8143
63974 21291 5 -0.35 10.6248 14.9824 2.21202
63975 21291 6 0.7 11.5669 15.5516 1.84587
63976 21291 5 -0.35 12.5091 16.1208 1.47972
63977 21292 5 -0.35 11.7742 9.84643 10.523
63978 21292 6 0.7 12.4728 9.6831 11.4344
63979 21292 5 -0.35 13.1715 9.51977 12.3459
ITEM: TIMESTEP
88000
ITEM: NUMBER OF ATOMS
166
ITEM: BOX BOUNDS xy xz yz pp pp pp
0.0000000000000000e+00 3.6531964750000000e+01 9.1329911900000003e+00
0.0000000000000000e+00 2.1091739680000000e+01 9.1329911900000003e+00
0.0000000000000000e+00 1.4914112149999999e+01 5.2729349200000000e+00
ITEM: ATOMS id mol type q x y z
1 1 1 1.10383 27.399 17.6496 10.5383
2 1 1 1.10383 9.13299 3.44217 4.3758
3 1 1 1.10383 27.399 15.8188 13.1274
4 1 1 1.10383 9.13299 5.27293 1.78671
5 1 1 1.10383 25.8135 14.9034 10.5383
6 1 1 1.10383 10.7185 6.18832 4.3758
7 1 1 1.10383 28.9845 14.9034 10.5383
8 1 1 1.10383 7.5475 6.18832 4.3758
9 1 2 0.115889 18.266 5.48596 12.6084
10 1 2 0.115889 18.266 15.6058 2.30572
11 1 2 0.115888 18.266 13.716 0.969417
12 1 2 0.115888 18.266 7.37578 13.9447
13 1 2 0.11589 25.3934 11.4908 8.12521
14 1 2 0.11589 11.1386 9.60096 6.7889
15 1 2 0.115888 11.1386 11.4908 8.12521
16 1 2 0.115888 25.3934 9.60096 6.7889
17 1 2 0.115889 15.5206 8.96083 0.969417
18 1 2 0.115889 21.0114 12.1309 13.9447
19 1 2 0.115888 22.648 13.0758 12.6084
20 1 2 0.115888 13.884 8.01592 2.30572
21 1 2 0.115889 21.0114 3.90092 8.12521
22 1 2 0.115889 15.5206 17.1908 6.7889
23 1 2 0.115887 13.884 16.2459 8.12521
24 1 2 0.115887 22.648 4.84583 6.7889
25 1 2 0.115889 22.648 16.2459 8.12521
26 1 2 0.115889 13.884 4.84583 6.7889
27 1 2 0.115887 15.5206 3.90092 8.12521
28 1 2 0.115887 21.0114 17.1908 6.7889
29 1 2 0.115889 21.0114 8.96083 0.969417
30 1 2 0.115889 15.5206 12.1309 13.9447
31 1 2 0.115887 13.884 13.0758 12.6084
32 1 2 0.115887 22.648 8.01592 2.30572
33 1 3 0.671939 27.399 18.7442 13.2542
34 1 3 0.671939 9.13299 2.34751 1.65994
35 1 3 0.671939 27.399 12.8934 9.117
36 1 3 0.671939 9.13299 8.19836 5.79712
37 1 3 0.67194 24.8655 14.3561 13.2542
38 1 3 0.67194 11.6665 6.73565 1.65994
39 1 3 0.67194 29.9325 17.2815 9.117
40 1 3 0.67194 6.5995 3.81022 5.79712
41 1 3 0.67194 24.8655 17.2815 9.117
42 1 3 0.67194 11.6665 3.81022 5.79712
43 1 3 0.67194 29.9325 14.3561 13.2542
44 1 3 0.67194 6.5995 6.73565 1.65994
45 1 3 -0.11508 27.399 19.957 14.1117
46 1 3 -0.11508 9.13299 1.13474 0.802379
47 1 3 -0.11508 27.399 11.6806 8.25944
48 1 3 -0.11508 9.13299 9.41113 6.65468
49 1 3 -0.11508 23.8152 13.7497 14.1117
50 1 3 -0.11508 12.7168 7.34203 0.802379
51 1 3 -0.11508 30.9828 17.8879 8.25944
52 1 3 -0.11508 5.54921 3.20384 6.65468
53 1 3 -0.11508 23.8152 17.8879 8.25944
54 1 3 -0.11508 12.7168 3.20384 6.65468
55 1 3 -0.11508 30.9828 13.7497 14.1117
56 1 3 -0.11508 5.54921 7.34203 0.802379
57 1 3 -0.0559 18.266 5.39949 13.5316
58 1 3 -0.0559 18.266 15.6923 1.38254
59 1 3 -0.055903 18.266 14.5575 0.580159
60 1 3 -0.055903 18.266 6.53422 14.334
61 1 3 -0.0559 26.1971 11.1132 7.85825
62 1 3 -0.0559 10.3349 9.9785 7.05587
63 1 3 -0.055903 10.3349 11.1132 7.85825
64 1 3 -0.055903 26.1971 9.9785 7.05587
65 1 3 -0.0559 14.7918 8.54005 0.580159
66 1 3 -0.0559 21.7402 12.5517 14.334
67 1 3 -0.055903 22.7229 13.1191 13.5316
68 1 3 -0.055903 13.8091 7.97268 1.38254
69 1 3 -0.0559 21.7402 3.39366 7.85825
70 1 3 -0.0559 14.7918 17.6981 7.05587
71 1 3 -0.055903 13.8091 17.1307 7.85825
72 1 3 -0.055903 22.7229 3.96103 7.05587
73 1 3 -0.055901 22.7229 17.1307 7.85825
74 1 3 -0.055901 13.8091 3.96103 7.05587
75 1 3 -0.055903 14.7918 3.39366 7.85825
76 1 3 -0.055903 21.7402 17.6981 7.05587
77 1 3 -0.0559 21.7402 8.54005 0.580159
78 1 3 -0.0559 14.7918 12.5517 14.334
79 1 3 -0.055903 13.8091 13.1191 13.5316
80 1 3 -0.055903 22.7229 7.97268 1.38254
81 1 4 -1.26215 27.399 15.8188 11.1856
82 1 4 -1.26215 9.13299 5.27293 3.72853
83 1 4 -0.60118 27.399 18.9383 11.9641
84 1 4 -0.60118 9.13299 2.15347 2.95001
85 1 4 -0.601179 27.399 17.5926 13.8671
86 1 4 -0.601179 9.13299 3.49912 1.04697
87 1 4 -0.601179 26.2336 13.3722 9.45555
88 1 4 -0.601179 10.2984 7.71958 5.45857
89 1 4 -0.60118 28.5643 13.3722 9.45555
90 1 4 -0.60118 7.96762 7.71958 5.45857
91 1 4 -0.60118 25.8628 14.9319 13.8671
92 1 4 -0.60118 10.6692 6.15984 1.04697
93 1 4 -0.601179 24.6974 14.2591 11.9641
94 1 4 -0.601179 11.8345 6.83267 2.95001
95 1 4 -0.60118 28.9351 18.0514 9.45555
96 1 4 -0.60118 7.59682 3.04037 5.45857
97 1 4 -0.601179 30.1005 16.0329 9.45555
98 1 4 -0.601179 6.43145 5.05885 5.45857
99 1 4 -0.601179 24.6974 16.0329 9.45555
100 1 4 -0.601179 11.8345 5.05885 5.45857
101 1 4 -0.60118 25.8628 18.0514 9.45555
102 1 4 -0.60118 10.6692 3.04037 5.45857
103 1 4 -0.60118 28.9351 14.9319 13.8671
104 1 4 -0.60118 7.59682 6.15984 1.04697
105 1 4 -0.60118 30.1005 14.2591 11.9641
106 1 4 -0.60118 6.43145 6.83267 2.95001
64475 21458 5 -0.35 14.6488 4.46144 2.43918
64476 21458 6 0.7 15.4831 5.25547 2.30097
64477 21458 5 -0.35 16.3174 6.0495 2.16277
64559 21486 5 -0.35 27.2832 9.04083 10.4143
64560 21486 6 0.7 27.5248 10.0715 10.8885
64561 21486 5 -0.35 27.7665 11.1021 11.3628
64580 21493 5 -0.35 21.4561 15.779 2.49802
64581 21493 6 0.7 21.743 15.7112 1.37612
64582 21493 5 -0.35 22.0299 15.6434 0.254211
64583 21494 5 -0.35 24.5241 9.24955 14.6003
64584 21494 6 0.7 24.8689 9.77546 13.6255
64585 21494 5 -0.35 25.2137 10.3014 12.6508
64628 21509 5 -0.35 11.7476 2.83657 0.306848
64629 21509 6 0.7 20.759 8.6944 14.2266
64630 21509 5 -0.35 20.6373 9.27929 13.2323
64649 21516 5 -0.35 8.56427 9.55458 0.705815
64650 21516 6 0.7 8.83242 8.95328 1.66087
64651 21516 5 -0.35 9.10057 8.35197 2.61593
64766 21555 5 -0.35 19.4861 18.7423 9.38592
64767 21555 6 0.7 10.5819 3.76627 10.1494
64768 21555 5 -0.35 10.8107 4.60907 10.9129
64799 21566 5 -0.35 18.898 15.0933 12.1625
64800 21566 6 0.7 18.2085 14.1934 12.4081
64801 21566 5 -0.35 17.5189 13.2934 12.6536
64802 21567 5 -0.35 27.246 14.7155 4.98552
64803 21567 6 0.7 27.9442 13.9653 4.44202
64804 21567 5 -0.35 10.3764 13.2152 3.89852
64805 21568 5 -0.35 23.8147 10.8846 1.77169
64806 21568 6 0.7 24.3519 11.204 2.74891
64807 21568 5 -0.35 24.8892 11.5235 3.72612
64808 21569 5 -0.35 11.6085 10.3124 3.80257
64809 21569 6 0.7 11.5018 10.4501 2.65572
64810 21569 5 -0.35 11.3951 10.5878 1.50888
64820 21573 5 -0.35 22.633 18.2888 11.3001
64821 21573 6 0.7 22.8443 18.002 12.404
64822 21573 5 -0.35 23.0557 17.7152 13.508
64826 21575 5 -0.35 4.02547 1.0437 0.417894
64827 21575 6 0.7 4.92351 0.86054 1.12894
64828 21575 5 -0.35 5.82155 0.677384 1.83998
64835 21578 5 -0.35 7.93952 12.649 0.827528
64836 21578 6 0.7 17.6641 17.7216 14.7642
64837 21578 5 -0.35 18.2557 17.5211 13.7867
64853 21584 5 -0.35 10.4327 7.21928 12.7226
64854 21584 6 0.7 11.2199 7.62153 11.9714
64855 21584 5 -0.35 12.007 8.02377 11.2202
64859 21586 5 -0.35 20.6038 12.6267 10.364
64860 21586 6 0.7 21.2059 13.6177 10.3324
64861 21586 5 -0.35 21.808 14.6086 10.3009
64880 21593 5 -0.35 17.5403 12.9654 3.82344
64881 21593 6 0.7 16.5268 12.8908 3.26419
64882 21593 5 -0.35 15.5132 12.8163 2.70494
64883 21594 5 -0.35 16.2693 11.6412 9.71447
64884 21594 6 0.7 15.3241 11.2403 10.2543
64885 21594 5 -0.35 14.3789 10.8395 10.7942
64886 21595 5 -0.35 14.836 7.20778 6.89016
64887 21595 6 0.7 14.9123 7.2814 5.73502
64888 21595 5 -0.35 14.9886 7.35501 4.57987
64889 21596 5 -0.35 32.5797 17.9481 12.5866
64890 21596 6 0.7 32.8229 18.7846 11.8205
64891 21596 5 -0.35 33.0661 19.621 11.0545
ITEM: TIMESTEP
89000
ITEM: NUMBER OF ATOMS
151
ITEM: BOX BOUNDS xy xz yz pp pp pp
0.0000000000000000e+00 3.6531964750000000e+01 9.1329911900000003e+00
0.0000000000000000e+00 2.1091739680000000e+01 9.1329911900000003e+00
0.0000000000000000e+00 1.4914112149999999e+01 5.2729349200000000e+00
ITEM: ATOMS id mol type q x y z
1 1 1 1.10383 27.399 17.6496 10.5383
2 1 1 1.10383 9.13299 3.44217 4.3758
3 1 1 1.10383 27.399 15.8188 13.1274
4 1 1 1.10383 9.13299 5.27293 1.78671
5 1 1 1.10383 25.8135 14.9034 10.5383
6 1 1 1.10383 10.7185 6.18832 4.3758
7 1 1 1.10383 28.9845 14.9034 10.5383
8 1 1 1.10383 7.5475 6.18832 4.3758
9 1 2 0.115889 18.266 5.48596 12.6084
10 1 2 0.115889 18.266 15.6058 2.30572
11 1 2 0.115888 18.266 13.716 0.969417
12 1 2 0.115888 18.266 7.37578 13.9447
13 1 2 0.11589 25.3934 11.4908 8.12521
14 1 2 0.11589 11.1386 9.60096 6.7889
15 1 2 0.115888 11.1386 11.4908 8.12521
16 1 2 0.115888 25.3934 9.60096 6.7889
17 1 2 0.115889 15.5206 8.96083 0.969417
18 1 2 0.115889 21.0114 12.1309 13.9447
19 1 2 0.115888 22.648 13.0758 12.6084
20 1 2 0.115888 13.884 8.01592 2.30572
21 1 2 0.115889 21.0114 3.90092 8.12521
22 1 2 0.115889 15.5206 17.1908 6.7889
23 1 2 0.115887 13.884 16.2459 8.12521
24 1 2 0.115887 22.648 4.84583 6.7889
25 1 2 0.115889 22.648 16.2459 8.12521
26 1 2 0.115889 13.884 4.84583 6.7889
27 1 2 0.115887 15.5206 3.90092 8.12521
28 1 2 0.115887 21.0114 17.1908 6.7889
29 1 2 0.115889 21.0114 8.96083 0.969417
30 1 2 0.115889 15.5206 12.1309 13.9447
31 1 2 0.115887 13.884 13.0758 12.6084
32 1 2 0.115887 22.648 8.01592 2.30572
33 1 3 0.671939 27.399 18.7442 13.2542
34 1 3 0.671939 9.13299 2.34751 1.65994
35 1 3 0.671939 27.399 12.8934 9.117
36 1 3 0.671939 9.13299 8.19836 5.79712
37 1 3 0.67194 24.8655 14.3561 13.2542
38 1 3 0.67194 11.6665 6.73565 1.65994
39 1 3 0.67194 29.9325 17.2815 9.117
40 1 3 0.67194 6.5995 3.81022 5.79712
41 1 3 0.67194 24.8655 17.2815 9.117
42 1 3 0.67194 11.6665 3.81022 5.79712
43 1 3 0.67194 29.9325 14.3561 13.2542
44 1 3 0.67194 6.5995 6.73565 1.65994
45 1 3 -0.11508 27.399 19.957 14.1117
46 1 3 -0.11508 9.13299 1.13474 0.802379
47 1 3 -0.11508 27.399 11.6806 8.25944
48 1 3 -0.11508 9.13299 9.41113 6.65468
49 1 3 -0.11508 23.8152 13.7497 14.1117
50 1 3 -0.11508 12.7168 7.34203 0.802379
51 1 3 -0.11508 30.9828 17.8879 8.25944
52 1 3 -0.11508 5.54921 3.20384 6.65468
53 1 3 -0.11508 23.8152 17.8879 8.25944
54 1 3 -0.11508 12.7168 3.20384 6.65468
55 1 3 -0.11508 30.9828 13.7497 14.1117
56 1 3 -0.11508 5.54921 7.34203 0.802379
57 1 3 -0.0559 18.266 5.39949 13.5316
58 1 3 -0.0559 18.266 15.6923 1.38254
59 1 3 -0.055903 18.266 14.5575 0.580159
60 1 3 -0.055903 18.266 6.53422 14.334
61 1 3 -0.0559 26.1971 11.1132 7.85825
62 1 3 -0.0559 10.3349 9.9785 7.05587
63 1 3 -0.055903 10.3349 11.1132 7.85825
64 1 3 -0.055903 26.1971 9.9785 7.05587
65 1 3 -0.0559 14.7918 8.54005 0.580159
66 1 3 -0.0559 21.7402 12.5517 14.334
67 1 3 -0.055903 22.7229 13.1191 13.5316
68 1 3 -0.055903 13.8091 7.97268 1.38254
69 1 3 -0.0559 21.7402 3.39366 7.85825
70 1 3 -0.0559 14.7918 17.6981 7.05587
71 1 3 -0.055903 13.8091 17.1307 7.85825
72 1 3 -0.055903 22.7229 3.96103 7.05587
73 1 3 -0.055901 22.7229 17.1307 7.85825
74 1 3 -0.055901 13.8091 3.96103 7.05587
75 1 3 -0.055903 14.7918 3.39366 7.85825
76 1 3 -0.055903 21.7402 17.6981 7.05587
77 1 3 -0.0559 21.7402 8.54005 0.580159
78 1 3 -0.0559 14.7918 12.5517 14.334
79 1 3 -0.055903 13.8091 13.1191 13.5316
80 1 3 -0.055903 22.7229 7.97268 1.38254
81 1 4 -1.26215 27.399 15.8188 11.1856
82 1 4 -1.26215 9.13299 5.27293 3.72853
83 1 4 -0.60118 27.399 18.9383 11.9641
84 1 4 -0.60118 9.13299 2.15347 2.95001
85 1 4 -0.601179 27.399 17.5926 13.8671
86 1 4 -0.601179 9.13299 3.49912 1.04697
87 1 4 -0.601179 26.2336 13.3722 9.45555
88 1 4 -0.601179 10.2984 7.71958 5.45857
89 1 4 -0.60118 28.5643 13.3722 9.45555
90 1 4 -0.60118 7.96762 7.71958 5.45857
91 1 4 -0.60118 25.8628 14.9319 13.8671
92 1 4 -0.60118 10.6692 6.15984 1.04697
93 1 4 -0.601179 24.6974 14.2591 11.9641
94 1 4 -0.601179 11.8345 6.83267 2.95001
95 1 4 -0.60118 28.9351 18.0514 9.45555
96 1 4 -0.60118 7.59682 3.04037 5.45857
97 1 4 -0.601179 30.1005 16.0329 9.45555
98 1 4 -0.601179 6.43145 5.05885 5.45857
99 1 4 -0.601179 24.6974 16.0329 9.45555
100 1 4 -0.601179 11.8345 5.05885 5.45857
101 1 4 -0.60118 25.8628 18.0514 9.45555
102 1 4 -0.60118 10.6692 3.04037 5.45857
103 1 4 -0.60118 28.9351 14.9319 13.8671
104 1 4 -0.60118 7.59682 6.15984 1.04697
105 1 4 -0.60118 30.1005 14.2591 11.9641
106 1 4 -0.60118 6.43145 6.83267 2.95001
65954 21951 5 -0.35 14.0467 2.56903 1.59115
65955 21951 6 0.7 13.2065 3.1254 2.16577
65956 21951 5 -0.35 12.3663 3.68176 2.7404
66005 21968 5 -0.35 26.8228 11.8503 12.1087
66006 21968 6 0.7 25.9777 11.325 11.5125
66007 21968 5 -0.35 25.1326 10.7997 10.9162
66080 21993 5 -0.35 16.6415 15.836 13.7924
66081 21993 6 0.7 17.3783 14.9464 13.8986
66082 21993 5 -0.35 18.1151 14.0567 14.0048
66143 22014 5 -0.35 19.9186 12.3766 3.1446
66144 22014 6 0.7 20.5189 12.3289 2.15314
66145 22014 5 -0.35 21.1191 12.2811 1.16168
66155 22018 5 -0.35 22.4838 13.0852 9.57144
66156 22018 6 0.7 22.4782 13.0113 8.4138
66157 22018 5 -0.35 22.4726 12.9375 7.25617
66176 22025 5 -0.35 19.6321 6.45096 2.36482
66177 22025 6 0.7 19.8649 6.02276 1.3122
66178 22025 5 -0.35 20.0978 5.59455 0.259576
66182 22027 5 -0.35 9.50436 6.96513 9.50802
66183 22027 6 0.7 10.5694 7.30307 9.81948
66184 22027 5 -0.35 11.6345 7.64102 10.1309
66191 22030 5 -0.35 21.5389 10.2358 3.88701
66192 22030 6 0.7 21.8229 10.2005 5.01116
66193 22030 5 -0.35 22.1068 10.1653 6.13531
66203 22034 5 -0.35 20.1431 6.14086 6.13789
66204 22034 6 0.7 19.0193 6.21199 5.85912
66205 22034 5 -0.35 17.8955 6.28312 5.58036
66212 22037 5 -0.35 25.5691 17.0249 5.57277
66213 22037 6 0.7 25.0124 16.0225 5.39762
66214 22037 5 -0.35 24.4557 15.02 5.22246
66218 22039 5 -0.35 5.28234 3.57878 2.39887
66219 22039 6 0.7 4.46412 3.83797 3.17921
66220 22039 5 -0.35 21.9119 4.09716 3.95955
66224 22041 5 -0.35 26.5591 11.4712 4.28588
66225 22041 6 0.7 8.08138 11.2315 3.17083
66226 22041 5 -0.35 7.86965 10.9918 2.05579
66227 22042 5 -0.35 11.6698 12.126 4.21619
66228 22042 6 0.7 11.5772 12.7798 3.26245
66229 22042 5 -0.35 11.4845 13.4335 2.3087
66230 22043 5 -0.35 12.6852 11.6181 0.650108
66231 22043 6 0.7 13.5854 12.2636 0.994651
66232 22043 5 -0.35 14.4855 12.9091 1.33919
66236 22045 5 -0.35 15.5145 11.2351 5.00174
66237 22045 6 0.7 16.2433 11.9787 4.49024
66238 22045 5 -0.35 16.9721 12.7223 3.97875
ITEM: TIMESTEP
90000
ITEM: NUMBER OF ATOMS
196
ITEM: BOX BOUNDS xy xz yz pp pp pp
0.0000000000000000e+00 3.6531964750000000e+01 9.1329911900000003e+00
0.0000000000000000e+00 2.1091739680000000e+01 9.1329911900000003e+00
0.0000000000000000e+00 1.4914112149999999e+01 5.2729349200000000e+00
ITEM: ATOMS id mol type q x y z
1 1 1 1.10383 27.399 17.6496 10.5383
2 1 1 1.10383 9.13299 3.44217 4.3758
3 1 1 1.10383 27.399 15.8188 13.1274
4 1 1 1.10383 9.13299 5.27293 1.78671
5 1 1 1.10383 25.8135 14.9034 10.5383
6 1 1 1.10383 10.7185 6.18832 4.3758
7 1 1 1.10383 28.9845 14.9034 10.5383
8 1 1 1.10383 7.5475 6.18832 4.3758
9 1 2 0.115889 18.266 5.48596 12.6084
10 1 2 0.115889 18.266 15.6058 2.30572
11 1 2 0.115888 18.266 13.716 0.969417
12 1 2 0.115888 18.266 7.37578 13.9447
13 1 2 0.11589 25.3934 11.4908 8.12521
14 1 2 0.11589 11.1386 9.60096 6.7889
15 1 2 0.115888 11.1386 11.4908 8.12521
16 1 2 0.115888 25.3934 9.60096 6.7889
17 1 2 0.115889 15.5206 8.96083 0.969417
18 1 2 0.115889 21.0114 12.1309 13.9447
19 1 2 0.115888 22.648 13.0758 12.6084
20 1 2 0.115888 13.884 8.01592 2.30572
21 1 2 0.115889 21.0114 3.90092 8.12521
22 1 2 0.115889 15.5206 17.1908 6.7889
23 1 2 0.115887 13.884 16.2459 8.12521
24 1 2 0.115887 22.648 4.84583 6.7889
25 1 2 0.115889 22.648 16.2459 8.12521
26 1 2 0.115889 13.884 4.84583 6.7889
27 1 2 0.115887 15.5206 3.90092 8.12521
28 1 2 0.115887 21.0114 17.1908 6.7889
29 1 2 0.115889 21.0114 8.96083 0.969417
30 1 2 0.115889 15.5206 12.1309 13.9447
31 1 2 0.115887 13.884 13.0758 12.6084
32 1 2 0.115887 22.648 8.01592 2.30572
33 1 3 0.671939 27.399 18.7442 13.2542
34 1 3 0.671939 9.13299 2.34751 1.65994
35 1 3 0.671939 27.399 12.8934 9.117
36 1 3 0.671939 9.13299 8.19836 5.79712
37 1 3 0.67194 24.8655 14.3561 13.2542
38 1 3 0.67194 11.6665 6.73565 1.65994
39 1 3 0.67194 29.9325 17.2815 9.117
40 1 3 0.67194 6.5995 3.81022 5.79712
41 1 3 0.67194 24.8655 17.2815 9.117
42 1 3 0.67194 11.6665 3.81022 5.79712
43 1 3 0.67194 29.9325 14.3561 13.2542
44 1 3 0.67194 6.5995 6.73565 1.65994
45 1 3 -0.11508 27.399 19.957 14.1117
46 1 3 -0.11508 9.13299 1.13474 0.802379
47 1 3 -0.11508 27.399 11.6806 8.25944
48 1 3 -0.11508 9.13299 9.41113 6.65468
49 1 3 -0.11508 23.8152 13.7497 14.1117
50 1 3 -0.11508 12.7168 7.34203 0.802379
51 1 3 -0.11508 30.9828 17.8879 8.25944
52 1 3 -0.11508 5.54921 3.20384 6.65468
53 1 3 -0.11508 23.8152 17.8879 8.25944
54 1 3 -0.11508 12.7168 3.20384 6.65468
55 1 3 -0.11508 30.9828 13.7497 14.1117
56 1 3 -0.11508 5.54921 7.34203 0.802379
57 1 3 -0.0559 18.266 5.39949 13.5316
58 1 3 -0.0559 18.266 15.6923 1.38254
59 1 3 -0.055903 18.266 14.5575 0.580159
60 1 3 -0.055903 18.266 6.53422 14.334
61 1 3 -0.0559 26.1971 11.1132 7.85825
62 1 3 -0.0559 10.3349 9.9785 7.05587
63 1 3 -0.055903 10.3349 11.1132 7.85825
64 1 3 -0.055903 26.1971 9.9785 7.05587
65 1 3 -0.0559 14.7918 8.54005 0.580159
66 1 3 -0.0559 21.7402 12.5517 14.334
67 1 3 -0.055903 22.7229 13.1191 13.5316
68 1 3 -0.055903 13.8091 7.97268 1.38254
69 1 3 -0.0559 21.7402 3.39366 7.85825
70 1 3 -0.0559 14.7918 17.6981 7.05587
71 1 3 -0.055903 13.8091 17.1307 7.85825
72 1 3 -0.055903 22.7229 3.96103 7.05587
73 1 3 -0.055901 22.7229 17.1307 7.85825
74 1 3 -0.055901 13.8091 3.96103 7.05587
75 1 3 -0.055903 14.7918 3.39366 7.85825
76 1 3 -0.055903 21.7402 17.6981 7.05587
77 1 3 -0.0559 21.7402 8.54005 0.580159
78 1 3 -0.0559 14.7918 12.5517 14.334
79 1 3 -0.055903 13.8091 13.1191 13.5316
80 1 3 -0.055903 22.7229 7.97268 1.38254
81 1 4 -1.26215 27.399 15.8188 11.1856
82 1 4 -1.26215 9.13299 5.27293 3.72853
83 1 4 -0.60118 27.399 18.9383 11.9641
84 1 4 -0.60118 9.13299 2.15347 2.95001
85 1 4 -0.601179 27.399 17.5926 13.8671
86 1 4 -0.601179 9.13299 3.49912 1.04697
87 1 4 -0.601179 26.2336 13.3722 9.45555
88 1 4 -0.601179 10.2984 7.71958 5.45857
89 1 4 -0.60118 28.5643 13.3722 9.45555
90 1 4 -0.60118 7.96762 7.71958 5.45857
91 1 4 -0.60118 25.8628 14.9319 13.8671
92 1 4 -0.60118 10.6692 6.15984 1.04697
93 1 4 -0.601179 24.6974 14.2591 11.9641
94 1 4 -0.601179 11.8345 6.83267 2.95001
95 1 4 -0.60118 28.9351 18.0514 9.45555
96 1 4 -0.60118 7.59682 3.04037 5.45857
97 1 4 -0.601179 30.1005 16.0329 9.45555
98 1 4 -0.601179 6.43145 5.05885 5.45857
99 1 4 -0.601179 24.6974 16.0329 9.45555
100 1 4 -0.601179 11.8345 5.05885 5.45857
101 1 4 -0.60118 25.8628 18.0514 9.45555
102 1 4 -0.60118 10.6692 3.04037 5.45857
103 1 4 -0.60118 28.9351 14.9319 13.8671
104 1 4 -0.60118 7.59682 6.15984 1.04697
105 1 4 -0.60118 30.1005 14.2591 11.9641
106 1 4 -0.60118 6.43145 6.83267 2.95001
65954 21951 5 -0.35 12.769 1.53243 1.67894
65955 21951 6 0.7 12.3221 2.45163 2.22751
65956 21951 5 -0.35 11.8751 3.37084 2.77607
66176 22025 5 -0.35 19.0045 5.81831 6.56161
66177 22025 6 0.7 18.9598 5.55605 5.43253
66178 22025 5 -0.35 18.9151 5.2938 4.30344
66182 22027 5 -0.35 10.6768 7.54316 9.4989
66183 22027 6 0.7 11.7592 7.77724 9.15352
66184 22027 5 -0.35 12.8416 8.01132 8.80815
66218 22039 5 -0.35 6.2293 3.62096 2.23943
66219 22039 6 0.7 5.2271 3.23926 2.68157
66220 22039 5 -0.35 4.2249 2.85756 3.12371
66266 22055 5 -0.35 25.4625 8.03114 9.12972
66267 22055 6 0.7 7.7248 7.15526 8.5826
66268 22055 5 -0.35 8.25307 6.27937 8.03548
66350 22083 5 -0.35 23.7931 10.0091 4.39371
66351 22083 6 0.7 24.4439 10.7733 3.81221
66352 22083 5 -0.35 25.0946 11.5374 3.2307
66392 22097 5 -0.35 30.9189 19.3115 14.1131
66393 22097 6 0.7 30.788 18.4315 13.3688
66394 22097 5 -0.35 30.6571 17.5514 12.6246
66407 22102 5 -0.35 22.6361 7.66508 7.27068
66408 22102 6 0.7 22.2406 7.42367 6.20725
66409 22102 5 -0.35 21.8451 7.18226 5.14381
66437 22112 5 -0.35 22.097 14.981 5.03858
66438 22112 6 0.7 21.0274 14.622 4.76917
66439 22112 5 -0.35 19.9577 14.2629 4.49976
66539 22146 5 -0.35 25.5375 10.1655 12.8426
66540 22146 6 0.7 24.9166 10.4521 11.9057
66541 22146 5 -0.35 24.2956 10.7388 10.9687
66617 22172 5 -0.35 9.34439 10.2687 3.35735
66618 22172 6 0.7 10.225 10.6244 2.69133
66619 22172 5 -0.35 11.1056 10.9802 2.02531
66644 22181 5 -0.35 15.4438 5.60055 4.32251
66645 22181 6 0.7 15.1569 4.47834 4.25954
66646 22181 5 -0.35 14.8701 3.35614 4.19656
66662 22187 5 -0.35 19.3045 6.37372 1.29528
66663 22187 6 0.7 18.1504 6.27363 1.23362
66664 22187 5 -0.35 16.9964 6.17354 1.17196
66671 22190 5 -0.35 24.4696 15.0867 0.337059
66672 22190 6 0.7 24.0909 14.717 1.36933
66673 22190 5 -0.35 23.7123 14.3474 2.40161
66680 22193 5 -0.35 21.8205 18.6464 13.232
66681 22193 6 0.7 22.8904 18.4011 12.8568
66682 22193 5 -0.35 23.9603 18.1558 12.4816
66725 22208 5 -0.35 27.9895 11.7796 12.5743
66726 22208 6 0.7 28.2734 10.8242 11.9809
66727 22208 5 -0.35 28.5574 9.8688 11.3874
66731 22210 5 -0.35 21.2815 13.6369 7.76685
66732 22210 6 0.7 21.9213 12.9217 7.11502
66733 22210 5 -0.35 22.561 12.2065 6.4632
66737 22212 5 -0.35 11.2502 4.83767 9.01721
66738 22212 6 0.7 11.8808 4.09424 9.64594
66739 22212 5 -0.35 21.6443 19.1696 10.2747
66755 22218 5 -0.35 15.7177 15.3412 11.5752
66756 22218 6 0.7 15.5351 14.9154 10.5117
66757 22218 5 -0.35 15.3525 14.4895 9.44827
66767 22222 5 -0.35 19.3296 8.38136 3.52221
66768 22222 6 0.7 18.4217 8.90758 3.0278
66769 22222 5 -0.35 17.5138 9.4338 2.53339
66770 22223 5 -0.35 19.3129 6.27237 9.61068
66771 22223 6 0.7 18.4008 5.57208 9.76287
66772 22223 5 -0.35 17.4886 4.8718 9.91506
66782 22227 5 -0.35 25.4859 13.5764 5.14296
66783 22227 6 0.7 26.617 13.3194 5.1528
66784 22227 5 -0.35 27.7481 13.0624 5.16265
66785 22228 5 -0.35 16.7478 3.00098 1.12274
66786 22228 6 0.7 15.7965 3.10846 0.467705
66787 22228 5 -0.35 23.9782 8.48887 14.7268
66788 22229 5 -0.35 18.2562 14.3134 14.8699
66789 22229 6 0.7 18.2451 13.6596 13.9118
66790 22229 5 -0.35 18.234 13.0057 12.9536
66797 22232 5 -0.35 2.85261 4.0955 0.564092
66798 22232 6 0.7 20.2277 3.48791 0.136685
66799 22232 5 -0.35 28.4697 8.15326 14.6234
66803 22234 5 -0.35 20.1698 9.52247 12.059
66804 22234 6 0.7 20.4508 9.53026 10.9336
66805 22234 5 -0.35 20.7319 9.53804 9.80822
66806 22235 5 -0.35 16.5915 7.22388 7.99115
66807 22235 6 0.7 16.8009 7.66118 6.93733
66808 22235 5 -0.35 17.0102 8.09848 5.8835
66815 22238 5 -0.35 19.8955 16.1977 9.37191
66816 22238 6 0.7 19.5707 15.6343 10.3325
66817 22238 5 -0.35 19.246 15.0709 11.2931
66818 22239 5 -0.35 9.60883 12.9872 0.437177
66819 22239 6 0.7 9.37133 14.0433 0.0202622
66820 22239 5 -0.35 18.2668 20.3724 14.5175
66821 22240 5 -0.35 8.95758 6.61802 12.5821
66822 22240 6 0.7 9.98664 6.09003 12.6707
66823 22240 5 -0.35 11.0157 5.56204 12.7593
ITEM: TIMESTEP
91000
ITEM: NUMBER OF ATOMS
181
ITEM: BOX BOUNDS xy xz yz pp pp pp
0.0000000000000000e+00 3.6531964750000000e+01 9.1329911900000003e+00
0.0000000000000000e+00 2.1091739680000000e+01 9.1329911900000003e+00
0.0000000000000000e+00 1.4914112149999999e+01 5.2729349200000000e+00
ITEM: ATOMS id mol type q x y z
1 1 1 1.10383 27.399 17.6496 10.5383
2 1 1 1.10383 9.13299 3.44217 4.3758
3 1 1 1.10383 27.399 15.8188 13.1274
4 1 1 1.10383 9.13299 5.27293 1.78671
5 1 1 1.10383 25.8135 14.9034 10.5383
6 1 1 1.10383 10.7185 6.18832 4.3758
7 1 1 1.10383 28.9845 14.9034 10.5383
8 1 1 1.10383 7.5475 6.18832 4.3758
9 1 2 0.115889 18.266 5.48596 12.6084
10 1 2 0.115889 18.266 15.6058 2.30572
11 1 2 0.115888 18.266 13.716 0.969417
12 1 2 0.115888 18.266 7.37578 13.9447
13 1 2 0.11589 25.3934 11.4908 8.12521
14 1 2 0.11589 11.1386 9.60096 6.7889
15 1 2 0.115888 11.1386 11.4908 8.12521
16 1 2 0.115888 25.3934 9.60096 6.7889
17 1 2 0.115889 15.5206 8.96083 0.969417
18 1 2 0.115889 21.0114 12.1309 13.9447
19 1 2 0.115888 22.648 13.0758 12.6084
20 1 2 0.115888 13.884 8.01592 2.30572
21 1 2 0.115889 21.0114 3.90092 8.12521
22 1 2 0.115889 15.5206 17.1908 6.7889
23 1 2 0.115887 13.884 16.2459 8.12521
24 1 2 0.115887 22.648 4.84583 6.7889
25 1 2 0.115889 22.648 16.2459 8.12521
26 1 2 0.115889 13.884 4.84583 6.7889
27 1 2 0.115887 15.5206 3.90092 8.12521
28 1 2 0.115887 21.0114 17.1908 6.7889
29 1 2 0.115889 21.0114 8.96083 0.969417
30 1 2 0.115889 15.5206 12.1309 13.9447
31 1 2 0.115887 13.884 13.0758 12.6084
32 1 2 0.115887 22.648 8.01592 2.30572
33 1 3 0.671939 27.399 18.7442 13.2542
34 1 3 0.671939 9.13299 2.34751 1.65994
35 1 3 0.671939 27.399 12.8934 9.117
36 1 3 0.671939 9.13299 8.19836 5.79712
37 1 3 0.67194 24.8655 14.3561 13.2542
38 1 3 0.67194 11.6665 6.73565 1.65994
39 1 3 0.67194 29.9325 17.2815 9.117
40 1 3 0.67194 6.5995 3.81022 5.79712
41 1 3 0.67194 24.8655 17.2815 9.117
42 1 3 0.67194 11.6665 3.81022 5.79712
43 1 3 0.67194 29.9325 14.3561 13.2542
44 1 3 0.67194 6.5995 6.73565 1.65994
45 1 3 -0.11508 27.399 19.957 14.1117
46 1 3 -0.11508 9.13299 1.13474 0.802379
47 1 3 -0.11508 27.399 11.6806 8.25944
48 1 3 -0.11508 9.13299 9.41113 6.65468
49 1 3 -0.11508 23.8152 13.7497 14.1117
50 1 3 -0.11508 12.7168 7.34203 0.802379
51 1 3 -0.11508 30.9828 17.8879 8.25944
52 1 3 -0.11508 5.54921 3.20384 6.65468
53 1 3 -0.11508 23.8152 17.8879 8.25944
54 1 3 -0.11508 12.7168 3.20384 6.65468
55 1 3 -0.11508 30.9828 13.7497 14.1117
56 1 3 -0.11508 5.54921 7.34203 0.802379
57 1 3 -0.0559 18.266 5.39949 13.5316
58 1 3 -0.0559 18.266 15.6923 1.38254
59 1 3 -0.055903 18.266 14.5575 0.580159
60 1 3 -0.055903 18.266 6.53422 14.334
61 1 3 -0.0559 26.1971 11.1132 7.85825
62 1 3 -0.0559 10.3349 9.9785 7.05587
63 1 3 -0.055903 10.3349 11.1132 7.85825
64 1 3 -0.055903 26.1971 9.9785 7.05587
65 1 3 -0.0559 14.7918 8.54005 0.580159
66 1 3 -0.0559 21.7402 12.5517 14.334
67 1 3 -0.055903 22.7229 13.1191 13.5316
68 1 3 -0.055903 13.8091 7.97268 1.38254
69 1 3 -0.0559 21.7402 3.39366 7.85825
70 1 3 -0.0559 14.7918 17.6981 7.05587
71 1 3 -0.055903 13.8091 17.1307 7.85825
72 1 3 -0.055903 22.7229 3.96103 7.05587
73 1 3 -0.055901 22.7229 17.1307 7.85825
74 1 3 -0.055901 13.8091 3.96103 7.05587
75 1 3 -0.055903 14.7918 3.39366 7.85825
76 1 3 -0.055903 21.7402 17.6981 7.05587
77 1 3 -0.0559 21.7402 8.54005 0.580159
78 1 3 -0.0559 14.7918 12.5517 14.334
79 1 3 -0.055903 13.8091 13.1191 13.5316
80 1 3 -0.055903 22.7229 7.97268 1.38254
81 1 4 -1.26215 27.399 15.8188 11.1856
82 1 4 -1.26215 9.13299 5.27293 3.72853
83 1 4 -0.60118 27.399 18.9383 11.9641
84 1 4 -0.60118 9.13299 2.15347 2.95001
85 1 4 -0.601179 27.399 17.5926 13.8671
86 1 4 -0.601179 9.13299 3.49912 1.04697
87 1 4 -0.601179 26.2336 13.3722 9.45555
88 1 4 -0.601179 10.2984 7.71958 5.45857
89 1 4 -0.60118 28.5643 13.3722 9.45555
90 1 4 -0.60118 7.96762 7.71958 5.45857
91 1 4 -0.60118 25.8628 14.9319 13.8671
92 1 4 -0.60118 10.6692 6.15984 1.04697
93 1 4 -0.601179 24.6974 14.2591 11.9641
94 1 4 -0.601179 11.8345 6.83267 2.95001
95 1 4 -0.60118 28.9351 18.0514 9.45555
96 1 4 -0.60118 7.59682 3.04037 5.45857
97 1 4 -0.601179 30.1005 16.0329 9.45555
98 1 4 -0.601179 6.43145 5.05885 5.45857
99 1 4 -0.601179 24.6974 16.0329 9.45555
100 1 4 -0.601179 11.8345 5.05885 5.45857
101 1 4 -0.60118 25.8628 18.0514 9.45555
102 1 4 -0.60118 10.6692 3.04037 5.45857
103 1 4 -0.60118 28.9351 14.9319 13.8671
104 1 4 -0.60118 7.59682 6.15984 1.04697
105 1 4 -0.60118 30.1005 14.2591 11.9641
106 1 4 -0.60118 6.43145 6.83267 2.95001
65954 21951 5 -0.35 13.436 0.357831 0.0977343
65955 21951 6 0.7 13.3792 1.50227 0.278356
65956 21951 5 -0.35 13.3223 2.64671 0.458978
67037 22312 5 -0.35 16.9304 1.87637 1.51265
67038 22312 6 0.7 16.4117 2.5945 2.26152
67039 22312 5 -0.35 15.893 3.31263 3.01039
67076 22325 5 -0.35 11.8465 10.4947 10.4554
67077 22325 6 0.7 10.9893 10.7231 11.2028
67078 22325 5 -0.35 28.3981 10.9516 11.9502
67085 22328 5 -0.35 12.9084 7.79211 9.05263
67086 22328 6 0.7 13.6621 7.70383 8.17522
67087 22328 5 -0.35 14.4157 7.61555 7.29781
67103 22334 5 -0.35 14.9231 12.7705 9.99322
67104 22334 6 0.7 14.6985 11.7825 9.42839
67105 22334 5 -0.35 14.474 10.7945 8.86356
67115 22338 5 -0.35 28.5712 16.2158 5.65235
67116 22338 6 0.7 27.9306 15.8942 6.56436
67117 22338 5 -0.35 27.2899 15.5726 7.47636
67157 22352 5 -0.35 16.9726 5.82739 6.13627
67158 22352 6 0.7 16.56 6.59043 5.36611
67159 22352 5 -0.35 16.1474 7.35346 4.59595
67217 22372 5 -0.35 24.6211 10.5692 14.5238
67218 22372 6 0.7 24.6701 10.4263 13.3736
67219 22372 5 -0.35 24.7191 10.2833 12.2235
67244 22381 5 -0.35 17.063 8.8091 9.71892
67245 22381 6 0.7 17.9262 8.9932 8.96625
67246 22381 5 -0.35 18.7895 9.1773 8.21358
67274 22391 5 -0.35 16.3652 15.4128 4.29047
67275 22391 6 0.7 15.7636 16.0082 3.49725
67276 22391 5 -0.35 15.1621 16.6036 2.70403
67292 22397 5 -0.35 16.9574 13.2031 6.33884
67293 22397 6 0.7 17.1708 12.7289 5.30193
67294 22397 5 -0.35 17.3842 12.2547 4.26501
67301 22400 5 -0.35 21.1879 11.8728 10.6622
67302 22400 6 0.7 21.5304 11.8994 9.55421
67303 22400 5 -0.35 21.8728 11.926 8.44624
67307 22402 5 -0.35 19.8303 14.3656 9.42422
67308 22402 6 0.7 19.6541 14.3734 8.27772
67309 22402 5 -0.35 19.4778 14.3812 7.13122
67325 22408 5 -0.35 30.3172 19.3023 12.07
67326 22408 6 0.7 21.3472 4.46473 11.4731
67327 22408 5 -0.35 21.5102 5.44593 10.8762
67328 22409 5 -0.35 11.3576 13.4585 5.68105
67329 22409 6 0.7 12.187 13.86 4.97647
67330 22409 5 -0.35 13.0165 14.2615 4.2719
67346 22415 5 -0.35 13.4709 9.43506 5.23564
67347 22415 6 0.7 12.828 9.64328 4.29277
67348 22415 5 -0.35 12.1852 9.85151 3.3499
67355 22418 5 -0.35 24.7229 6.96904 12.3504
67356 22418 6 0.7 24.5609 6.88911 11.2045
67357 22418 5 -0.35 24.3989 6.80919 10.0587
67361 22420 5 -0.35 21.0115 8.31897 12.9239
67362 22420 6 0.7 20.0472 8.73872 12.4345
67363 22420 5 -0.35 19.0829 9.15847 11.9451
67370 22423 5 -0.35 24.1696 11.3107 2.15568
67371 22423 6 0.7 25.0765 10.6403 1.88435
67372 22423 5 -0.35 7.71743 9.96983 1.61301
67373 22424 5 -0.35 20.4479 11.1372 2.43293
67374 22424 6 0.7 20.598 11.8306 1.51522
67375 22424 5 -0.35 20.7481 12.5241 0.597509
67379 22426 5 -0.35 18.4029 17.4043 7.3593
67380 22426 6 0.7 18.7116 18.3639 7.93328
67381 22426 5 -0.35 9.88726 3.50474 8.50726
67388 22429 5 -0.35 25.0322 12.9951 4.48479
67389 22429 6 0.7 23.9199 13.2533 4.28063
67390 22429 5 -0.35 22.8076 13.5116 4.07648
67391 22430 5 -0.35 4.18836 3.3107 0.771087
67392 22430 6 0.7 3.56073 4.24275 0.483052
67393 22430 5 -0.35 21.1991 5.1748 0.195018
67394 22431 5 -0.35 21.9864 16.5645 13.9589
67395 22431 6 0.7 21.9285 16.4369 12.8074
67396 22431 5 -0.35 21.8707 16.3094 11.6559
67397 22432 5 -0.35 11.0643 7.33932 14.2356
67398 22432 6 0.7 10.5812 7.40661 13.1831
67399 22432 5 -0.35 10.0981 7.4739 12.1306
ITEM: TIMESTEP
92000
ITEM: NUMBER OF ATOMS
166
ITEM: BOX BOUNDS xy xz yz pp pp pp
0.0000000000000000e+00 3.6531964750000000e+01 9.1329911900000003e+00
0.0000000000000000e+00 2.1091739680000000e+01 9.1329911900000003e+00
0.0000000000000000e+00 1.4914112149999999e+01 5.2729349200000000e+00
ITEM: ATOMS id mol type q x y z
1 1 1 1.10383 27.399 17.6496 10.5383
2 1 1 1.10383 9.13299 3.44217 4.3758
3 1 1 1.10383 27.399 15.8188 13.1274
4 1 1 1.10383 9.13299 5.27293 1.78671
5 1 1 1.10383 25.8135 14.9034 10.5383
6 1 1 1.10383 10.7185 6.18832 4.3758
7 1 1 1.10383 28.9845 14.9034 10.5383
8 1 1 1.10383 7.5475 6.18832 4.3758
9 1 2 0.115889 18.266 5.48596 12.6084
10 1 2 0.115889 18.266 15.6058 2.30572
11 1 2 0.115888 18.266 13.716 0.969417
12 1 2 0.115888 18.266 7.37578 13.9447
13 1 2 0.11589 25.3934 11.4908 8.12521
14 1 2 0.11589 11.1386 9.60096 6.7889
15 1 2 0.115888 11.1386 11.4908 8.12521
16 1 2 0.115888 25.3934 9.60096 6.7889
17 1 2 0.115889 15.5206 8.96083 0.969417
18 1 2 0.115889 21.0114 12.1309 13.9447
19 1 2 0.115888 22.648 13.0758 12.6084
20 1 2 0.115888 13.884 8.01592 2.30572
21 1 2 0.115889 21.0114 3.90092 8.12521
22 1 2 0.115889 15.5206 17.1908 6.7889
23 1 2 0.115887 13.884 16.2459 8.12521
24 1 2 0.115887 22.648 4.84583 6.7889
25 1 2 0.115889 22.648 16.2459 8.12521
26 1 2 0.115889 13.884 4.84583 6.7889
27 1 2 0.115887 15.5206 3.90092 8.12521
28 1 2 0.115887 21.0114 17.1908 6.7889
29 1 2 0.115889 21.0114 8.96083 0.969417
30 1 2 0.115889 15.5206 12.1309 13.9447
31 1 2 0.115887 13.884 13.0758 12.6084
32 1 2 0.115887 22.648 8.01592 2.30572
33 1 3 0.671939 27.399 18.7442 13.2542
34 1 3 0.671939 9.13299 2.34751 1.65994
35 1 3 0.671939 27.399 12.8934 9.117
36 1 3 0.671939 9.13299 8.19836 5.79712
37 1 3 0.67194 24.8655 14.3561 13.2542
38 1 3 0.67194 11.6665 6.73565 1.65994
39 1 3 0.67194 29.9325 17.2815 9.117
40 1 3 0.67194 6.5995 3.81022 5.79712
41 1 3 0.67194 24.8655 17.2815 9.117
42 1 3 0.67194 11.6665 3.81022 5.79712
43 1 3 0.67194 29.9325 14.3561 13.2542
44 1 3 0.67194 6.5995 6.73565 1.65994
45 1 3 -0.11508 27.399 19.957 14.1117
46 1 3 -0.11508 9.13299 1.13474 0.802379
47 1 3 -0.11508 27.399 11.6806 8.25944
48 1 3 -0.11508 9.13299 9.41113 6.65468
49 1 3 -0.11508 23.8152 13.7497 14.1117
50 1 3 -0.11508 12.7168 7.34203 0.802379
51 1 3 -0.11508 30.9828 17.8879 8.25944
52 1 3 -0.11508 5.54921 3.20384 6.65468
53 1 3 -0.11508 23.8152 17.8879 8.25944
54 1 3 -0.11508 12.7168 3.20384 6.65468
55 1 3 -0.11508 30.9828 13.7497 14.1117
56 1 3 -0.11508 5.54921 7.34203 0.802379
57 1 3 -0.0559 18.266 5.39949 13.5316
58 1 3 -0.0559 18.266 15.6923 1.38254
59 1 3 -0.055903 18.266 14.5575 0.580159
60 1 3 -0.055903 18.266 6.53422 14.334
61 1 3 -0.0559 26.1971 11.1132 7.85825
62 1 3 -0.0559 10.3349 9.9785 7.05587
63 1 3 -0.055903 10.3349 11.1132 7.85825
64 1 3 -0.055903 26.1971 9.9785 7.05587
65 1 3 -0.0559 14.7918 8.54005 0.580159
66 1 3 -0.0559 21.7402 12.5517 14.334
67 1 3 -0.055903 22.7229 13.1191 13.5316
68 1 3 -0.055903 13.8091 7.97268 1.38254
69 1 3 -0.0559 21.7402 3.39366 7.85825
70 1 3 -0.0559 14.7918 17.6981 7.05587
71 1 3 -0.055903 13.8091 17.1307 7.85825
72 1 3 -0.055903 22.7229 3.96103 7.05587
73 1 3 -0.055901 22.7229 17.1307 7.85825
74 1 3 -0.055901 13.8091 3.96103 7.05587
75 1 3 -0.055903 14.7918 3.39366 7.85825
76 1 3 -0.055903 21.7402 17.6981 7.05587
77 1 3 -0.0559 21.7402 8.54005 0.580159
78 1 3 -0.0559 14.7918 12.5517 14.334
79 1 3 -0.055903 13.8091 13.1191 13.5316
80 1 3 -0.055903 22.7229 7.97268 1.38254
81 1 4 -1.26215 27.399 15.8188 11.1856
82 1 4 -1.26215 9.13299 5.27293 3.72853
83 1 4 -0.60118 27.399 18.9383 11.9641
84 1 4 -0.60118 9.13299 2.15347 2.95001
85 1 4 -0.601179 27.399 17.5926 13.8671
86 1 4 -0.601179 9.13299 3.49912 1.04697
87 1 4 -0.601179 26.2336 13.3722 9.45555
88 1 4 -0.601179 10.2984 7.71958 5.45857
89 1 4 -0.60118 28.5643 13.3722 9.45555
90 1 4 -0.60118 7.96762 7.71958 5.45857
91 1 4 -0.60118 25.8628 14.9319 13.8671
92 1 4 -0.60118 10.6692 6.15984 1.04697
93 1 4 -0.601179 24.6974 14.2591 11.9641
94 1 4 -0.601179 11.8345 6.83267 2.95001
95 1 4 -0.60118 28.9351 18.0514 9.45555
96 1 4 -0.60118 7.59682 3.04037 5.45857
97 1 4 -0.601179 30.1005 16.0329 9.45555
98 1 4 -0.601179 6.43145 5.05885 5.45857
99 1 4 -0.601179 24.6974 16.0329 9.45555
100 1 4 -0.601179 11.8345 5.05885 5.45857
101 1 4 -0.60118 25.8628 18.0514 9.45555
102 1 4 -0.60118 10.6692 3.04037 5.45857
103 1 4 -0.60118 28.9351 14.9319 13.8671
104 1 4 -0.60118 7.59682 6.15984 1.04697
105 1 4 -0.60118 30.1005 14.2591 11.9641
106 1 4 -0.60118 6.43145 6.83267 2.95001
67370 22423 5 -0.35 23.7193 10.4666 4.14464
67371 22423 6 0.7 24.6484 10.1507 3.52616
67372 22423 5 -0.35 7.31157 9.83476 2.90768
67589 22496 5 -0.35 24.1675 17.7344 14.7731
67590 22496 6 0.7 24.2386 17.5613 13.6283
67591 22496 5 -0.35 24.3096 17.3882 12.4835
67592 22497 5 -0.35 29.327 11.6498 11.8587
67593 22497 6 0.7 11.9481 11.545 11.1187
67594 22497 5 -0.35 12.8352 11.4403 10.3786
67649 22516 5 -0.35 21.4965 11.8477 0.238011
67650 22516 6 0.7 20.7635 11.5488 1.08595
67651 22516 5 -0.35 20.0305 11.25 1.93389
67829 22576 5 -0.35 23.7936 6.92661 8.06217
67830 22576 6 0.7 23.3384 7.98489 7.9262
67831 22576 5 -0.35 22.8833 9.04316 7.79022
67943 22614 5 -0.35 21.0036 16.4007 10.887
67944 22614 6 0.7 20.9591 15.5898 10.0586
67945 22614 5 -0.35 20.9147 14.779 9.23026
67964 22621 5 -0.35 22.0755 16.1444 0.973485
67965 22621 6 0.7 22.4466 5.86166 14.8205
67966 22621 5 -0.35 22.8177 6.12478 13.7534
68000 22633 5 -0.35 18.9169 14.4903 14.7407
68001 22633 6 0.7 9.93254 9.31146 0.973131
68002 22633 5 -0.35 10.0812 9.40557 2.11971
68039 22646 5 -0.35 27.2797 14.912 6.67979
68040 22646 6 0.7 27.2293 14.3028 5.6939
68041 22646 5 -0.35 27.1789 13.6936 4.70802
68051 22650 5 -0.35 22.1531 15.9007 4.48006
68052 22650 6 0.7 21.336 15.1229 4.20982
68053 22650 5 -0.35 20.519 14.3452 3.93959
68066 22655 5 -0.35 22.6665 12.0633 7.301
68067 22655 6 0.7 23.4647 12.8627 7.03774
68068 22655 5 -0.35 24.2629 13.6622 6.77448
68069 22656 5 -0.35 24.0767 11.2686 10.4368
68070 22656 6 0.7 22.9393 11.1638 10.6388
68071 22656 5 -0.35 21.8018 11.0591 10.8407
68072 22657 5 -0.35 17.9405 7.98531 2.5686
68073 22657 6 0.7 18.044 7.81854 1.42533
68074 22657 5 -0.35 18.1476 7.65177 0.282065
68081 22660 5 -0.35 21.307 8.01263 5.1134
68082 22660 6 0.7 20.8978 9.05306 5.42272
68083 22660 5 -0.35 20.4886 10.0935 5.73204
68084 22661 5 -0.35 18.663 10.4762 12.8497
68085 22661 6 0.7 18.4981 10.4472 11.7019
68086 22661 5 -0.35 18.3331 10.4182 10.554
68093 22664 5 -0.35 15.1384 16.0754 14.1694
68094 22664 6 0.7 33.4875 17.2288 14.2606
68095 22664 5 -0.35 33.5706 18.3822 14.3519
68105 22668 5 -0.35 16.5491 3.58352 3.70743
68106 22668 6 0.7 15.5128 3.32457 3.25488
68107 22668 5 -0.35 14.4766 3.06563 2.80232
68111 22670 5 -0.35 13.9436 12.9248 4.39353
68112 22670 6 0.7 14.5091 13.7652 3.82817
68113 22670 5 -0.35 15.0745 14.6055 3.26281
68114 22671 5 -0.35 4.82676 3.06824 3.03488
68115 22671 6 0.7 4.63626 2.77161 1.92975
68116 22671 5 -0.35 4.44575 2.47498 0.824618
68117 22672 5 -0.35 16.2883 17.7182 11.0711
68118 22672 6 0.7 15.4001 16.9994 10.871
68119 22672 5 -0.35 14.512 16.2805 10.6708
ITEM: TIMESTEP
93000
ITEM: NUMBER OF ATOMS
181
ITEM: BOX BOUNDS xy xz yz pp pp pp
0.0000000000000000e+00 3.6531964750000000e+01 9.1329911900000003e+00
0.0000000000000000e+00 2.1091739680000000e+01 9.1329911900000003e+00
0.0000000000000000e+00 1.4914112149999999e+01 5.2729349200000000e+00
ITEM: ATOMS id mol type q x y z
1 1 1 1.10383 27.399 17.6496 10.5383
2 1 1 1.10383 9.13299 3.44217 4.3758
3 1 1 1.10383 27.399 15.8188 13.1274
4 1 1 1.10383 9.13299 5.27293 1.78671
5 1 1 1.10383 25.8135 14.9034 10.5383
6 1 1 1.10383 10.7185 6.18832 4.3758
7 1 1 1.10383 28.9845 14.9034 10.5383
8 1 1 1.10383 7.5475 6.18832 4.3758
9 1 2 0.115889 18.266 5.48596 12.6084
10 1 2 0.115889 18.266 15.6058 2.30572
11 1 2 0.115888 18.266 13.716 0.969417
12 1 2 0.115888 18.266 7.37578 13.9447
13 1 2 0.11589 25.3934 11.4908 8.12521
14 1 2 0.11589 11.1386 9.60096 6.7889
15 1 2 0.115888 11.1386 11.4908 8.12521
16 1 2 0.115888 25.3934 9.60096 6.7889
17 1 2 0.115889 15.5206 8.96083 0.969417
18 1 2 0.115889 21.0114 12.1309 13.9447
19 1 2 0.115888 22.648 13.0758 12.6084
20 1 2 0.115888 13.884 8.01592 2.30572
21 1 2 0.115889 21.0114 3.90092 8.12521
22 1 2 0.115889 15.5206 17.1908 6.7889
23 1 2 0.115887 13.884 16.2459 8.12521
24 1 2 0.115887 22.648 4.84583 6.7889
25 1 2 0.115889 22.648 16.2459 8.12521
26 1 2 0.115889 13.884 4.84583 6.7889
27 1 2 0.115887 15.5206 3.90092 8.12521
28 1 2 0.115887 21.0114 17.1908 6.7889
29 1 2 0.115889 21.0114 8.96083 0.969417
30 1 2 0.115889 15.5206 12.1309 13.9447
31 1 2 0.115887 13.884 13.0758 12.6084
32 1 2 0.115887 22.648 8.01592 2.30572
33 1 3 0.671939 27.399 18.7442 13.2542
34 1 3 0.671939 9.13299 2.34751 1.65994
35 1 3 0.671939 27.399 12.8934 9.117
36 1 3 0.671939 9.13299 8.19836 5.79712
37 1 3 0.67194 24.8655 14.3561 13.2542
38 1 3 0.67194 11.6665 6.73565 1.65994
39 1 3 0.67194 29.9325 17.2815 9.117
40 1 3 0.67194 6.5995 3.81022 5.79712
41 1 3 0.67194 24.8655 17.2815 9.117
42 1 3 0.67194 11.6665 3.81022 5.79712
43 1 3 0.67194 29.9325 14.3561 13.2542
44 1 3 0.67194 6.5995 6.73565 1.65994
45 1 3 -0.11508 27.399 19.957 14.1117
46 1 3 -0.11508 9.13299 1.13474 0.802379
47 1 3 -0.11508 27.399 11.6806 8.25944
48 1 3 -0.11508 9.13299 9.41113 6.65468
49 1 3 -0.11508 23.8152 13.7497 14.1117
50 1 3 -0.11508 12.7168 7.34203 0.802379
51 1 3 -0.11508 30.9828 17.8879 8.25944
52 1 3 -0.11508 5.54921 3.20384 6.65468
53 1 3 -0.11508 23.8152 17.8879 8.25944
54 1 3 -0.11508 12.7168 3.20384 6.65468
55 1 3 -0.11508 30.9828 13.7497 14.1117
56 1 3 -0.11508 5.54921 7.34203 0.802379
57 1 3 -0.0559 18.266 5.39949 13.5316
58 1 3 -0.0559 18.266 15.6923 1.38254
59 1 3 -0.055903 18.266 14.5575 0.580159
60 1 3 -0.055903 18.266 6.53422 14.334
61 1 3 -0.0559 26.1971 11.1132 7.85825
62 1 3 -0.0559 10.3349 9.9785 7.05587
63 1 3 -0.055903 10.3349 11.1132 7.85825
64 1 3 -0.055903 26.1971 9.9785 7.05587
65 1 3 -0.0559 14.7918 8.54005 0.580159
66 1 3 -0.0559 21.7402 12.5517 14.334
67 1 3 -0.055903 22.7229 13.1191 13.5316
68 1 3 -0.055903 13.8091 7.97268 1.38254
69 1 3 -0.0559 21.7402 3.39366 7.85825
70 1 3 -0.0559 14.7918 17.6981 7.05587
71 1 3 -0.055903 13.8091 17.1307 7.85825
72 1 3 -0.055903 22.7229 3.96103 7.05587
73 1 3 -0.055901 22.7229 17.1307 7.85825
74 1 3 -0.055901 13.8091 3.96103 7.05587
75 1 3 -0.055903 14.7918 3.39366 7.85825
76 1 3 -0.055903 21.7402 17.6981 7.05587
77 1 3 -0.0559 21.7402 8.54005 0.580159
78 1 3 -0.0559 14.7918 12.5517 14.334
79 1 3 -0.055903 13.8091 13.1191 13.5316
80 1 3 -0.055903 22.7229 7.97268 1.38254
81 1 4 -1.26215 27.399 15.8188 11.1856
82 1 4 -1.26215 9.13299 5.27293 3.72853
83 1 4 -0.60118 27.399 18.9383 11.9641
84 1 4 -0.60118 9.13299 2.15347 2.95001
85 1 4 -0.601179 27.399 17.5926 13.8671
86 1 4 -0.601179 9.13299 3.49912 1.04697
87 1 4 -0.601179 26.2336 13.3722 9.45555
88 1 4 -0.601179 10.2984 7.71958 5.45857
89 1 4 -0.60118 28.5643 13.3722 9.45555
90 1 4 -0.60118 7.96762 7.71958 5.45857
91 1 4 -0.60118 25.8628 14.9319 13.8671
92 1 4 -0.60118 10.6692 6.15984 1.04697
93 1 4 -0.601179 24.6974 14.2591 11.9641
94 1 4 -0.601179 11.8345 6.83267 2.95001
95 1 4 -0.60118 28.9351 18.0514 9.45555
96 1 4 -0.60118 7.59682 3.04037 5.45857
97 1 4 -0.601179 30.1005 16.0329 9.45555
98 1 4 -0.601179 6.43145 5.05885 5.45857
99 1 4 -0.601179 24.6974 16.0329 9.45555
100 1 4 -0.601179 11.8345 5.05885 5.45857
101 1 4 -0.60118 25.8628 18.0514 9.45555
102 1 4 -0.60118 10.6692 3.04037 5.45857
103 1 4 -0.60118 28.9351 14.9319 13.8671
104 1 4 -0.60118 7.59682 6.15984 1.04697
105 1 4 -0.60118 30.1005 14.2591 11.9641
106 1 4 -0.60118 6.43145 6.83267 2.95001
68000 22633 5 -0.35 11.3686 10.1892 0.856982
68001 22633 6 0.7 10.4355 10.4377 1.49974
68002 22633 5 -0.35 9.50237 10.6862 2.14249
68453 22784 5 -0.35 17.7418 18.4152 9.15631
68454 22784 6 0.7 17.3123 17.359 9.36974
68455 22784 5 -0.35 16.8827 16.3028 9.58318
68471 22790 5 -0.35 9.87094 6.86506 9.29907
68472 22790 6 0.7 8.82907 6.51032 8.93266
68473 22790 5 -0.35 7.7872 6.15557 8.56625
68663 22854 5 -0.35 11.7873 9.83252 3.86742
68664 22854 6 0.7 12.6393 9.3995 4.52489
68665 22854 5 -0.35 13.4912 8.96647 5.18235
68723 22874 5 -0.35 26.7031 9.39977 12.7515
68724 22874 6 0.7 26.4534 9.21267 11.6343
68725 22874 5 -0.35 26.2037 9.02557 10.517
68735 22878 5 -0.35 14.9402 9.30822 12.8267
68736 22878 6 0.7 16.0378 9.11281 12.5064
68737 22878 5 -0.35 17.1354 8.91741 12.1861
68741 22880 5 -0.35 19.1525 14.1132 12.1993
68742 22880 6 0.7 18.6579 13.8472 13.2143
68743 22880 5 -0.35 18.1633 13.5811 14.2292
68744 22881 5 -0.35 17.7689 6.7739 0.378745
68745 22881 6 0.7 17.4653 5.78161 0.897188
68746 22881 5 -0.35 17.1617 4.78931 1.41563
68747 22882 5 -0.35 21.3548 14.8904 5.31608
68748 22882 6 0.7 21.1946 15.1663 4.20081
68749 22882 5 -0.35 21.0344 15.4422 3.08555
68753 22884 5 -0.35 13.8685 3.7336 2.94361
68754 22884 6 0.7 14.2058 4.62969 3.59849
68755 22884 5 -0.35 14.5431 5.52578 4.25336
68765 22888 5 -0.35 15.1545 6.31278 10.143
68766 22888 6 0.7 14.2797 5.64836 10.5158
68767 22888 5 -0.35 13.405 4.98394 10.8885
68774 22891 5 -0.35 15.9818 6.28567 7.02708
68775 22891 6 0.7 16.156 7.34911 6.59773
68776 22891 5 -0.35 16.3302 8.41255 6.16837
68786 22895 5 -0.35 22.1203 12.3744 0.0249935
68787 22895 6 0.7 30.8046 17.8905 13.8974
68788 22895 5 -0.35 30.3559 18.1336 12.8557
68789 22896 5 -0.35 20.0679 17.2826 12.4119
68790 22896 6 0.7 20.9607 17.3566 11.675
68791 22896 5 -0.35 21.8536 17.4307 10.9381
68792 22897 5 -0.35 23.988 7.67434 13.1094
68793 22897 6 0.7 24.0211 8.71209 13.6267
68794 22897 5 -0.35 24.0543 9.74984 14.144
68798 22899 5 -0.35 11.3663 9.656 11.1814
68799 22899 6 0.7 12.2502 9.06325 10.7199
68800 22899 5 -0.35 13.1341 8.47051 10.2584
68834 22911 5 -0.35 16.5334 15.6678 13.0095
68835 22911 6 0.7 15.7158 16.3072 12.4916
68836 22911 5 -0.35 14.8981 16.9466 11.9737
68843 22914 5 -0.35 18.2297 5.49689 9.91833
68844 22914 6 0.7 18.5332 5.34153 8.80956
68845 22914 5 -0.35 18.8367 5.18616 7.70079
68858 22919 5 -0.35 22.0299 4.61832 3.53234
68859 22919 6 0.7 21.6505 4.06087 2.58843
68860 22919 5 -0.35 3.00523 3.50342 1.64452
68870 22923 5 -0.35 25.1861 12.2795 2.45262
68871 22923 6 0.7 25.316 12.6357 1.35632
68872 22923 5 -0.35 25.446 12.9919 0.260034
68873 22924 5 -0.35 14.401 11.7809 8.92225
68874 22924 6 0.7 13.8829 12.509 8.18265
68875 22924 5 -0.35 13.3647 13.2371 7.44306
68876 22925 5 -0.35 17.3384 13.5275 5.16688
68877 22925 6 0.7 17.4212 13.7042 6.31035
68878 22925 5 -0.35 17.5041 13.8808 7.45382
68879 22926 5 -0.35 17.5423 11.5524 10.2094
68880 22926 6 0.7 18.6057 11.8866 9.88844
68881 22926 5 -0.35 19.6691 12.2208 9.56744
68882 22927 5 -0.35 21.0217 9.74081 6.21777
68883 22927 6 0.7 21.5513 10.7565 6.40091
68884 22927 5 -0.35 22.0809 11.7721 6.58404
68885 22928 5 -0.35 9.73618 14.3175 1.60567
68886 22928 6 0.7 10.1883 15.2869 2.0544
68887 22928 5 -0.35 10.6405 16.2563 2.50313
ITEM: TIMESTEP
94000
ITEM: NUMBER OF ATOMS
169
ITEM: BOX BOUNDS xy xz yz pp pp pp
0.0000000000000000e+00 3.6531964750000000e+01 9.1329911900000003e+00
0.0000000000000000e+00 2.1091739680000000e+01 9.1329911900000003e+00
0.0000000000000000e+00 1.4914112149999999e+01 5.2729349200000000e+00
ITEM: ATOMS id mol type q x y z
1 1 1 1.10383 27.399 17.6496 10.5383
2 1 1 1.10383 9.13299 3.44217 4.3758
3 1 1 1.10383 27.399 15.8188 13.1274
4 1 1 1.10383 9.13299 5.27293 1.78671
5 1 1 1.10383 25.8135 14.9034 10.5383
6 1 1 1.10383 10.7185 6.18832 4.3758
7 1 1 1.10383 28.9845 14.9034 10.5383
8 1 1 1.10383 7.5475 6.18832 4.3758
9 1 2 0.115889 18.266 5.48596 12.6084
10 1 2 0.115889 18.266 15.6058 2.30572
11 1 2 0.115888 18.266 13.716 0.969417
12 1 2 0.115888 18.266 7.37578 13.9447
13 1 2 0.11589 25.3934 11.4908 8.12521
14 1 2 0.11589 11.1386 9.60096 6.7889
15 1 2 0.115888 11.1386 11.4908 8.12521
16 1 2 0.115888 25.3934 9.60096 6.7889
17 1 2 0.115889 15.5206 8.96083 0.969417
18 1 2 0.115889 21.0114 12.1309 13.9447
19 1 2 0.115888 22.648 13.0758 12.6084
20 1 2 0.115888 13.884 8.01592 2.30572
21 1 2 0.115889 21.0114 3.90092 8.12521
22 1 2 0.115889 15.5206 17.1908 6.7889
23 1 2 0.115887 13.884 16.2459 8.12521
24 1 2 0.115887 22.648 4.84583 6.7889
25 1 2 0.115889 22.648 16.2459 8.12521
26 1 2 0.115889 13.884 4.84583 6.7889
27 1 2 0.115887 15.5206 3.90092 8.12521
28 1 2 0.115887 21.0114 17.1908 6.7889
29 1 2 0.115889 21.0114 8.96083 0.969417
30 1 2 0.115889 15.5206 12.1309 13.9447
31 1 2 0.115887 13.884 13.0758 12.6084
32 1 2 0.115887 22.648 8.01592 2.30572
33 1 3 0.671939 27.399 18.7442 13.2542
34 1 3 0.671939 9.13299 2.34751 1.65994
35 1 3 0.671939 27.399 12.8934 9.117
36 1 3 0.671939 9.13299 8.19836 5.79712
37 1 3 0.67194 24.8655 14.3561 13.2542
38 1 3 0.67194 11.6665 6.73565 1.65994
39 1 3 0.67194 29.9325 17.2815 9.117
40 1 3 0.67194 6.5995 3.81022 5.79712
41 1 3 0.67194 24.8655 17.2815 9.117
42 1 3 0.67194 11.6665 3.81022 5.79712
43 1 3 0.67194 29.9325 14.3561 13.2542
44 1 3 0.67194 6.5995 6.73565 1.65994
45 1 3 -0.11508 27.399 19.957 14.1117
46 1 3 -0.11508 9.13299 1.13474 0.802379
47 1 3 -0.11508 27.399 11.6806 8.25944
48 1 3 -0.11508 9.13299 9.41113 6.65468
49 1 3 -0.11508 23.8152 13.7497 14.1117
50 1 3 -0.11508 12.7168 7.34203 0.802379
51 1 3 -0.11508 30.9828 17.8879 8.25944
52 1 3 -0.11508 5.54921 3.20384 6.65468
53 1 3 -0.11508 23.8152 17.8879 8.25944
54 1 3 -0.11508 12.7168 3.20384 6.65468
55 1 3 -0.11508 30.9828 13.7497 14.1117
56 1 3 -0.11508 5.54921 7.34203 0.802379
57 1 3 -0.0559 18.266 5.39949 13.5316
58 1 3 -0.0559 18.266 15.6923 1.38254
59 1 3 -0.055903 18.266 14.5575 0.580159
60 1 3 -0.055903 18.266 6.53422 14.334
61 1 3 -0.0559 26.1971 11.1132 7.85825
62 1 3 -0.0559 10.3349 9.9785 7.05587
63 1 3 -0.055903 10.3349 11.1132 7.85825
64 1 3 -0.055903 26.1971 9.9785 7.05587
65 1 3 -0.0559 14.7918 8.54005 0.580159
66 1 3 -0.0559 21.7402 12.5517 14.334
67 1 3 -0.055903 22.7229 13.1191 13.5316
68 1 3 -0.055903 13.8091 7.97268 1.38254
69 1 3 -0.0559 21.7402 3.39366 7.85825
70 1 3 -0.0559 14.7918 17.6981 7.05587
71 1 3 -0.055903 13.8091 17.1307 7.85825
72 1 3 -0.055903 22.7229 3.96103 7.05587
73 1 3 -0.055901 22.7229 17.1307 7.85825
74 1 3 -0.055901 13.8091 3.96103 7.05587
75 1 3 -0.055903 14.7918 3.39366 7.85825
76 1 3 -0.055903 21.7402 17.6981 7.05587
77 1 3 -0.0559 21.7402 8.54005 0.580159
78 1 3 -0.0559 14.7918 12.5517 14.334
79 1 3 -0.055903 13.8091 13.1191 13.5316
80 1 3 -0.055903 22.7229 7.97268 1.38254
81 1 4 -1.26215 27.399 15.8188 11.1856
82 1 4 -1.26215 9.13299 5.27293 3.72853
83 1 4 -0.60118 27.399 18.9383 11.9641
84 1 4 -0.60118 9.13299 2.15347 2.95001
85 1 4 -0.601179 27.399 17.5926 13.8671
86 1 4 -0.601179 9.13299 3.49912 1.04697
87 1 4 -0.601179 26.2336 13.3722 9.45555
88 1 4 -0.601179 10.2984 7.71958 5.45857
89 1 4 -0.60118 28.5643 13.3722 9.45555
90 1 4 -0.60118 7.96762 7.71958 5.45857
91 1 4 -0.60118 25.8628 14.9319 13.8671
92 1 4 -0.60118 10.6692 6.15984 1.04697
93 1 4 -0.601179 24.6974 14.2591 11.9641
94 1 4 -0.601179 11.8345 6.83267 2.95001
95 1 4 -0.60118 28.9351 18.0514 9.45555
96 1 4 -0.60118 7.59682 3.04037 5.45857
97 1 4 -0.601179 30.1005 16.0329 9.45555
98 1 4 -0.601179 6.43145 5.05885 5.45857
99 1 4 -0.601179 24.6974 16.0329 9.45555
100 1 4 -0.601179 11.8345 5.05885 5.45857
101 1 4 -0.60118 25.8628 18.0514 9.45555
102 1 4 -0.60118 10.6692 3.04037 5.45857
103 1 4 -0.60118 28.9351 14.9319 13.8671
104 1 4 -0.60118 7.59682 6.15984 1.04697
105 1 4 -0.60118 30.1005 14.2591 11.9641
106 1 4 -0.60118 6.43145 6.83267 2.95001
68663 22854 5 -0.35 10.042 9.37269 2.99107
68664 22854 6 0.7 11.136 9.56126 3.32745
68665 22854 5 -0.35 12.23 9.74983 3.66382
68753 22884 5 -0.35 15.0625 4.15513 3.67764
68754 22884 6 0.7 15.5967 4.96221 4.31711
68755 22884 5 -0.35 16.1308 5.76929 4.95659
69182 23027 5 -0.35 17.5287 6.48282 0.131946
69183 23027 6 0.7 26.6554 11.5403 13.9063
69184 23027 5 -0.35 26.6492 11.3249 12.7665
69191 23030 5 -0.35 16.3191 15.3652 14.1748
69192 23030 6 0.7 7.32151 10.6452 0.271469
69193 23030 5 -0.35 7.45689 11.1981 1.2822
69287 23062 5 -0.35 27.3503 16.0122 7.78453
69288 23062 6 0.7 26.6101 15.8485 6.90647
69289 23062 5 -0.35 25.87 15.6848 6.02841
69365 23088 5 -0.35 29.607 11.0201 13.523
69366 23088 6 0.7 11.9292 10.7934 12.5492
69367 23088 5 -0.35 12.5174 10.5666 11.5754
69380 23093 5 -0.35 12.5108 1.3716 2.4277
69381 23093 6 0.7 12.7595 2.44013 2.05088
69382 23093 5 -0.35 13.0081 3.50867 1.67405
69458 23119 5 -0.35 32.135 17.3736 14.2861
69459 23119 6 0.7 31.381 17.3979 13.4049
69460 23119 5 -0.35 30.6271 17.4221 12.5236
69482 23127 5 -0.35 24.8913 9.33749 10.6421
69483 23127 6 0.7 26.0305 9.13138 10.7162
69484 23127 5 -0.35 27.1696 8.92528 10.7904
69512 23137 5 -0.35 30.523 20.4434 14.8403
69513 23137 6 0.7 21.7217 5.70314 14.5713
69514 23137 5 -0.35 22.0534 6.78167 14.3024
69545 23148 5 -0.35 20.0457 15.9234 13.9963
69546 23148 6 0.7 20.3165 16.4538 13.0009
69547 23148 5 -0.35 20.5874 16.9843 12.0055
69563 23154 5 -0.35 15.1421 13.3524 0.142222
69564 23154 6 0.7 24.0912 17.8735 14.1924
69565 23154 5 -0.35 23.9072 17.1217 13.3284
69578 23159 5 -0.35 9.91344 12.8731 4.82601
69579 23159 6 0.7 9.73157 13.0719 3.69773
69580 23159 5 -0.35 9.5497 13.2706 2.56944
69587 23162 5 -0.35 14.6668 6.19175 14.6589
69588 23162 6 0.7 5.13198 0.699652 0.810697
69589 23162 5 -0.35 13.8631 16.2993 1.87657
69632 23177 5 -0.35 18.9504 4.52015 5.44829
69633 23177 6 0.7 18.8696 4.10969 4.36636
69634 23177 5 -0.35 18.7887 3.69922 3.28443
69635 23178 5 -0.35 17.7701 8.37954 6.18906
69636 23178 6 0.7 17.1071 8.69682 5.2917
69637 23178 5 -0.35 16.444 9.0141 4.39434
69638 23179 5 -0.35 19.6952 6.21766 8.75025
69639 23179 6 0.7 20.1801 6.43666 7.71944
69640 23179 5 -0.35 20.6649 6.65566 6.68863
69641 23180 5 -0.35 18.8746 9.87075 9.35961
69642 23180 6 0.7 17.7547 9.7325 9.09082
69643 23180 5 -0.35 16.6347 9.59425 8.82203
69644 23181 5 -0.35 5.85044 4.21435 0.0787285
69645 23181 6 0.7 15.1365 9.57704 13.8465
69646 23181 5 -0.35 15.2896 9.6668 12.7001
69647 23182 5 -0.35 21.1058 13.6725 7.09467
69648 23182 6 0.7 21.0213 13.8761 8.23352
69649 23182 5 -0.35 20.9369 14.0798 9.37236
69650 23183 5 -0.35 22.0367 9.41568 11.7674
69651 23183 6 0.7 20.97 9.30698 12.21
69652 23183 5 -0.35 19.9033 9.19829 12.6527
ITEM: TIMESTEP
95000
ITEM: NUMBER OF ATOMS
181
ITEM: BOX BOUNDS xy xz yz pp pp pp
0.0000000000000000e+00 3.6531964750000000e+01 9.1329911900000003e+00
0.0000000000000000e+00 2.1091739680000000e+01 9.1329911900000003e+00
0.0000000000000000e+00 1.4914112149999999e+01 5.2729349200000000e+00
ITEM: ATOMS id mol type q x y z
1 1 1 1.10383 27.399 17.6496 10.5383
2 1 1 1.10383 9.13299 3.44217 4.3758
3 1 1 1.10383 27.399 15.8188 13.1274
4 1 1 1.10383 9.13299 5.27293 1.78671
5 1 1 1.10383 25.8135 14.9034 10.5383
6 1 1 1.10383 10.7185 6.18832 4.3758
7 1 1 1.10383 28.9845 14.9034 10.5383
8 1 1 1.10383 7.5475 6.18832 4.3758
9 1 2 0.115889 18.266 5.48596 12.6084
10 1 2 0.115889 18.266 15.6058 2.30572
11 1 2 0.115888 18.266 13.716 0.969417
12 1 2 0.115888 18.266 7.37578 13.9447
13 1 2 0.11589 25.3934 11.4908 8.12521
14 1 2 0.11589 11.1386 9.60096 6.7889
15 1 2 0.115888 11.1386 11.4908 8.12521
16 1 2 0.115888 25.3934 9.60096 6.7889
17 1 2 0.115889 15.5206 8.96083 0.969417
18 1 2 0.115889 21.0114 12.1309 13.9447
19 1 2 0.115888 22.648 13.0758 12.6084
20 1 2 0.115888 13.884 8.01592 2.30572
21 1 2 0.115889 21.0114 3.90092 8.12521
22 1 2 0.115889 15.5206 17.1908 6.7889
23 1 2 0.115887 13.884 16.2459 8.12521
24 1 2 0.115887 22.648 4.84583 6.7889
25 1 2 0.115889 22.648 16.2459 8.12521
26 1 2 0.115889 13.884 4.84583 6.7889
27 1 2 0.115887 15.5206 3.90092 8.12521
28 1 2 0.115887 21.0114 17.1908 6.7889
29 1 2 0.115889 21.0114 8.96083 0.969417
30 1 2 0.115889 15.5206 12.1309 13.9447
31 1 2 0.115887 13.884 13.0758 12.6084
32 1 2 0.115887 22.648 8.01592 2.30572
33 1 3 0.671939 27.399 18.7442 13.2542
34 1 3 0.671939 9.13299 2.34751 1.65994
35 1 3 0.671939 27.399 12.8934 9.117
36 1 3 0.671939 9.13299 8.19836 5.79712
37 1 3 0.67194 24.8655 14.3561 13.2542
38 1 3 0.67194 11.6665 6.73565 1.65994
39 1 3 0.67194 29.9325 17.2815 9.117
40 1 3 0.67194 6.5995 3.81022 5.79712
41 1 3 0.67194 24.8655 17.2815 9.117
42 1 3 0.67194 11.6665 3.81022 5.79712
43 1 3 0.67194 29.9325 14.3561 13.2542
44 1 3 0.67194 6.5995 6.73565 1.65994
45 1 3 -0.11508 27.399 19.957 14.1117
46 1 3 -0.11508 9.13299 1.13474 0.802379
47 1 3 -0.11508 27.399 11.6806 8.25944
48 1 3 -0.11508 9.13299 9.41113 6.65468
49 1 3 -0.11508 23.8152 13.7497 14.1117
50 1 3 -0.11508 12.7168 7.34203 0.802379
51 1 3 -0.11508 30.9828 17.8879 8.25944
52 1 3 -0.11508 5.54921 3.20384 6.65468
53 1 3 -0.11508 23.8152 17.8879 8.25944
54 1 3 -0.11508 12.7168 3.20384 6.65468
55 1 3 -0.11508 30.9828 13.7497 14.1117
56 1 3 -0.11508 5.54921 7.34203 0.802379
57 1 3 -0.0559 18.266 5.39949 13.5316
58 1 3 -0.0559 18.266 15.6923 1.38254
59 1 3 -0.055903 18.266 14.5575 0.580159
60 1 3 -0.055903 18.266 6.53422 14.334
61 1 3 -0.0559 26.1971 11.1132 7.85825
62 1 3 -0.0559 10.3349 9.9785 7.05587
63 1 3 -0.055903 10.3349 11.1132 7.85825
64 1 3 -0.055903 26.1971 9.9785 7.05587
65 1 3 -0.0559 14.7918 8.54005 0.580159
66 1 3 -0.0559 21.7402 12.5517 14.334
67 1 3 -0.055903 22.7229 13.1191 13.5316
68 1 3 -0.055903 13.8091 7.97268 1.38254
69 1 3 -0.0559 21.7402 3.39366 7.85825
70 1 3 -0.0559 14.7918 17.6981 7.05587
71 1 3 -0.055903 13.8091 17.1307 7.85825
72 1 3 -0.055903 22.7229 3.96103 7.05587
73 1 3 -0.055901 22.7229 17.1307 7.85825
74 1 3 -0.055901 13.8091 3.96103 7.05587
75 1 3 -0.055903 14.7918 3.39366 7.85825
76 1 3 -0.055903 21.7402 17.6981 7.05587
77 1 3 -0.0559 21.7402 8.54005 0.580159
78 1 3 -0.0559 14.7918 12.5517 14.334
79 1 3 -0.055903 13.8091 13.1191 13.5316
80 1 3 -0.055903 22.7229 7.97268 1.38254
81 1 4 -1.26215 27.399 15.8188 11.1856
82 1 4 -1.26215 9.13299 5.27293 3.72853
83 1 4 -0.60118 27.399 18.9383 11.9641
84 1 4 -0.60118 9.13299 2.15347 2.95001
85 1 4 -0.601179 27.399 17.5926 13.8671
86 1 4 -0.601179 9.13299 3.49912 1.04697
87 1 4 -0.601179 26.2336 13.3722 9.45555
88 1 4 -0.601179 10.2984 7.71958 5.45857
89 1 4 -0.60118 28.5643 13.3722 9.45555
90 1 4 -0.60118 7.96762 7.71958 5.45857
91 1 4 -0.60118 25.8628 14.9319 13.8671
92 1 4 -0.60118 10.6692 6.15984 1.04697
93 1 4 -0.601179 24.6974 14.2591 11.9641
94 1 4 -0.601179 11.8345 6.83267 2.95001
95 1 4 -0.60118 28.9351 18.0514 9.45555
96 1 4 -0.60118 7.59682 3.04037 5.45857
97 1 4 -0.601179 30.1005 16.0329 9.45555
98 1 4 -0.601179 6.43145 5.05885 5.45857
99 1 4 -0.601179 24.6974 16.0329 9.45555
100 1 4 -0.601179 11.8345 5.05885 5.45857
101 1 4 -0.60118 25.8628 18.0514 9.45555
102 1 4 -0.60118 10.6692 3.04037 5.45857
103 1 4 -0.60118 28.9351 14.9319 13.8671
104 1 4 -0.60118 7.59682 6.15984 1.04697
105 1 4 -0.60118 30.1005 14.2591 11.9641
106 1 4 -0.60118 6.43145 6.83267 2.95001
68753 22884 5 -0.35 16.3693 4.29184 2.14378
68754 22884 6 0.7 15.6824 4.60443 3.02478
68755 22884 5 -0.35 14.9956 4.91701 3.90578
69380 23093 5 -0.35 24.586 14.6083 5.29407
69381 23093 6 0.7 24.6193 15.7412 5.0474
69382 23093 5 -0.35 24.6525 16.8742 4.80074
69644 23181 5 -0.35 5.49535 3.07205 0.614745
69645 23181 6 0.7 15.0235 8.31522 14.4387
69646 23181 5 -0.35 15.4187 8.28546 13.3484
69830 23243 5 -0.35 20.215 6.15646 1.91845
69831 23243 6 0.7 19.6744 6.42004 0.926564
69832 23243 5 -0.35 28.2667 11.9566 14.8488
69854 23251 5 -0.35 22.5572 13.4169 2.08614
69855 23251 6 0.7 23.1939 13.511 1.12109
69856 23251 5 -0.35 23.8307 13.605 0.156046
69866 23255 5 -0.35 19.3145 15.0421 4.9264
69867 23255 6 0.7 20.323 15.5593 4.67963
69868 23255 5 -0.35 21.3316 16.0766 4.43286
69917 23272 5 -0.35 14.9364 16.1377 3.33588
69918 23272 6 0.7 13.9881 16.0382 3.99654
69919 23272 5 -0.35 13.0398 15.9386 4.6572
69989 23296 5 -0.35 9.02787 9.04594 2.07444
69990 23296 6 0.7 8.046 9.4803 1.63527
69991 23296 5 -0.35 7.06413 9.91465 1.1961
70040 23313 5 -0.35 9.45011 4.81821 7.67233
70041 23313 6 0.7 8.98008 5.11302 8.69104
70042 23313 5 -0.35 8.51006 5.40784 9.70974
70082 23327 5 -0.35 12.9749 11.7002 5.4625
70083 23327 6 0.7 13.5812 10.9767 4.78835
70084 23327 5 -0.35 14.1875 10.2531 4.11419
70094 23331 5 -0.35 21.2425 3.72055 4.32608
70095 23331 6 0.7 3.82549 4.02657 3.59727
70096 23331 5 -0.35 4.67448 4.3326 2.86846
70097 23332 5 -0.35 28.0005 16.484 6.3109
70098 23332 6 0.7 28.0103 16.7474 5.18125
70099 23332 5 -0.35 28.0201 17.0108 4.0516
70103 23334 5 -0.35 23.1198 11.5941 5.5167
70104 23334 6 0.7 24.0642 11.4092 4.8691
70105 23334 5 -0.35 25.0087 11.2242 4.22149
70127 23342 5 -0.35 27.3157 13.7 4.48643
70128 23342 6 0.7 9.42878 12.6055 4.42283
70129 23342 5 -0.35 9.80786 11.5111 4.35923
70157 23352 5 -0.35 18.5383 9.87409 10.7163
70158 23352 6 0.7 19.1806 8.91803 10.8544
70159 23352 5 -0.35 19.8228 7.96197 10.9925
70193 23364 5 -0.35 15.1367 5.51871 12.9271
70194 23364 6 0.7 14.8233 4.58198 12.3189
70195 23364 5 -0.35 23.643 19.464 11.7106
70196 23365 5 -0.35 26.6704 14.9043 1.51698
70197 23365 6 0.7 9.47064 14.5273 1.25888
70198 23365 5 -0.35 10.5369 14.1503 1.00078
70199 23366 5 -0.35 17.7785 5.87625 8.59906
70200 23366 6 0.7 17.2698 6.40317 9.4986
70201 23366 5 -0.35 16.7611 6.93009 10.3981
70208 23369 5 -0.35 18.9543 17.3996 12.1584
70209 23369 6 0.7 18.4089 17.7719 11.2047
70210 23369 5 -0.35 17.8635 18.1441 10.2509
70211 23370 5 -0.35 11.852 10.8563 1.868
70212 23370 6 0.7 11.3826 10.6744 0.822954
70213 23370 5 -0.35 20.0461 15.7654 14.692
70214 23371 5 -0.35 13.4467 7.84187 9.68677
70215 23371 6 0.7 13.0505 7.40127 10.684
70216 23371 5 -0.35 12.6543 6.96066 11.6813
70217 23372 5 -0.35 14.7056 17.5307 10.8274
70218 23372 6 0.7 15.0423 16.4395 11.0312
70219 23372 5 -0.35 15.379 15.3483 11.235
70220 23373 5 -0.35 27.761 6.941 14.6678
70221 23373 6 0.7 10.5152 7.47196 14.5159
70222 23373 5 -0.35 11.5353 8.00291 14.364
70223 23374 5 -0.35 22.4685 12.5188 9.44129
70224 23374 6 0.7 21.3894 12.6021 9.02386
70225 23374 5 -0.35 20.3104 12.6854 8.60642
70226 23375 5 -0.35 17.7367 12.7275 5.92699
70227 23375 6 0.7 18.1189 11.7805 5.37681
70228 23375 5 -0.35 18.5012 10.8335 4.82664
ITEM: TIMESTEP
96000
ITEM: NUMBER OF ATOMS
163
ITEM: BOX BOUNDS xy xz yz pp pp pp
0.0000000000000000e+00 3.6531964750000000e+01 9.1329911900000003e+00
0.0000000000000000e+00 2.1091739680000000e+01 9.1329911900000003e+00
0.0000000000000000e+00 1.4914112149999999e+01 5.2729349200000000e+00
ITEM: ATOMS id mol type q x y z
1 1 1 1.10383 27.399 17.6496 10.5383
2 1 1 1.10383 9.13299 3.44217 4.3758
3 1 1 1.10383 27.399 15.8188 13.1274
4 1 1 1.10383 9.13299 5.27293 1.78671
5 1 1 1.10383 25.8135 14.9034 10.5383
6 1 1 1.10383 10.7185 6.18832 4.3758
7 1 1 1.10383 28.9845 14.9034 10.5383
8 1 1 1.10383 7.5475 6.18832 4.3758
9 1 2 0.115889 18.266 5.48596 12.6084
10 1 2 0.115889 18.266 15.6058 2.30572
11 1 2 0.115888 18.266 13.716 0.969417
12 1 2 0.115888 18.266 7.37578 13.9447
13 1 2 0.11589 25.3934 11.4908 8.12521
14 1 2 0.11589 11.1386 9.60096 6.7889
15 1 2 0.115888 11.1386 11.4908 8.12521
16 1 2 0.115888 25.3934 9.60096 6.7889
17 1 2 0.115889 15.5206 8.96083 0.969417
18 1 2 0.115889 21.0114 12.1309 13.9447
19 1 2 0.115888 22.648 13.0758 12.6084
20 1 2 0.115888 13.884 8.01592 2.30572
21 1 2 0.115889 21.0114 3.90092 8.12521
22 1 2 0.115889 15.5206 17.1908 6.7889
23 1 2 0.115887 13.884 16.2459 8.12521
24 1 2 0.115887 22.648 4.84583 6.7889
25 1 2 0.115889 22.648 16.2459 8.12521
26 1 2 0.115889 13.884 4.84583 6.7889
27 1 2 0.115887 15.5206 3.90092 8.12521
28 1 2 0.115887 21.0114 17.1908 6.7889
29 1 2 0.115889 21.0114 8.96083 0.969417
30 1 2 0.115889 15.5206 12.1309 13.9447
31 1 2 0.115887 13.884 13.0758 12.6084
32 1 2 0.115887 22.648 8.01592 2.30572
33 1 3 0.671939 27.399 18.7442 13.2542
34 1 3 0.671939 9.13299 2.34751 1.65994
35 1 3 0.671939 27.399 12.8934 9.117
36 1 3 0.671939 9.13299 8.19836 5.79712
37 1 3 0.67194 24.8655 14.3561 13.2542
38 1 3 0.67194 11.6665 6.73565 1.65994
39 1 3 0.67194 29.9325 17.2815 9.117
40 1 3 0.67194 6.5995 3.81022 5.79712
41 1 3 0.67194 24.8655 17.2815 9.117
42 1 3 0.67194 11.6665 3.81022 5.79712
43 1 3 0.67194 29.9325 14.3561 13.2542
44 1 3 0.67194 6.5995 6.73565 1.65994
45 1 3 -0.11508 27.399 19.957 14.1117
46 1 3 -0.11508 9.13299 1.13474 0.802379
47 1 3 -0.11508 27.399 11.6806 8.25944
48 1 3 -0.11508 9.13299 9.41113 6.65468
49 1 3 -0.11508 23.8152 13.7497 14.1117
50 1 3 -0.11508 12.7168 7.34203 0.802379
51 1 3 -0.11508 30.9828 17.8879 8.25944
52 1 3 -0.11508 5.54921 3.20384 6.65468
53 1 3 -0.11508 23.8152 17.8879 8.25944
54 1 3 -0.11508 12.7168 3.20384 6.65468
55 1 3 -0.11508 30.9828 13.7497 14.1117
56 1 3 -0.11508 5.54921 7.34203 0.802379
57 1 3 -0.0559 18.266 5.39949 13.5316
58 1 3 -0.0559 18.266 15.6923 1.38254
59 1 3 -0.055903 18.266 14.5575 0.580159
60 1 3 -0.055903 18.266 6.53422 14.334
61 1 3 -0.0559 26.1971 11.1132 7.85825
62 1 3 -0.0559 10.3349 9.9785 7.05587
63 1 3 -0.055903 10.3349 11.1132 7.85825
64 1 3 -0.055903 26.1971 9.9785 7.05587
65 1 3 -0.0559 14.7918 8.54005 0.580159
66 1 3 -0.0559 21.7402 12.5517 14.334
67 1 3 -0.055903 22.7229 13.1191 13.5316
68 1 3 -0.055903 13.8091 7.97268 1.38254
69 1 3 -0.0559 21.7402 3.39366 7.85825
70 1 3 -0.0559 14.7918 17.6981 7.05587
71 1 3 -0.055903 13.8091 17.1307 7.85825
72 1 3 -0.055903 22.7229 3.96103 7.05587
73 1 3 -0.055901 22.7229 17.1307 7.85825
74 1 3 -0.055901 13.8091 3.96103 7.05587
75 1 3 -0.055903 14.7918 3.39366 7.85825
76 1 3 -0.055903 21.7402 17.6981 7.05587
77 1 3 -0.0559 21.7402 8.54005 0.580159
78 1 3 -0.0559 14.7918 12.5517 14.334
79 1 3 -0.055903 13.8091 13.1191 13.5316
80 1 3 -0.055903 22.7229 7.97268 1.38254
81 1 4 -1.26215 27.399 15.8188 11.1856
82 1 4 -1.26215 9.13299 5.27293 3.72853
83 1 4 -0.60118 27.399 18.9383 11.9641
84 1 4 -0.60118 9.13299 2.15347 2.95001
85 1 4 -0.601179 27.399 17.5926 13.8671
86 1 4 -0.601179 9.13299 3.49912 1.04697
87 1 4 -0.601179 26.2336 13.3722 9.45555
88 1 4 -0.601179 10.2984 7.71958 5.45857
89 1 4 -0.60118 28.5643 13.3722 9.45555
90 1 4 -0.60118 7.96762 7.71958 5.45857
91 1 4 -0.60118 25.8628 14.9319 13.8671
92 1 4 -0.60118 10.6692 6.15984 1.04697
93 1 4 -0.601179 24.6974 14.2591 11.9641
94 1 4 -0.601179 11.8345 6.83267 2.95001
95 1 4 -0.60118 28.9351 18.0514 9.45555
96 1 4 -0.60118 7.59682 3.04037 5.45857
97 1 4 -0.601179 30.1005 16.0329 9.45555
98 1 4 -0.601179 6.43145 5.05885 5.45857
99 1 4 -0.601179 24.6974 16.0329 9.45555
100 1 4 -0.601179 11.8345 5.05885 5.45857
101 1 4 -0.60118 25.8628 18.0514 9.45555
102 1 4 -0.60118 10.6692 3.04037 5.45857
103 1 4 -0.60118 28.9351 14.9319 13.8671
104 1 4 -0.60118 7.59682 6.15984 1.04697
105 1 4 -0.60118 30.1005 14.2591 11.9641
106 1 4 -0.60118 6.43145 6.83267 2.95001
69644 23181 5 -0.35 6.00028 3.65743 0.872376
69645 23181 6 0.7 15.3681 9.15631 14.6732
69646 23181 5 -0.35 15.6029 9.38226 13.5599
70397 23432 5 -0.35 9.84156 10.7081 3.70983
70398 23432 6 0.7 9.5448 9.8956 2.93697
70399 23432 5 -0.35 9.24803 9.08306 2.1641
70400 23433 5 -0.35 30.6916 18.6519 11.7414
70401 23433 6 0.7 31.8392 18.4905 11.6896
70402 23433 5 -0.35 32.9867 18.3291 11.6378
70463 23454 5 -0.35 15.9228 15.4604 12.2716
70464 23454 6 0.7 16.116 15.903 13.3263
70465 23454 5 -0.35 16.3093 16.3455 14.3811
70514 23471 5 -0.35 20.8423 5.05711 4.52981
70515 23471 6 0.7 21.693 4.87623 3.7622
70516 23471 5 -0.35 4.2777 4.69534 2.99459
70574 23491 5 -0.35 21.2776 15.4938 12.5012
70575 23491 6 0.7 21.8526 16.4548 12.8036
70576 23491 5 -0.35 22.4275 17.4159 13.106
70586 23495 5 -0.35 21.0698 7.07253 10.4529
70587 23495 6 0.7 21.8798 6.24847 10.3513
70588 23495 5 -0.35 22.6899 5.42441 10.2497
70610 23503 5 -0.35 11.9857 12.749 0.641411
70611 23503 6 0.7 12.5547 12.3746 1.58034
70612 23503 5 -0.35 13.1238 12.0001 2.51928
70616 23505 5 -0.35 24.0662 19.6313 14.1619
70617 23505 6 0.7 23.8932 20.0857 13.1087
70618 23505 5 -0.35 14.5873 4.72126 12.0555
70628 23509 5 -0.35 31.2935 19.0453 14.8753
70629 23509 6 0.7 21.7995 14.5137 0.777096
70630 23509 5 -0.35 21.4385 15.2551 1.59297
70634 23511 5 -0.35 25.1926 16.2833 5.22151
70635 23511 6 0.7 24.3353 16.8326 4.66572
70636 23511 5 -0.35 14.345 1.56317 4.10993
70655 23518 5 -0.35 25.6784 13.624 3.59364
70656 23518 6 0.7 25.2175 13.2379 4.58566
70657 23518 5 -0.35 24.7566 12.8518 5.57768
70658 23519 5 -0.35 14.3103 4.18694 0.768033
70659 23519 6 0.7 15.4355 3.90548 0.752097
70660 23519 5 -0.35 16.5607 3.62401 0.73616
70661 23520 5 -0.35 23.406 6.80982 13.1539
70662 23520 6 0.7 23.8445 7.85986 12.9288
70663 23520 5 -0.35 24.283 8.90991 12.7036
70670 23523 5 -0.35 24.1036 7.79079 9.3255
70671 23523 6 0.7 25.172 7.50145 8.9784
70672 23523 5 -0.35 7.97438 7.21211 8.63131
70673 23524 5 -0.35 19.8556 3.80573 0.0232822
70674 23524 6 0.7 19.9755 3.18184 0.99383
70675 23524 5 -0.35 20.0955 2.55795 1.96438
70676 23525 5 -0.35 28.6264 11.6793 12.6203
70677 23525 6 0.7 28.9558 10.8699 11.8575
70678 23525 5 -0.35 11.0193 10.0605 11.0946
70679 23526 5 -0.35 22.2752 11.9798 7.10082
70680 23526 6 0.7 22.3346 12.7047 8.00451
70681 23526 5 -0.35 22.3939 13.4296 8.9082
70682 23527 5 -0.35 35.5157 20.9758 14.8118
70683 23527 6 0.7 17.9101 20.0417 14.6197
70684 23527 5 -0.35 18.5705 19.1076 14.4276
ITEM: TIMESTEP
97000
ITEM: NUMBER OF ATOMS
190
ITEM: BOX BOUNDS xy xz yz pp pp pp
0.0000000000000000e+00 3.6531964750000000e+01 9.1329911900000003e+00
0.0000000000000000e+00 2.1091739680000000e+01 9.1329911900000003e+00
0.0000000000000000e+00 1.4914112149999999e+01 5.2729349200000000e+00
ITEM: ATOMS id mol type q x y z
1 1 1 1.10383 27.399 17.6496 10.5383
2 1 1 1.10383 9.13299 3.44217 4.3758
3 1 1 1.10383 27.399 15.8188 13.1274
4 1 1 1.10383 9.13299 5.27293 1.78671
5 1 1 1.10383 25.8135 14.9034 10.5383
6 1 1 1.10383 10.7185 6.18832 4.3758
7 1 1 1.10383 28.9845 14.9034 10.5383
8 1 1 1.10383 7.5475 6.18832 4.3758
9 1 2 0.115889 18.266 5.48596 12.6084
10 1 2 0.115889 18.266 15.6058 2.30572
11 1 2 0.115888 18.266 13.716 0.969417
12 1 2 0.115888 18.266 7.37578 13.9447
13 1 2 0.11589 25.3934 11.4908 8.12521
14 1 2 0.11589 11.1386 9.60096 6.7889
15 1 2 0.115888 11.1386 11.4908 8.12521
16 1 2 0.115888 25.3934 9.60096 6.7889
17 1 2 0.115889 15.5206 8.96083 0.969417
18 1 2 0.115889 21.0114 12.1309 13.9447
19 1 2 0.115888 22.648 13.0758 12.6084
20 1 2 0.115888 13.884 8.01592 2.30572
21 1 2 0.115889 21.0114 3.90092 8.12521
22 1 2 0.115889 15.5206 17.1908 6.7889
23 1 2 0.115887 13.884 16.2459 8.12521
24 1 2 0.115887 22.648 4.84583 6.7889
25 1 2 0.115889 22.648 16.2459 8.12521
26 1 2 0.115889 13.884 4.84583 6.7889
27 1 2 0.115887 15.5206 3.90092 8.12521
28 1 2 0.115887 21.0114 17.1908 6.7889
29 1 2 0.115889 21.0114 8.96083 0.969417
30 1 2 0.115889 15.5206 12.1309 13.9447
31 1 2 0.115887 13.884 13.0758 12.6084
32 1 2 0.115887 22.648 8.01592 2.30572
33 1 3 0.671939 27.399 18.7442 13.2542
34 1 3 0.671939 9.13299 2.34751 1.65994
35 1 3 0.671939 27.399 12.8934 9.117
36 1 3 0.671939 9.13299 8.19836 5.79712
37 1 3 0.67194 24.8655 14.3561 13.2542
38 1 3 0.67194 11.6665 6.73565 1.65994
39 1 3 0.67194 29.9325 17.2815 9.117
40 1 3 0.67194 6.5995 3.81022 5.79712
41 1 3 0.67194 24.8655 17.2815 9.117
42 1 3 0.67194 11.6665 3.81022 5.79712
43 1 3 0.67194 29.9325 14.3561 13.2542
44 1 3 0.67194 6.5995 6.73565 1.65994
45 1 3 -0.11508 27.399 19.957 14.1117
46 1 3 -0.11508 9.13299 1.13474 0.802379
47 1 3 -0.11508 27.399 11.6806 8.25944
48 1 3 -0.11508 9.13299 9.41113 6.65468
49 1 3 -0.11508 23.8152 13.7497 14.1117
50 1 3 -0.11508 12.7168 7.34203 0.802379
51 1 3 -0.11508 30.9828 17.8879 8.25944
52 1 3 -0.11508 5.54921 3.20384 6.65468
53 1 3 -0.11508 23.8152 17.8879 8.25944
54 1 3 -0.11508 12.7168 3.20384 6.65468
55 1 3 -0.11508 30.9828 13.7497 14.1117
56 1 3 -0.11508 5.54921 7.34203 0.802379
57 1 3 -0.0559 18.266 5.39949 13.5316
58 1 3 -0.0559 18.266 15.6923 1.38254
59 1 3 -0.055903 18.266 14.5575 0.580159
60 1 3 -0.055903 18.266 6.53422 14.334
61 1 3 -0.0559 26.1971 11.1132 7.85825
62 1 3 -0.0559 10.3349 9.9785 7.05587
63 1 3 -0.055903 10.3349 11.1132 7.85825
64 1 3 -0.055903 26.1971 9.9785 7.05587
65 1 3 -0.0559 14.7918 8.54005 0.580159
66 1 3 -0.0559 21.7402 12.5517 14.334
67 1 3 -0.055903 22.7229 13.1191 13.5316
68 1 3 -0.055903 13.8091 7.97268 1.38254
69 1 3 -0.0559 21.7402 3.39366 7.85825
70 1 3 -0.0559 14.7918 17.6981 7.05587
71 1 3 -0.055903 13.8091 17.1307 7.85825
72 1 3 -0.055903 22.7229 3.96103 7.05587
73 1 3 -0.055901 22.7229 17.1307 7.85825
74 1 3 -0.055901 13.8091 3.96103 7.05587
75 1 3 -0.055903 14.7918 3.39366 7.85825
76 1 3 -0.055903 21.7402 17.6981 7.05587
77 1 3 -0.0559 21.7402 8.54005 0.580159
78 1 3 -0.0559 14.7918 12.5517 14.334
79 1 3 -0.055903 13.8091 13.1191 13.5316
80 1 3 -0.055903 22.7229 7.97268 1.38254
81 1 4 -1.26215 27.399 15.8188 11.1856
82 1 4 -1.26215 9.13299 5.27293 3.72853
83 1 4 -0.60118 27.399 18.9383 11.9641
84 1 4 -0.60118 9.13299 2.15347 2.95001
85 1 4 -0.601179 27.399 17.5926 13.8671
86 1 4 -0.601179 9.13299 3.49912 1.04697
87 1 4 -0.601179 26.2336 13.3722 9.45555
88 1 4 -0.601179 10.2984 7.71958 5.45857
89 1 4 -0.60118 28.5643 13.3722 9.45555
90 1 4 -0.60118 7.96762 7.71958 5.45857
91 1 4 -0.60118 25.8628 14.9319 13.8671
92 1 4 -0.60118 10.6692 6.15984 1.04697
93 1 4 -0.601179 24.6974 14.2591 11.9641
94 1 4 -0.601179 11.8345 6.83267 2.95001
95 1 4 -0.60118 28.9351 18.0514 9.45555
96 1 4 -0.60118 7.59682 3.04037 5.45857
97 1 4 -0.601179 30.1005 16.0329 9.45555
98 1 4 -0.601179 6.43145 5.05885 5.45857
99 1 4 -0.601179 24.6974 16.0329 9.45555
100 1 4 -0.601179 11.8345 5.05885 5.45857
101 1 4 -0.60118 25.8628 18.0514 9.45555
102 1 4 -0.60118 10.6692 3.04037 5.45857
103 1 4 -0.60118 28.9351 14.9319 13.8671
104 1 4 -0.60118 7.59682 6.15984 1.04697
105 1 4 -0.60118 30.1005 14.2591 11.9641
106 1 4 -0.60118 6.43145 6.83267 2.95001
70937 23612 5 -0.35 20.8848 9.4181 13.5083
70938 23612 6 0.7 21.3245 9.07518 14.5255
70939 23612 5 -0.35 12.6311 3.45933 0.628571
71081 23660 5 -0.35 7.83123 4.67467 8.21461
71082 23660 6 0.7 7.12106 4.53553 9.12119
71083 23660 5 -0.35 24.6769 4.3964 10.0278
71174 23691 5 -0.35 32.0012 17.4708 14.3272
71175 23691 6 0.7 32.9032 16.8498 14.7096
71176 23691 5 -0.35 6.4062 10.9557 0.177921
71195 23698 5 -0.35 21.2164 15.0346 4.15502
71196 23698 6 0.7 21.3732 15.5418 3.12364
71197 23698 5 -0.35 21.53 16.0491 2.09226
71219 23706 5 -0.35 19.5332 13.0841 11.7064
71220 23706 6 0.7 18.4489 13.4961 11.7173
71221 23706 5 -0.35 17.3646 13.908 11.7281
71222 23707 5 -0.35 25.5511 14.8536 6.16082
71223 23707 6 0.7 24.818 13.9576 6.23306
71224 23707 5 -0.35 24.0849 13.0615 6.30531
71225 23708 5 -0.35 9.29655 8.74126 1.52418
71226 23708 6 0.7 9.37411 8.98925 0.393656
71227 23708 5 -0.35 18.5847 14.5102 14.1772
71228 23709 5 -0.35 15.5109 3.22152 4.4598
71229 23709 6 0.7 15.228 2.11117 4.6406
71230 23709 5 -0.35 24.078 16.8196 4.82139
71255 23718 5 -0.35 17.8917 2.83379 2.17764
71256 23718 6 0.7 17.259 3.09714 1.24175
71257 23718 5 -0.35 16.6262 3.36049 0.305862
71261 23720 5 -0.35 18.2938 16.0117 6.5538
71262 23720 6 0.7 17.8591 15.3839 5.68049
71263 23720 5 -0.35 17.4245 14.7562 4.80719
71276 23725 5 -0.35 30.7374 20.3779 13.6171
71277 23725 6 0.7 30.8095 20.0444 12.5084
71278 23725 5 -0.35 30.8816 19.711 11.3997
71288 23729 5 -0.35 15.9439 17.3878 10.0985
71289 23729 6 0.7 16.2128 16.4303 9.50142
71290 23729 5 -0.35 16.4817 15.4728 8.90436
71312 23737 5 -0.35 5.03701 1.26239 1.71942
71313 23737 6 0.7 14.6643 16.7575 2.71766
71314 23737 5 -0.35 15.1586 16.4338 3.71591
71321 23740 5 -0.35 23.9247 10.3912 11.7902
71322 23740 6 0.7 23.5583 10.4412 10.6907
71323 23740 5 -0.35 23.1919 10.4911 9.59122
71324 23741 5 -0.35 27.0145 8.10939 12.0499
71325 23741 6 0.7 26.4012 7.76228 11.1285
71326 23741 5 -0.35 25.7879 7.41518 10.2071
71330 23743 5 -0.35 12.3718 10.2335 14.7528
71331 23743 6 0.7 11.7614 9.30112 14.4308
71332 23743 5 -0.35 11.151 8.36873 14.1088
71333 23744 5 -0.35 20.726 16.3778 13.5335
71334 23744 6 0.7 21.8438 16.6522 13.6774
71335 23744 5 -0.35 22.9617 16.9265 13.8214
71336 23745 5 -0.35 18.0407 18.0734 14.1913
71337 23745 6 0.7 18.4014 18.05 13.089
71338 23745 5 -0.35 18.7621 18.0266 11.9868
71348 23749 5 -0.35 23.3288 9.00555 4.70432
71349 23749 6 0.7 24.0452 9.51958 3.95059
71350 23749 5 -0.35 24.7617 10.0336 3.19686
71360 23753 5 -0.35 13.5064 8.87253 11.7829
71361 23753 6 0.7 14.1249 9.61252 11.1383
71362 23753 5 -0.35 14.7434 10.3525 10.4938
71363 23754 5 -0.35 20.7733 10.3725 6.91397
71364 23754 6 0.7 20.727 9.52594 7.70564
71365 23754 5 -0.35 20.6807 8.67934 8.4973
71366 23755 5 -0.35 27.7567 12.0814 14.5287
71367 23755 6 0.7 27.3904 12.3074 13.4515
71368 23755 5 -0.35 27.0241 12.5334 12.3743
71375 23758 5 -0.35 16.7541 6.08508 5.99791
71376 23758 6 0.7 16.6694 6.17798 4.84474
71377 23758 5 -0.35 16.5847 6.27087 3.69157
71378 23759 5 -0.35 19.6237 8.13056 3.54634
71379 23759 6 0.7 18.7809 8.34032 2.77739
71380 23759 5 -0.35 17.9381 8.55008 2.00843
71381 23760 5 -0.35 13.1481 10.6178 4.68144
71382 23760 6 0.7 12.8867 10.8333 3.572
71383 23760 5 -0.35 12.6254 11.0488 2.46256
71384 23761 5 -0.35 11.8604 13.1658 5.18674
71385 23761 6 0.7 11.5593 14.286 5.16998
71386 23761 5 -0.35 11.2582 15.4061 5.15322
71387 23762 5 -0.35 25.7162 15.4734 1.93524
71388 23762 6 0.7 26.5816 15.812 1.24092
71389 23762 5 -0.35 18.3139 0.331791 0.546592
71390 23763 5 -0.35 17.5367 10.5097 10.3822
71391 23763 6 0.7 17.1016 10.3274 9.32252
71392 23763 5 -0.35 16.6665 10.145 8.2628
ITEM: TIMESTEP
98000
ITEM: NUMBER OF ATOMS
187
ITEM: BOX BOUNDS xy xz yz pp pp pp
0.0000000000000000e+00 3.6531964750000000e+01 9.1329911900000003e+00
0.0000000000000000e+00 2.1091739680000000e+01 9.1329911900000003e+00
0.0000000000000000e+00 1.4914112149999999e+01 5.2729349200000000e+00
ITEM: ATOMS id mol type q x y z
1 1 1 1.10383 27.399 17.6496 10.5383
2 1 1 1.10383 9.13299 3.44217 4.3758
3 1 1 1.10383 27.399 15.8188 13.1274
4 1 1 1.10383 9.13299 5.27293 1.78671
5 1 1 1.10383 25.8135 14.9034 10.5383
6 1 1 1.10383 10.7185 6.18832 4.3758
7 1 1 1.10383 28.9845 14.9034 10.5383
8 1 1 1.10383 7.5475 6.18832 4.3758
9 1 2 0.115889 18.266 5.48596 12.6084
10 1 2 0.115889 18.266 15.6058 2.30572
11 1 2 0.115888 18.266 13.716 0.969417
12 1 2 0.115888 18.266 7.37578 13.9447
13 1 2 0.11589 25.3934 11.4908 8.12521
14 1 2 0.11589 11.1386 9.60096 6.7889
15 1 2 0.115888 11.1386 11.4908 8.12521
16 1 2 0.115888 25.3934 9.60096 6.7889
17 1 2 0.115889 15.5206 8.96083 0.969417
18 1 2 0.115889 21.0114 12.1309 13.9447
19 1 2 0.115888 22.648 13.0758 12.6084
20 1 2 0.115888 13.884 8.01592 2.30572
21 1 2 0.115889 21.0114 3.90092 8.12521
22 1 2 0.115889 15.5206 17.1908 6.7889
23 1 2 0.115887 13.884 16.2459 8.12521
24 1 2 0.115887 22.648 4.84583 6.7889
25 1 2 0.115889 22.648 16.2459 8.12521
26 1 2 0.115889 13.884 4.84583 6.7889
27 1 2 0.115887 15.5206 3.90092 8.12521
28 1 2 0.115887 21.0114 17.1908 6.7889
29 1 2 0.115889 21.0114 8.96083 0.969417
30 1 2 0.115889 15.5206 12.1309 13.9447
31 1 2 0.115887 13.884 13.0758 12.6084
32 1 2 0.115887 22.648 8.01592 2.30572
33 1 3 0.671939 27.399 18.7442 13.2542
34 1 3 0.671939 9.13299 2.34751 1.65994
35 1 3 0.671939 27.399 12.8934 9.117
36 1 3 0.671939 9.13299 8.19836 5.79712
37 1 3 0.67194 24.8655 14.3561 13.2542
38 1 3 0.67194 11.6665 6.73565 1.65994
39 1 3 0.67194 29.9325 17.2815 9.117
40 1 3 0.67194 6.5995 3.81022 5.79712
41 1 3 0.67194 24.8655 17.2815 9.117
42 1 3 0.67194 11.6665 3.81022 5.79712
43 1 3 0.67194 29.9325 14.3561 13.2542
44 1 3 0.67194 6.5995 6.73565 1.65994
45 1 3 -0.11508 27.399 19.957 14.1117
46 1 3 -0.11508 9.13299 1.13474 0.802379
47 1 3 -0.11508 27.399 11.6806 8.25944
48 1 3 -0.11508 9.13299 9.41113 6.65468
49 1 3 -0.11508 23.8152 13.7497 14.1117
50 1 3 -0.11508 12.7168 7.34203 0.802379
51 1 3 -0.11508 30.9828 17.8879 8.25944
52 1 3 -0.11508 5.54921 3.20384 6.65468
53 1 3 -0.11508 23.8152 17.8879 8.25944
54 1 3 -0.11508 12.7168 3.20384 6.65468
55 1 3 -0.11508 30.9828 13.7497 14.1117
56 1 3 -0.11508 5.54921 7.34203 0.802379
57 1 3 -0.0559 18.266 5.39949 13.5316
58 1 3 -0.0559 18.266 15.6923 1.38254
59 1 3 -0.055903 18.266 14.5575 0.580159
60 1 3 -0.055903 18.266 6.53422 14.334
61 1 3 -0.0559 26.1971 11.1132 7.85825
62 1 3 -0.0559 10.3349 9.9785 7.05587
63 1 3 -0.055903 10.3349 11.1132 7.85825
64 1 3 -0.055903 26.1971 9.9785 7.05587
65 1 3 -0.0559 14.7918 8.54005 0.580159
66 1 3 -0.0559 21.7402 12.5517 14.334
67 1 3 -0.055903 22.7229 13.1191 13.5316
68 1 3 -0.055903 13.8091 7.97268 1.38254
69 1 3 -0.0559 21.7402 3.39366 7.85825
70 1 3 -0.0559 14.7918 17.6981 7.05587
71 1 3 -0.055903 13.8091 17.1307 7.85825
72 1 3 -0.055903 22.7229 3.96103 7.05587
73 1 3 -0.055901 22.7229 17.1307 7.85825
74 1 3 -0.055901 13.8091 3.96103 7.05587
75 1 3 -0.055903 14.7918 3.39366 7.85825
76 1 3 -0.055903 21.7402 17.6981 7.05587
77 1 3 -0.0559 21.7402 8.54005 0.580159
78 1 3 -0.0559 14.7918 12.5517 14.334
79 1 3 -0.055903 13.8091 13.1191 13.5316
80 1 3 -0.055903 22.7229 7.97268 1.38254
81 1 4 -1.26215 27.399 15.8188 11.1856
82 1 4 -1.26215 9.13299 5.27293 3.72853
83 1 4 -0.60118 27.399 18.9383 11.9641
84 1 4 -0.60118 9.13299 2.15347 2.95001
85 1 4 -0.601179 27.399 17.5926 13.8671
86 1 4 -0.601179 9.13299 3.49912 1.04697
87 1 4 -0.601179 26.2336 13.3722 9.45555
88 1 4 -0.601179 10.2984 7.71958 5.45857
89 1 4 -0.60118 28.5643 13.3722 9.45555
90 1 4 -0.60118 7.96762 7.71958 5.45857
91 1 4 -0.60118 25.8628 14.9319 13.8671
92 1 4 -0.60118 10.6692 6.15984 1.04697
93 1 4 -0.601179 24.6974 14.2591 11.9641
94 1 4 -0.601179 11.8345 6.83267 2.95001
95 1 4 -0.60118 28.9351 18.0514 9.45555
96 1 4 -0.60118 7.59682 3.04037 5.45857
97 1 4 -0.601179 30.1005 16.0329 9.45555
98 1 4 -0.601179 6.43145 5.05885 5.45857
99 1 4 -0.601179 24.6974 16.0329 9.45555
100 1 4 -0.601179 11.8345 5.05885 5.45857
101 1 4 -0.60118 25.8628 18.0514 9.45555
102 1 4 -0.60118 10.6692 3.04037 5.45857
103 1 4 -0.60118 28.9351 14.9319 13.8671
104 1 4 -0.60118 7.59682 6.15984 1.04697
105 1 4 -0.60118 30.1005 14.2591 11.9641
106 1 4 -0.60118 6.43145 6.83267 2.95001
71081 23660 5 -0.35 9.15385 5.20361 7.10681
71082 23660 6 0.7 8.36796 5.11011 7.95488
71083 23660 5 -0.35 7.58206 5.0166 8.80296
71261 23720 5 -0.35 18.4763 18.4623 9.10554
71262 23720 6 0.7 18.4986 17.5555 8.38254
71263 23720 5 -0.35 18.521 16.6486 7.65954
71333 23744 5 -0.35 22.8169 16.9217 13.7606
71334 23744 6 0.7 23.6529 17.1826 13
71335 23744 5 -0.35 24.4889 17.4435 12.2393
71366 23755 5 -0.35 27.8694 11.3712 14.2551
71367 23755 6 0.7 27.6087 11.9564 13.2881
71368 23755 5 -0.35 27.348 12.5416 12.321
71387 23762 5 -0.35 11.5337 10.4262 12.1191
71388 23762 6 0.7 12.1597 10.1648 11.1781
71389 23762 5 -0.35 12.7856 9.90339 10.2372
71396 23765 5 -0.35 12.9977 7.18127 7.37916
71397 23765 6 0.7 14.0259 7.43198 6.90422
71398 23765 5 -0.35 15.0541 7.68268 6.42927
71456 23785 5 -0.35 21.0259 6.02928 11.2114
71457 23785 6 0.7 21.5746 5.00768 11.2394
71458 23785 5 -0.35 22.1234 3.98607 11.2675
71525 23808 5 -0.35 18.2632 4.91617 2.70014
71526 23808 6 0.7 19.2146 4.59641 2.11846
71527 23808 5 -0.35 20.1659 4.27664 1.53679
71531 23810 5 -0.35 5.55691 3.92369 0.901072
71532 23810 6 0.7 14.7998 9.18238 14.6605
71533 23810 5 -0.35 14.9097 9.16814 13.5058
71600 23833 5 -0.35 19.6078 4.67734 5.62285
71601 23833 6 0.7 19.6119 3.57762 5.25382
71602 23833 5 -0.35 19.616 2.47789 4.88478
71615 23838 5 -0.35 4.35222 2.10954 3.78133
71616 23838 6 0.7 14.0065 16.8925 3.75194
71617 23838 5 -0.35 14.5277 15.8566 3.72255
71639 23846 5 -0.35 20.7486 12.319 9.75415
71640 23846 6 0.7 20.4444 13.4048 10.0263
71641 23846 5 -0.35 20.1403 14.4906 10.2984
71648 23849 5 -0.35 27.5074 15.3595 6.9473
71649 23849 6 0.7 28.4727 15.1405 6.3425
71650 23849 5 -0.35 11.172 14.9214 5.7377
71663 23854 5 -0.35 21.1492 18.664 10.1671
71664 23854 6 0.7 11.7604 3.93285 9.8556
71665 23854 5 -0.35 11.5045 5.02056 9.54406
71666 23855 5 -0.35 15.6771 16.7262 10.8876
71667 23855 6 0.7 15.3819 15.6763 10.4923
71668 23855 5 -0.35 15.0867 14.6264 10.0971
71669 23856 5 -0.35 30.5954 19.7273 14.7411
71670 23856 6 0.7 21.4042 13.3329 0.117794
71671 23856 5 -0.35 21.346 12.2115 0.408618
71732 23877 5 -0.35 13.7756 7.3315 11.0635
71733 23877 6 0.7 14.3734 6.74633 10.2599
71734 23877 5 -0.35 14.9712 6.16115 9.45625
71747 23882 5 -0.35 24.1546 6.95942 11.6351
71748 23882 6 0.7 23.9922 7.43119 10.5879
71749 23882 5 -0.35 23.8299 7.90295 9.54063
71753 23884 5 -0.35 9.78427 9.36912 1.39907
71754 23884 6 0.7 10.3872 9.68729 0.46055
71755 23884 5 -0.35 20.1232 15.2784 14.4361
71765 23888 5 -0.35 17.0623 8.23995 11.6496
71766 23888 6 0.7 17.5844 7.54185 10.8843
71767 23888 5 -0.35 18.1066 6.84376 10.1191
71771 23890 5 -0.35 13.8348 12.6498 2.21793
71772 23890 6 0.7 13.0504 11.7993 2.30143
71773 23890 5 -0.35 12.2659 10.9489 2.38492
71798 23899 5 -0.35 15.5877 4.24073 4.21249
71799 23899 6 0.7 15.5061 4.00487 3.07966
71800 23899 5 -0.35 15.4244 3.769 1.94683
71807 23902 5 -0.35 23.0633 11.7801 6.18357
71808 23902 6 0.7 22.3745 11.1704 6.89034
71809 23902 5 -0.35 21.6857 10.5608 7.5971
71810 23903 5 -0.35 14.7359 15.5275 1.01172
71811 23903 6 0.7 14.9667 5.46066 14.8949
71812 23903 5 -0.35 15.1975 5.93974 13.864
71813 23904 5 -0.35 25.3938 9.78112 11.7536
71814 23904 6 0.7 24.4395 10.403 11.534
71815 23904 5 -0.35 23.4852 11.0249 11.3145
71816 23905 5 -0.35 18.2261 18.519 13.8601
71817 23905 6 0.7 18.2246 17.9945 12.8254
71818 23905 5 -0.35 18.223 17.47 11.7908
71819 23906 5 -0.35 10.5566 13.9941 1.57118
71820 23906 6 0.7 10.6549 14.6194 0.599091
71821 23906 5 -0.35 19.8862 20.5176 14.5411
ITEM: TIMESTEP
99000
ITEM: NUMBER OF ATOMS
187
ITEM: BOX BOUNDS xy xz yz pp pp pp
0.0000000000000000e+00 3.6531964750000000e+01 9.1329911900000003e+00
0.0000000000000000e+00 2.1091739680000000e+01 9.1329911900000003e+00
0.0000000000000000e+00 1.4914112149999999e+01 5.2729349200000000e+00
ITEM: ATOMS id mol type q x y z
1 1 1 1.10383 27.399 17.6496 10.5383
2 1 1 1.10383 9.13299 3.44217 4.3758
3 1 1 1.10383 27.399 15.8188 13.1274
4 1 1 1.10383 9.13299 5.27293 1.78671
5 1 1 1.10383 25.8135 14.9034 10.5383
6 1 1 1.10383 10.7185 6.18832 4.3758
7 1 1 1.10383 28.9845 14.9034 10.5383
8 1 1 1.10383 7.5475 6.18832 4.3758
9 1 2 0.115889 18.266 5.48596 12.6084
10 1 2 0.115889 18.266 15.6058 2.30572
11 1 2 0.115888 18.266 13.716 0.969417
12 1 2 0.115888 18.266 7.37578 13.9447
13 1 2 0.11589 25.3934 11.4908 8.12521
14 1 2 0.11589 11.1386 9.60096 6.7889
15 1 2 0.115888 11.1386 11.4908 8.12521
16 1 2 0.115888 25.3934 9.60096 6.7889
17 1 2 0.115889 15.5206 8.96083 0.969417
18 1 2 0.115889 21.0114 12.1309 13.9447
19 1 2 0.115888 22.648 13.0758 12.6084
20 1 2 0.115888 13.884 8.01592 2.30572
21 1 2 0.115889 21.0114 3.90092 8.12521
22 1 2 0.115889 15.5206 17.1908 6.7889
23 1 2 0.115887 13.884 16.2459 8.12521
24 1 2 0.115887 22.648 4.84583 6.7889
25 1 2 0.115889 22.648 16.2459 8.12521
26 1 2 0.115889 13.884 4.84583 6.7889
27 1 2 0.115887 15.5206 3.90092 8.12521
28 1 2 0.115887 21.0114 17.1908 6.7889
29 1 2 0.115889 21.0114 8.96083 0.969417
30 1 2 0.115889 15.5206 12.1309 13.9447
31 1 2 0.115887 13.884 13.0758 12.6084
32 1 2 0.115887 22.648 8.01592 2.30572
33 1 3 0.671939 27.399 18.7442 13.2542
34 1 3 0.671939 9.13299 2.34751 1.65994
35 1 3 0.671939 27.399 12.8934 9.117
36 1 3 0.671939 9.13299 8.19836 5.79712
37 1 3 0.67194 24.8655 14.3561 13.2542
38 1 3 0.67194 11.6665 6.73565 1.65994
39 1 3 0.67194 29.9325 17.2815 9.117
40 1 3 0.67194 6.5995 3.81022 5.79712
41 1 3 0.67194 24.8655 17.2815 9.117
42 1 3 0.67194 11.6665 3.81022 5.79712
43 1 3 0.67194 29.9325 14.3561 13.2542
44 1 3 0.67194 6.5995 6.73565 1.65994
45 1 3 -0.11508 27.399 19.957 14.1117
46 1 3 -0.11508 9.13299 1.13474 0.802379
47 1 3 -0.11508 27.399 11.6806 8.25944
48 1 3 -0.11508 9.13299 9.41113 6.65468
49 1 3 -0.11508 23.8152 13.7497 14.1117
50 1 3 -0.11508 12.7168 7.34203 0.802379
51 1 3 -0.11508 30.9828 17.8879 8.25944
52 1 3 -0.11508 5.54921 3.20384 6.65468
53 1 3 -0.11508 23.8152 17.8879 8.25944
54 1 3 -0.11508 12.7168 3.20384 6.65468
55 1 3 -0.11508 30.9828 13.7497 14.1117
56 1 3 -0.11508 5.54921 7.34203 0.802379
57 1 3 -0.0559 18.266 5.39949 13.5316
58 1 3 -0.0559 18.266 15.6923 1.38254
59 1 3 -0.055903 18.266 14.5575 0.580159
60 1 3 -0.055903 18.266 6.53422 14.334
61 1 3 -0.0559 26.1971 11.1132 7.85825
62 1 3 -0.0559 10.3349 9.9785 7.05587
63 1 3 -0.055903 10.3349 11.1132 7.85825
64 1 3 -0.055903 26.1971 9.9785 7.05587
65 1 3 -0.0559 14.7918 8.54005 0.580159
66 1 3 -0.0559 21.7402 12.5517 14.334
67 1 3 -0.055903 22.7229 13.1191 13.5316
68 1 3 -0.055903 13.8091 7.97268 1.38254
69 1 3 -0.0559 21.7402 3.39366 7.85825
70 1 3 -0.0559 14.7918 17.6981 7.05587
71 1 3 -0.055903 13.8091 17.1307 7.85825
72 1 3 -0.055903 22.7229 3.96103 7.05587
73 1 3 -0.055901 22.7229 17.1307 7.85825
74 1 3 -0.055901 13.8091 3.96103 7.05587
75 1 3 -0.055903 14.7918 3.39366 7.85825
76 1 3 -0.055903 21.7402 17.6981 7.05587
77 1 3 -0.0559 21.7402 8.54005 0.580159
78 1 3 -0.0559 14.7918 12.5517 14.334
79 1 3 -0.055903 13.8091 13.1191 13.5316
80 1 3 -0.055903 22.7229 7.97268 1.38254
81 1 4 -1.26215 27.399 15.8188 11.1856
82 1 4 -1.26215 9.13299 5.27293 3.72853
83 1 4 -0.60118 27.399 18.9383 11.9641
84 1 4 -0.60118 9.13299 2.15347 2.95001
85 1 4 -0.601179 27.399 17.5926 13.8671
86 1 4 -0.601179 9.13299 3.49912 1.04697
87 1 4 -0.601179 26.2336 13.3722 9.45555
88 1 4 -0.601179 10.2984 7.71958 5.45857
89 1 4 -0.60118 28.5643 13.3722 9.45555
90 1 4 -0.60118 7.96762 7.71958 5.45857
91 1 4 -0.60118 25.8628 14.9319 13.8671
92 1 4 -0.60118 10.6692 6.15984 1.04697
93 1 4 -0.601179 24.6974 14.2591 11.9641
94 1 4 -0.601179 11.8345 6.83267 2.95001
95 1 4 -0.60118 28.9351 18.0514 9.45555
96 1 4 -0.60118 7.59682 3.04037 5.45857
97 1 4 -0.601179 30.1005 16.0329 9.45555
98 1 4 -0.601179 6.43145 5.05885 5.45857
99 1 4 -0.601179 24.6974 16.0329 9.45555
100 1 4 -0.601179 11.8345 5.05885 5.45857
101 1 4 -0.60118 25.8628 18.0514 9.45555
102 1 4 -0.60118 10.6692 3.04037 5.45857
103 1 4 -0.60118 28.9351 14.9319 13.8671
104 1 4 -0.60118 7.59682 6.15984 1.04697
105 1 4 -0.60118 30.1005 14.2591 11.9641
106 1 4 -0.60118 6.43145 6.83267 2.95001
71261 23720 5 -0.35 18.1511 18.1708 8.98305
71262 23720 6 0.7 18.409 17.0445 9.08553
71263 23720 5 -0.35 18.6669 15.9182 9.18801
72020 23973 5 -0.35 17.9287 4.19188 7.25833
72021 23973 6 0.7 18.1999 3.18552 6.74912
72022 23973 5 -0.35 27.6041 17.998 6.23992
72035 23978 5 -0.35 23.0459 17.4617 11.5016
72036 23978 6 0.7 22.2377 16.6767 11.2255
72037 23978 5 -0.35 21.4295 15.8917 10.9493
72053 23984 5 -0.35 7.70861 4.96323 9.08235
72054 23984 6 0.7 8.22447 5.17384 8.06494
72055 23984 5 -0.35 8.74034 5.38446 7.04752
72248 24049 5 -0.35 10.1176 12.5705 5.2121
72249 24049 6 0.7 27.7748 13.5002 5.54447
72250 24049 5 -0.35 27.1659 14.43 5.87684
72374 24091 5 -0.35 17.3677 13.7633 11.8191
72375 24091 6 0.7 18.301 14.1476 12.3908
72376 24091 5 -0.35 19.2342 14.532 12.9625
72404 24101 5 -0.35 11.6105 9.90445 3.48959
72405 24101 6 0.7 10.5407 9.99668 3.05061
72406 24101 5 -0.35 9.47098 10.0889 2.61164
72407 24102 5 -0.35 14.3764 10.964 2.99781
72408 24102 6 0.7 14.6755 10.5248 4.02893
72409 24102 5 -0.35 14.9747 10.0856 5.06004
72461 24120 5 -0.35 22.1839 13.2834 2.92207
72462 24120 6 0.7 22.0426 13.518 1.79486
72463 24120 5 -0.35 21.9012 13.7526 0.66766
72482 24127 5 -0.35 19.5785 11.6996 2.0325
72483 24127 6 0.7 18.6909 10.9541 2.07658
72484 24127 5 -0.35 17.8034 10.2085 2.12067
72491 24130 5 -0.35 12.7301 3.80315 1.55329
72492 24130 6 0.7 12.6414 3.56688 0.421077
72493 24130 5 -0.35 21.6857 8.60354 14.203
72500 24133 5 -0.35 24.0805 12.1497 5.43803
72501 24133 6 0.7 24.1491 11.6708 4.38376
72502 24133 5 -0.35 24.2176 11.1918 3.32948
72503 24134 5 -0.35 20.5024 12.1645 5.76293
72504 24134 6 0.7 20.1582 13.2722 5.76282
72505 24134 5 -0.35 19.814 14.3799 5.7627
72512 24137 5 -0.35 13.1816 5.2105 9.99974
72513 24137 6 0.7 12.2471 4.74166 9.49717
72514 24137 5 -0.35 11.3127 4.27281 8.99459
72518 24139 5 -0.35 15.67 14.3371 5.24254
72519 24139 6 0.7 16.1478 13.7869 4.33999
72520 24139 5 -0.35 16.6256 13.2367 3.43743
72521 24140 5 -0.35 19.82 7.86059 3.81367
72522 24140 6 0.7 18.9845 8.00959 4.60449
72523 24140 5 -0.35 18.149 8.1586 5.3953
72524 24141 5 -0.35 17.1674 6.60079 2.55194
72525 24141 6 0.7 16.9085 6.30832 1.45968
72526 24141 5 -0.35 16.6496 6.01585 0.367418
72527 24142 5 -0.35 23.7772 11.251 10.9285
72528 24142 6 0.7 24.4143 10.3381 11.2544
72529 24142 5 -0.35 25.0515 9.42518 11.5802
72533 24144 5 -0.35 21.0278 4.70235 4.09157
72534 24144 6 0.7 21.5758 4.64169 3.07096
72535 24144 5 -0.35 3.85782 4.58103 2.05035
72536 24145 5 -0.35 11.8424 10.7277 12.7018
72537 24145 6 0.7 29.0478 10.8484 12.2478
72538 24145 5 -0.35 27.9871 10.969 11.7938
72539 24146 5 -0.35 15.424 4.44669 11.6351
72540 24146 6 0.7 15.8478 5.06803 10.752
72541 24146 5 -0.35 16.2715 5.68937 9.8688
72542 24147 5 -0.35 15.622 1.08552 2.66366
72543 24147 6 0.7 24.9821 15.7766 2.81272
72544 24147 5 -0.35 25.2092 14.6488 2.96179
72548 24149 5 -0.35 24.7235 7.69263 14.1067
72549 24149 6 0.7 25.8074 7.7422 13.6965
72550 24149 5 -0.35 26.8913 7.79177 13.2862
72554 24151 5 -0.35 20.5753 11.7409 11.596
72555 24151 6 0.7 20.5282 11.5632 10.4507
72556 24151 5 -0.35 20.4811 11.3854 9.30537
72557 24152 5 -0.35 22.9541 8.22847 9.66175
72558 24152 6 0.7 23.0487 8.39614 8.51784
72559 24152 5 -0.35 23.1433 8.56381 7.37392
72560 24153 5 -0.35 5.16781 3.17996 0.0504467
72561 24153 6 0.7 14.51 8.00006 13.9173
72562 24153 5 -0.35 14.7191 7.54722 12.87
72563 24154 5 -0.35 33.3252 18.8257 13.3118
72564 24154 6 0.7 34.4769 18.9264 13.217
72565 24154 5 -0.35 17.3627 19.0271 13.1222
ITEM: TIMESTEP
100000
ITEM: NUMBER OF ATOMS
172
ITEM: BOX BOUNDS xy xz yz pp pp pp
0.0000000000000000e+00 3.6531964750000000e+01 9.1329911900000003e+00
0.0000000000000000e+00 2.1091739680000000e+01 9.1329911900000003e+00
0.0000000000000000e+00 1.4914112149999999e+01 5.2729349200000000e+00
ITEM: ATOMS id mol type q x y z
1 1 1 1.10383 27.399 17.6496 10.5383
2 1 1 1.10383 9.13299 3.44217 4.3758
3 1 1 1.10383 27.399 15.8188 13.1274
4 1 1 1.10383 9.13299 5.27293 1.78671
5 1 1 1.10383 25.8135 14.9034 10.5383
6 1 1 1.10383 10.7185 6.18832 4.3758
7 1 1 1.10383 28.9845 14.9034 10.5383
8 1 1 1.10383 7.5475 6.18832 4.3758
9 1 2 0.115889 18.266 5.48596 12.6084
10 1 2 0.115889 18.266 15.6058 2.30572
11 1 2 0.115888 18.266 13.716 0.969417
12 1 2 0.115888 18.266 7.37578 13.9447
13 1 2 0.11589 25.3934 11.4908 8.12521
14 1 2 0.11589 11.1386 9.60096 6.7889
15 1 2 0.115888 11.1386 11.4908 8.12521
16 1 2 0.115888 25.3934 9.60096 6.7889
17 1 2 0.115889 15.5206 8.96083 0.969417
18 1 2 0.115889 21.0114 12.1309 13.9447
19 1 2 0.115888 22.648 13.0758 12.6084
20 1 2 0.115888 13.884 8.01592 2.30572
21 1 2 0.115889 21.0114 3.90092 8.12521
22 1 2 0.115889 15.5206 17.1908 6.7889
23 1 2 0.115887 13.884 16.2459 8.12521
24 1 2 0.115887 22.648 4.84583 6.7889
25 1 2 0.115889 22.648 16.2459 8.12521
26 1 2 0.115889 13.884 4.84583 6.7889
27 1 2 0.115887 15.5206 3.90092 8.12521
28 1 2 0.115887 21.0114 17.1908 6.7889
29 1 2 0.115889 21.0114 8.96083 0.969417
30 1 2 0.115889 15.5206 12.1309 13.9447
31 1 2 0.115887 13.884 13.0758 12.6084
32 1 2 0.115887 22.648 8.01592 2.30572
33 1 3 0.671939 27.399 18.7442 13.2542
34 1 3 0.671939 9.13299 2.34751 1.65994
35 1 3 0.671939 27.399 12.8934 9.117
36 1 3 0.671939 9.13299 8.19836 5.79712
37 1 3 0.67194 24.8655 14.3561 13.2542
38 1 3 0.67194 11.6665 6.73565 1.65994
39 1 3 0.67194 29.9325 17.2815 9.117
40 1 3 0.67194 6.5995 3.81022 5.79712
41 1 3 0.67194 24.8655 17.2815 9.117
42 1 3 0.67194 11.6665 3.81022 5.79712
43 1 3 0.67194 29.9325 14.3561 13.2542
44 1 3 0.67194 6.5995 6.73565 1.65994
45 1 3 -0.11508 27.399 19.957 14.1117
46 1 3 -0.11508 9.13299 1.13474 0.802379
47 1 3 -0.11508 27.399 11.6806 8.25944
48 1 3 -0.11508 9.13299 9.41113 6.65468
49 1 3 -0.11508 23.8152 13.7497 14.1117
50 1 3 -0.11508 12.7168 7.34203 0.802379
51 1 3 -0.11508 30.9828 17.8879 8.25944
52 1 3 -0.11508 5.54921 3.20384 6.65468
53 1 3 -0.11508 23.8152 17.8879 8.25944
54 1 3 -0.11508 12.7168 3.20384 6.65468
55 1 3 -0.11508 30.9828 13.7497 14.1117
56 1 3 -0.11508 5.54921 7.34203 0.802379
57 1 3 -0.0559 18.266 5.39949 13.5316
58 1 3 -0.0559 18.266 15.6923 1.38254
59 1 3 -0.055903 18.266 14.5575 0.580159
60 1 3 -0.055903 18.266 6.53422 14.334
61 1 3 -0.0559 26.1971 11.1132 7.85825
62 1 3 -0.0559 10.3349 9.9785 7.05587
63 1 3 -0.055903 10.3349 11.1132 7.85825
64 1 3 -0.055903 26.1971 9.9785 7.05587
65 1 3 -0.0559 14.7918 8.54005 0.580159
66 1 3 -0.0559 21.7402 12.5517 14.334
67 1 3 -0.055903 22.7229 13.1191 13.5316
68 1 3 -0.055903 13.8091 7.97268 1.38254
69 1 3 -0.0559 21.7402 3.39366 7.85825
70 1 3 -0.0559 14.7918 17.6981 7.05587
71 1 3 -0.055903 13.8091 17.1307 7.85825
72 1 3 -0.055903 22.7229 3.96103 7.05587
73 1 3 -0.055901 22.7229 17.1307 7.85825
74 1 3 -0.055901 13.8091 3.96103 7.05587
75 1 3 -0.055903 14.7918 3.39366 7.85825
76 1 3 -0.055903 21.7402 17.6981 7.05587
77 1 3 -0.0559 21.7402 8.54005 0.580159
78 1 3 -0.0559 14.7918 12.5517 14.334
79 1 3 -0.055903 13.8091 13.1191 13.5316
80 1 3 -0.055903 22.7229 7.97268 1.38254
81 1 4 -1.26215 27.399 15.8188 11.1856
82 1 4 -1.26215 9.13299 5.27293 3.72853
83 1 4 -0.60118 27.399 18.9383 11.9641
84 1 4 -0.60118 9.13299 2.15347 2.95001
85 1 4 -0.601179 27.399 17.5926 13.8671
86 1 4 -0.601179 9.13299 3.49912 1.04697
87 1 4 -0.601179 26.2336 13.3722 9.45555
88 1 4 -0.601179 10.2984 7.71958 5.45857
89 1 4 -0.60118 28.5643 13.3722 9.45555
90 1 4 -0.60118 7.96762 7.71958 5.45857
91 1 4 -0.60118 25.8628 14.9319 13.8671
92 1 4 -0.60118 10.6692 6.15984 1.04697
93 1 4 -0.601179 24.6974 14.2591 11.9641
94 1 4 -0.601179 11.8345 6.83267 2.95001
95 1 4 -0.60118 28.9351 18.0514 9.45555
96 1 4 -0.60118 7.59682 3.04037 5.45857
97 1 4 -0.601179 30.1005 16.0329 9.45555
98 1 4 -0.601179 6.43145 5.05885 5.45857
99 1 4 -0.601179 24.6974 16.0329 9.45555
100 1 4 -0.601179 11.8345 5.05885 5.45857
101 1 4 -0.60118 25.8628 18.0514 9.45555
102 1 4 -0.60118 10.6692 3.04037 5.45857
103 1 4 -0.60118 28.9351 14.9319 13.8671
104 1 4 -0.60118 7.59682 6.15984 1.04697
105 1 4 -0.60118 30.1005 14.2591 11.9641
106 1 4 -0.60118 6.43145 6.83267 2.95001
72374 24091 5 -0.35 10.6814 10.0304 0.216368
72375 24091 6 0.7 11.6801 10.6175 0.157497
72376 24091 5 -0.35 12.6788 11.2046 0.0986248
72527 24142 5 -0.35 24.4272 10.3014 13.194
72528 24142 6 0.7 24.5675 10.6121 12.0852
72529 24142 5 -0.35 24.7079 10.9228 10.9765
72587 24162 5 -0.35 27.672 16.9746 6.75712
72588 24162 6 0.7 27.2543 18.0498 6.87963
72589 24162 5 -0.35 17.7036 3.30618 7.00214
72626 24175 5 -0.35 23.0786 5.33182 12.8241
72627 24175 6 0.7 22.2175 6.02957 12.4815
72628 24175 5 -0.35 21.3564 6.72731 12.139
72644 24181 5 -0.35 11.403 13.6629 6.60626
72645 24181 6 0.7 11.5667 14.5477 5.8741
72646 24181 5 -0.35 11.7304 15.4324 5.14195
72695 24198 5 -0.35 14.8963 14.2493 0.838311
72696 24198 6 0.7 24.0025 18.8802 14.7867
72697 24198 5 -0.35 23.9757 18.2382 13.8209
72701 24200 5 -0.35 16.4987 6.13214 1.56726
72702 24200 6 0.7 16.9145 6.39381 0.516422
72703 24200 5 -0.35 26.4633 11.9284 14.3797
72767 24222 5 -0.35 29.6781 10.5577 14.7846
72768 24222 6 0.7 29.4456 10.2227 13.6986
72769 24222 5 -0.35 10.9471 9.88778 12.6127
72779 24226 5 -0.35 15.4346 15.4627 4.45388
72780 24226 6 0.7 15.3207 16.4943 3.93565
72781 24226 5 -0.35 6.07392 1.70701 3.41741
72815 24238 5 -0.35 22.4452 18.143 11.1786
72816 24238 6 0.7 22.2486 17.0984 11.6433
72817 24238 5 -0.35 22.052 16.0539 12.1079
72854 24251 5 -0.35 15.986 18.3277 12.6988
72855 24251 6 0.7 16.0775 18.8618 11.6732
72856 24251 5 -0.35 16.169 19.3959 10.6475
72860 24253 5 -0.35 24.4282 7.63998 10.1012
72861 24253 6 0.7 25.0859 7.27731 9.21718
72862 24253 5 -0.35 7.47751 6.91463 8.33311
72869 24256 5 -0.35 22.2999 13.1225 4.24829
72870 24256 6 0.7 23.2936 12.5241 4.23523
72871 24256 5 -0.35 24.2873 11.9257 4.22217
72878 24259 5 -0.35 9.97492 5.84469 9.37401
72879 24259 6 0.7 9.91701 4.68626 9.35707
72880 24259 5 -0.35 9.85909 3.52783 9.34013
72881 24260 5 -0.35 15.9788 11.788 3.26914
72882 24260 6 0.7 16.8872 12.3742 3.68958
72883 24260 5 -0.35 17.7956 12.9604 4.11002
72887 24262 5 -0.35 16.6919 15.6206 14.3824
72888 24262 6 0.7 15.7635 16.2185 14.7376
72889 24262 5 -0.35 23.9682 11.5436 0.17863
72905 24268 5 -0.35 12.3167 7.39856 13.8753
72906 24268 6 0.7 12.8274 7.50107 12.8389
72907 24268 5 -0.35 13.3381 7.60358 11.8024
72908 24269 5 -0.35 26.1117 13.4608 1.12664
72909 24269 6 0.7 8.81288 13.1982 0.542432
72910 24269 5 -0.35 18.913 18.2085 14.8723
72911 24270 5 -0.35 16.2233 1.73396 2.53206
72912 24270 6 0.7 16.7059 1.27638 1.5816
72913 24270 5 -0.35 17.1884 0.818808 0.631146
72914 24271 5 -0.35 19.8771 2.89314 2.58541
72915 24271 6 0.7 20.3306 1.82597 2.55142
72916 24271 5 -0.35 11.651 16.5776 2.51744
72917 24272 5 -0.35 12.835 11.502 5.14677
72918 24272 6 0.7 13.3883 10.5833 4.70455
72919 24272 5 -0.35 13.9415 9.66467 4.26233
72923 24274 5 -0.35 22.2259 16.3373 3.51
72924 24274 6 0.7 13.1742 0.936867 2.43113
72925 24274 5 -0.35 13.2555 1.35525 1.35227
