ITEM: TIMESTEP
0
ITEM: NUMBER OF ATOMS
106
ITEM: BOX BOUNDS xy xz yz pp pp pp
0.0000000000000000e+00 3.6531964750000000e+01 9.1329911900000003e+00
0.0000000000000000e+00 2.1091739680000000e+01 9.1329911900000003e+00
0.0000000000000000e+00 1.4914112149999999e+01 5.2729349200000000e+00
ITEM: ATOMS id mol type q x y z
1 1 1 1.10383 27.399 17.6496 10.5383
2 1 1 1.10383 9.13299 3.44217 4.3758
3 1 1 1.10383 27.399 15.8188 13.1274
4 1 1 1.10383 9.13299 5.27293 1.78671
5 1 1 1.10383 25.8135 14.9034 10.5383
6 1 1 1.10383 10.7185 6.18832 4.3758
7 1 1 1.10383 28.9845 14.9034 10.5383
8 1 1 1.10383 7.5475 6.18832 4.3758
9 1 2 0.115889 18.266 5.48596 12.6084
10 1 2 0.115889 18.266 15.6058 2.30572
11 1 2 0.115888 18.266 13.716 0.969417
12 1 2 0.115888 18.266 7.37578 13.9447
13 1 2 0.11589 25.3934 11.4908 8.12521
14 1 2 0.11589 11.1386 9.60096 6.7889
15 1 2 0.115888 11.1386 11.4908 8.12521
16 1 2 0.115888 25.3934 9.60096 6.7889
17 1 2 0.115889 15.5206 8.96083 0.969417
18 1 2 0.115889 21.0114 12.1309 13.9447
19 1 2 0.115888 22.648 13.0758 12.6084
20 1 2 0.115888 13.884 8.01592 2.30572
21 1 2 0.115889 21.0114 3.90092 8.12521
22 1 2 0.115889 15.5206 17.1908 6.7889
23 1 2 0.115887 13.884 16.2459 8.12521
24 1 2 0.115887 22.648 4.84583 6.7889
25 1 2 0.115889 22.648 16.2459 8.12521
26 1 2 0.115889 13.884 4.84583 6.7889
27 1 2 0.115887 15.5206 3.90092 8.12521
28 1 2 0.115887 21.0114 17.1908 6.7889
29 1 2 0.115889 21.0114 8.96083 0.969417
30 1 2 0.115889 15.5206 12.1309 13.9447
31 1 2 0.115887 13.884 13.0758 12.6084
32 1 2 0.115887 22.648 8.01592 2.30572
33 1 3 0.671939 27.399 18.7442 13.2542
34 1 3 0.671939 9.13299 2.34751 1.65994
35 1 3 0.671939 27.399 12.8934 9.117
36 1 3 0.671939 9.13299 8.19836 5.79712
37 1 3 0.67194 24.8655 14.3561 13.2542
38 1 3 0.67194 11.6665 6.73565 1.65994
39 1 3 0.67194 29.9325 17.2815 9.117
40 1 3 0.67194 6.5995 3.81022 5.79712
41 1 3 0.67194 24.8655 17.2815 9.117
42 1 3 0.67194 11.6665 3.81022 5.79712
43 1 3 0.67194 29.9325 14.3561 13.2542
44 1 3 0.67194 6.5995 6.73565 1.65994
45 1 3 -0.11508 27.399 19.957 14.1117
46 1 3 -0.11508 9.13299 1.13474 0.802379
47 1 3 -0.11508 27.399 11.6806 8.25944
48 1 3 -0.11508 9.13299 9.41113 6.65468
49 1 3 -0.11508 23.8152 13.7497 14.1117
50 1 3 -0.11508 12.7168 7.34203 0.802379
51 1 3 -0.11508 30.9828 17.8879 8.25944
52 1 3 -0.11508 5.54921 3.20384 6.65468
53 1 3 -0.11508 23.8152 17.8879 8.25944
54 1 3 -0.11508 12.7168 3.20384 6.65468
55 1 3 -0.11508 30.9828 13.7497 14.1117
56 1 3 -0.11508 5.54921 7.34203 0.802379
57 1 3 -0.0559 18.266 5.39949 13.5316
58 1 3 -0.0559 18.266 15.6923 1.38254
59 1 3 -0.055903 18.266 14.5575 0.580159
60 1 3 -0.055903 18.266 6.53422 14.334
61 1 3 -0.0559 26.1971 11.1132 7.85825
62 1 3 -0.0559 10.3349 9.9785 7.05587
63 1 3 -0.055903 10.3349 11.1132 7.85825
64 1 3 -0.055903 26.1971 9.9785 7.05587
65 1 3 -0.0559 14.7918 8.54005 0.580159
66 1 3 -0.0559 21.7402 12.5517 14.334
67 1 3 -0.055903 22.7229 13.1191 13.5316
68 1 3 -0.055903 13.8091 7.97268 1.38254
69 1 3 -0.0559 21.7402 3.39366 7.85825
70 1 3 -0.0559 14.7918 17.6981 7.05587
71 1 3 -0.055903 13.8091 17.1307 7.85825
72 1 3 -0.055903 22.7229 3.96103 7.05587
73 1 3 -0.055901 22.7229 17.1307 7.85825
74 1 3 -0.055901 13.8091 3.96103 7.05587
75 1 3 -0.055903 14.7918 3.39366 7.85825
76 1 3 -0.055903 21.7402 17.6981 7.05587
77 1 3 -0.0559 21.7402 8.54005 0.580159
78 1 3 -0.0559 14.7918 12.5517 14.334
79 1 3 -0.055903 13.8091 13.1191 13.5316
80 1 3 -0.055903 22.7229 7.97268 1.38254
81 1 4 -1.26215 27.399 15.8188 11.1856
82 1 4 -1.26215 9.13299 5.27293 3.72853
83 1 4 -0.60118 27.399 18.9383 11.9641
84 1 4 -0.60118 9.13299 2.15347 2.95001
85 1 4 -0.601179 27.399 17.5926 13.8671
86 1 4 -0.601179 9.13299 3.49912 1.04697
87 1 4 -0.601179 26.2336 13.3722 9.45555
88 1 4 -0.601179 10.2984 7.71958 5.45857
89 1 4 -0.60118 28.5643 13.3722 9.45555
90 1 4 -0.60118 7.96762 7.71958 5.45857
91 1 4 -0.60118 25.8628 14.9319 13.8671
92 1 4 -0.60118 10.6692 6.15984 1.04697
93 1 4 -0.601179 24.6974 14.2591 11.9641
94 1 4 -0.601179 11.8345 6.83267 2.95001
95 1 4 -0.60118 28.9351 18.0514 9.45555
96 1 4 -0.60118 7.59682 3.04037 5.45857
97 1 4 -0.601179 30.1005 16.0329 9.45555
98 1 4 -0.601179 6.43145 5.05885 5.45857
99 1 4 -0.601179 24.6974 16.0329 9.45555
100 1 4 -0.601179 11.8345 5.05885 5.45857
101 1 4 -0.60118 25.8628 18.0514 9.45555
102 1 4 -0.60118 10.6692 3.04037 5.45857
103 1 4 -0.60118 28.9351 14.9319 13.8671
104 1 4 -0.60118 7.59682 6.15984 1.04697
105 1 4 -0.60118 30.1005 14.2591 11.9641
106 1 4 -0.60118 6.43145 6.83267 2.95001
ITEM: TIMESTEP
1000
ITEM: NUMBER OF ATOMS
106
ITEM: BOX BOUNDS xy xz yz pp pp pp
0.0000000000000000e+00 3.6531964750000000e+01 9.1329911900000003e+00
0.0000000000000000e+00 2.1091739680000000e+01 9.1329911900000003e+00
0.0000000000000000e+00 1.4914112149999999e+01 5.2729349200000000e+00
ITEM: ATOMS id mol type q x y z
1 1 1 1.10383 27.399 17.6496 10.5383
2 1 1 1.10383 9.13299 3.44217 4.3758
3 1 1 1.10383 27.399 15.8188 13.1274
4 1 1 1.10383 9.13299 5.27293 1.78671
5 1 1 1.10383 25.8135 14.9034 10.5383
6 1 1 1.10383 10.7185 6.18832 4.3758
7 1 1 1.10383 28.9845 14.9034 10.5383
8 1 1 1.10383 7.5475 6.18832 4.3758
9 1 2 0.115889 18.266 5.48596 12.6084
10 1 2 0.115889 18.266 15.6058 2.30572
11 1 2 0.115888 18.266 13.716 0.969417
12 1 2 0.115888 18.266 7.37578 13.9447
13 1 2 0.11589 25.3934 11.4908 8.12521
14 1 2 0.11589 11.1386 9.60096 6.7889
15 1 2 0.115888 11.1386 11.4908 8.12521
16 1 2 0.115888 25.3934 9.60096 6.7889
17 1 2 0.115889 15.5206 8.96083 0.969417
18 1 2 0.115889 21.0114 12.1309 13.9447
19 1 2 0.115888 22.648 13.0758 12.6084
20 1 2 0.115888 13.884 8.01592 2.30572
21 1 2 0.115889 21.0114 3.90092 8.12521
22 1 2 0.115889 15.5206 17.1908 6.7889
23 1 2 0.115887 13.884 16.2459 8.12521
24 1 2 0.115887 22.648 4.84583 6.7889
25 1 2 0.115889 22.648 16.2459 8.12521
26 1 2 0.115889 13.884 4.84583 6.7889
27 1 2 0.115887 15.5206 3.90092 8.12521
28 1 2 0.115887 21.0114 17.1908 6.7889
29 1 2 0.115889 21.0114 8.96083 0.969417
30 1 2 0.115889 15.5206 12.1309 13.9447
31 1 2 0.115887 13.884 13.0758 12.6084
32 1 2 0.115887 22.648 8.01592 2.30572
33 1 3 0.671939 27.399 18.7442 13.2542
34 1 3 0.671939 9.13299 2.34751 1.65994
35 1 3 0.671939 27.399 12.8934 9.117
36 1 3 0.671939 9.13299 8.19836 5.79712
37 1 3 0.67194 24.8655 14.3561 13.2542
38 1 3 0.67194 11.6665 6.73565 1.65994
39 1 3 0.67194 29.9325 17.2815 9.117
40 1 3 0.67194 6.5995 3.81022 5.79712
41 1 3 0.67194 24.8655 17.2815 9.117
42 1 3 0.67194 11.6665 3.81022 5.79712
43 1 3 0.67194 29.9325 14.3561 13.2542
44 1 3 0.67194 6.5995 6.73565 1.65994
45 1 3 -0.11508 27.399 19.957 14.1117
46 1 3 -0.11508 9.13299 1.13474 0.802379
47 1 3 -0.11508 27.399 11.6806 8.25944
48 1 3 -0.11508 9.13299 9.41113 6.65468
49 1 3 -0.11508 23.8152 13.7497 14.1117
50 1 3 -0.11508 12.7168 7.34203 0.802379
51 1 3 -0.11508 30.9828 17.8879 8.25944
52 1 3 -0.11508 5.54921 3.20384 6.65468
53 1 3 -0.11508 23.8152 17.8879 8.25944
54 1 3 -0.11508 12.7168 3.20384 6.65468
55 1 3 -0.11508 30.9828 13.7497 14.1117
56 1 3 -0.11508 5.54921 7.34203 0.802379
57 1 3 -0.0559 18.266 5.39949 13.5316
58 1 3 -0.0559 18.266 15.6923 1.38254
59 1 3 -0.055903 18.266 14.5575 0.580159
60 1 3 -0.055903 18.266 6.53422 14.334
61 1 3 -0.0559 26.1971 11.1132 7.85825
62 1 3 -0.0559 10.3349 9.9785 7.05587
63 1 3 -0.055903 10.3349 11.1132 7.85825
64 1 3 -0.055903 26.1971 9.9785 7.05587
65 1 3 -0.0559 14.7918 8.54005 0.580159
66 1 3 -0.0559 21.7402 12.5517 14.334
67 1 3 -0.055903 22.7229 13.1191 13.5316
68 1 3 -0.055903 13.8091 7.97268 1.38254
69 1 3 -0.0559 21.7402 3.39366 7.85825
70 1 3 -0.0559 14.7918 17.6981 7.05587
71 1 3 -0.055903 13.8091 17.1307 7.85825
72 1 3 -0.055903 22.7229 3.96103 7.05587
73 1 3 -0.055901 22.7229 17.1307 7.85825
74 1 3 -0.055901 13.8091 3.96103 7.05587
75 1 3 -0.055903 14.7918 3.39366 7.85825
76 1 3 -0.055903 21.7402 17.6981 7.05587
77 1 3 -0.0559 21.7402 8.54005 0.580159
78 1 3 -0.0559 14.7918 12.5517 14.334
79 1 3 -0.055903 13.8091 13.1191 13.5316
80 1 3 -0.055903 22.7229 7.97268 1.38254
81 1 4 -1.26215 27.399 15.8188 11.1856
82 1 4 -1.26215 9.13299 5.27293 3.72853
83 1 4 -0.60118 27.399 18.9383 11.9641
84 1 4 -0.60118 9.13299 2.15347 2.95001
85 1 4 -0.601179 27.399 17.5926 13.8671
86 1 4 -0.601179 9.13299 3.49912 1.04697
87 1 4 -0.601179 26.2336 13.3722 9.45555
88 1 4 -0.601179 10.2984 7.71958 5.45857
89 1 4 -0.60118 28.5643 13.3722 9.45555
90 1 4 -0.60118 7.96762 7.71958 5.45857
91 1 4 -0.60118 25.8628 14.9319 13.8671
92 1 4 -0.60118 10.6692 6.15984 1.04697
93 1 4 -0.601179 24.6974 14.2591 11.9641
94 1 4 -0.601179 11.8345 6.83267 2.95001
95 1 4 -0.60118 28.9351 18.0514 9.45555
96 1 4 -0.60118 7.59682 3.04037 5.45857
97 1 4 -0.601179 30.1005 16.0329 9.45555
98 1 4 -0.601179 6.43145 5.05885 5.45857
99 1 4 -0.601179 24.6974 16.0329 9.45555
100 1 4 -0.601179 11.8345 5.05885 5.45857
101 1 4 -0.60118 25.8628 18.0514 9.45555
102 1 4 -0.60118 10.6692 3.04037 5.45857
103 1 4 -0.60118 28.9351 14.9319 13.8671
104 1 4 -0.60118 7.59682 6.15984 1.04697
105 1 4 -0.60118 30.1005 14.2591 11.9641
106 1 4 -0.60118 6.43145 6.83267 2.95001
ITEM: TIMESTEP
2000
ITEM: NUMBER OF ATOMS
106
ITEM: BOX BOUNDS xy xz yz pp pp pp
0.0000000000000000e+00 3.6531964750000000e+01 9.1329911900000003e+00
0.0000000000000000e+00 2.1091739680000000e+01 9.1329911900000003e+00
0.0000000000000000e+00 1.4914112149999999e+01 5.2729349200000000e+00
ITEM: ATOMS id mol type q x y z
1 1 1 1.10383 27.399 17.6496 10.5383
2 1 1 1.10383 9.13299 3.44217 4.3758
3 1 1 1.10383 27.399 15.8188 13.1274
4 1 1 1.10383 9.13299 5.27293 1.78671
5 1 1 1.10383 25.8135 14.9034 10.5383
6 1 1 1.10383 10.7185 6.18832 4.3758
7 1 1 1.10383 28.9845 14.9034 10.5383
8 1 1 1.10383 7.5475 6.18832 4.3758
9 1 2 0.115889 18.266 5.48596 12.6084
10 1 2 0.115889 18.266 15.6058 2.30572
11 1 2 0.115888 18.266 13.716 0.969417
12 1 2 0.115888 18.266 7.37578 13.9447
13 1 2 0.11589 25.3934 11.4908 8.12521
14 1 2 0.11589 11.1386 9.60096 6.7889
15 1 2 0.115888 11.1386 11.4908 8.12521
16 1 2 0.115888 25.3934 9.60096 6.7889
17 1 2 0.115889 15.5206 8.96083 0.969417
18 1 2 0.115889 21.0114 12.1309 13.9447
19 1 2 0.115888 22.648 13.0758 12.6084
20 1 2 0.115888 13.884 8.01592 2.30572
21 1 2 0.115889 21.0114 3.90092 8.12521
22 1 2 0.115889 15.5206 17.1908 6.7889
23 1 2 0.115887 13.884 16.2459 8.12521
24 1 2 0.115887 22.648 4.84583 6.7889
25 1 2 0.115889 22.648 16.2459 8.12521
26 1 2 0.115889 13.884 4.84583 6.7889
27 1 2 0.115887 15.5206 3.90092 8.12521
28 1 2 0.115887 21.0114 17.1908 6.7889
29 1 2 0.115889 21.0114 8.96083 0.969417
30 1 2 0.115889 15.5206 12.1309 13.9447
31 1 2 0.115887 13.884 13.0758 12.6084
32 1 2 0.115887 22.648 8.01592 2.30572
33 1 3 0.671939 27.399 18.7442 13.2542
34 1 3 0.671939 9.13299 2.34751 1.65994
35 1 3 0.671939 27.399 12.8934 9.117
36 1 3 0.671939 9.13299 8.19836 5.79712
37 1 3 0.67194 24.8655 14.3561 13.2542
38 1 3 0.67194 11.6665 6.73565 1.65994
39 1 3 0.67194 29.9325 17.2815 9.117
40 1 3 0.67194 6.5995 3.81022 5.79712
41 1 3 0.67194 24.8655 17.2815 9.117
42 1 3 0.67194 11.6665 3.81022 5.79712
43 1 3 0.67194 29.9325 14.3561 13.2542
44 1 3 0.67194 6.5995 6.73565 1.65994
45 1 3 -0.11508 27.399 19.957 14.1117
46 1 3 -0.11508 9.13299 1.13474 0.802379
47 1 3 -0.11508 27.399 11.6806 8.25944
48 1 3 -0.11508 9.13299 9.41113 6.65468
49 1 3 -0.11508 23.8152 13.7497 14.1117
50 1 3 -0.11508 12.7168 7.34203 0.802379
51 1 3 -0.11508 30.9828 17.8879 8.25944
52 1 3 -0.11508 5.54921 3.20384 6.65468
53 1 3 -0.11508 23.8152 17.8879 8.25944
54 1 3 -0.11508 12.7168 3.20384 6.65468
55 1 3 -0.11508 30.9828 13.7497 14.1117
56 1 3 -0.11508 5.54921 7.34203 0.802379
57 1 3 -0.0559 18.266 5.39949 13.5316
58 1 3 -0.0559 18.266 15.6923 1.38254
59 1 3 -0.055903 18.266 14.5575 0.580159
60 1 3 -0.055903 18.266 6.53422 14.334
61 1 3 -0.0559 26.1971 11.1132 7.85825
62 1 3 -0.0559 10.3349 9.9785 7.05587
63 1 3 -0.055903 10.3349 11.1132 7.85825
64 1 3 -0.055903 26.1971 9.9785 7.05587
65 1 3 -0.0559 14.7918 8.54005 0.580159
66 1 3 -0.0559 21.7402 12.5517 14.334
67 1 3 -0.055903 22.7229 13.1191 13.5316
68 1 3 -0.055903 13.8091 7.97268 1.38254
69 1 3 -0.0559 21.7402 3.39366 7.85825
70 1 3 -0.0559 14.7918 17.6981 7.05587
71 1 3 -0.055903 13.8091 17.1307 7.85825
72 1 3 -0.055903 22.7229 3.96103 7.05587
73 1 3 -0.055901 22.7229 17.1307 7.85825
74 1 3 -0.055901 13.8091 3.96103 7.05587
75 1 3 -0.055903 14.7918 3.39366 7.85825
76 1 3 -0.055903 21.7402 17.6981 7.05587
77 1 3 -0.0559 21.7402 8.54005 0.580159
78 1 3 -0.0559 14.7918 12.5517 14.334
79 1 3 -0.055903 13.8091 13.1191 13.5316
80 1 3 -0.055903 22.7229 7.97268 1.38254
81 1 4 -1.26215 27.399 15.8188 11.1856
82 1 4 -1.26215 9.13299 5.27293 3.72853
83 1 4 -0.60118 27.399 18.9383 11.9641
84 1 4 -0.60118 9.13299 2.15347 2.95001
85 1 4 -0.601179 27.399 17.5926 13.8671
86 1 4 -0.601179 9.13299 3.49912 1.04697
87 1 4 -0.601179 26.2336 13.3722 9.45555
88 1 4 -0.601179 10.2984 7.71958 5.45857
89 1 4 -0.60118 28.5643 13.3722 9.45555
90 1 4 -0.60118 7.96762 7.71958 5.45857
91 1 4 -0.60118 25.8628 14.9319 13.8671
92 1 4 -0.60118 10.6692 6.15984 1.04697
93 1 4 -0.601179 24.6974 14.2591 11.9641
94 1 4 -0.601179 11.8345 6.83267 2.95001
95 1 4 -0.60118 28.9351 18.0514 9.45555
96 1 4 -0.60118 7.59682 3.04037 5.45857
97 1 4 -0.601179 30.1005 16.0329 9.45555
98 1 4 -0.601179 6.43145 5.05885 5.45857
99 1 4 -0.601179 24.6974 16.0329 9.45555
100 1 4 -0.601179 11.8345 5.05885 5.45857
101 1 4 -0.60118 25.8628 18.0514 9.45555
102 1 4 -0.60118 10.6692 3.04037 5.45857
103 1 4 -0.60118 28.9351 14.9319 13.8671
104 1 4 -0.60118 7.59682 6.15984 1.04697
105 1 4 -0.60118 30.1005 14.2591 11.9641
106 1 4 -0.60118 6.43145 6.83267 2.95001
ITEM: TIMESTEP
3000
ITEM: NUMBER OF ATOMS
106
ITEM: BOX BOUNDS xy xz yz pp pp pp
0.0000000000000000e+00 3.6531964750000000e+01 9.1329911900000003e+00
0.0000000000000000e+00 2.1091739680000000e+01 9.1329911900000003e+00
0.0000000000000000e+00 1.4914112149999999e+01 5.2729349200000000e+00
ITEM: ATOMS id mol type q x y z
1 1 1 1.10383 27.399 17.6496 10.5383
2 1 1 1.10383 9.13299 3.44217 4.3758
3 1 1 1.10383 27.399 15.8188 13.1274
4 1 1 1.10383 9.13299 5.27293 1.78671
5 1 1 1.10383 25.8135 14.9034 10.5383
6 1 1 1.10383 10.7185 6.18832 4.3758
7 1 1 1.10383 28.9845 14.9034 10.5383
8 1 1 1.10383 7.5475 6.18832 4.3758
9 1 2 0.115889 18.266 5.48596 12.6084
10 1 2 0.115889 18.266 15.6058 2.30572
11 1 2 0.115888 18.266 13.716 0.969417
12 1 2 0.115888 18.266 7.37578 13.9447
13 1 2 0.11589 25.3934 11.4908 8.12521
14 1 2 0.11589 11.1386 9.60096 6.7889
15 1 2 0.115888 11.1386 11.4908 8.12521
16 1 2 0.115888 25.3934 9.60096 6.7889
17 1 2 0.115889 15.5206 8.96083 0.969417
18 1 2 0.115889 21.0114 12.1309 13.9447
19 1 2 0.115888 22.648 13.0758 12.6084
20 1 2 0.115888 13.884 8.01592 2.30572
21 1 2 0.115889 21.0114 3.90092 8.12521
22 1 2 0.115889 15.5206 17.1908 6.7889
23 1 2 0.115887 13.884 16.2459 8.12521
24 1 2 0.115887 22.648 4.84583 6.7889
25 1 2 0.115889 22.648 16.2459 8.12521
26 1 2 0.115889 13.884 4.84583 6.7889
27 1 2 0.115887 15.5206 3.90092 8.12521
28 1 2 0.115887 21.0114 17.1908 6.7889
29 1 2 0.115889 21.0114 8.96083 0.969417
30 1 2 0.115889 15.5206 12.1309 13.9447
31 1 2 0.115887 13.884 13.0758 12.6084
32 1 2 0.115887 22.648 8.01592 2.30572
33 1 3 0.671939 27.399 18.7442 13.2542
34 1 3 0.671939 9.13299 2.34751 1.65994
35 1 3 0.671939 27.399 12.8934 9.117
36 1 3 0.671939 9.13299 8.19836 5.79712
37 1 3 0.67194 24.8655 14.3561 13.2542
38 1 3 0.67194 11.6665 6.73565 1.65994
39 1 3 0.67194 29.9325 17.2815 9.117
40 1 3 0.67194 6.5995 3.81022 5.79712
41 1 3 0.67194 24.8655 17.2815 9.117
42 1 3 0.67194 11.6665 3.81022 5.79712
43 1 3 0.67194 29.9325 14.3561 13.2542
44 1 3 0.67194 6.5995 6.73565 1.65994
45 1 3 -0.11508 27.399 19.957 14.1117
46 1 3 -0.11508 9.13299 1.13474 0.802379
47 1 3 -0.11508 27.399 11.6806 8.25944
48 1 3 -0.11508 9.13299 9.41113 6.65468
49 1 3 -0.11508 23.8152 13.7497 14.1117
50 1 3 -0.11508 12.7168 7.34203 0.802379
51 1 3 -0.11508 30.9828 17.8879 8.25944
52 1 3 -0.11508 5.54921 3.20384 6.65468
53 1 3 -0.11508 23.8152 17.8879 8.25944
54 1 3 -0.11508 12.7168 3.20384 6.65468
55 1 3 -0.11508 30.9828 13.7497 14.1117
56 1 3 -0.11508 5.54921 7.34203 0.802379
57 1 3 -0.0559 18.266 5.39949 13.5316
58 1 3 -0.0559 18.266 15.6923 1.38254
59 1 3 -0.055903 18.266 14.5575 0.580159
60 1 3 -0.055903 18.266 6.53422 14.334
61 1 3 -0.0559 26.1971 11.1132 7.85825
62 1 3 -0.0559 10.3349 9.9785 7.05587
63 1 3 -0.055903 10.3349 11.1132 7.85825
64 1 3 -0.055903 26.1971 9.9785 7.05587
65 1 3 -0.0559 14.7918 8.54005 0.580159
66 1 3 -0.0559 21.7402 12.5517 14.334
67 1 3 -0.055903 22.7229 13.1191 13.5316
68 1 3 -0.055903 13.8091 7.97268 1.38254
69 1 3 -0.0559 21.7402 3.39366 7.85825
70 1 3 -0.0559 14.7918 17.6981 7.05587
71 1 3 -0.055903 13.8091 17.1307 7.85825
72 1 3 -0.055903 22.7229 3.96103 7.05587
73 1 3 -0.055901 22.7229 17.1307 7.85825
74 1 3 -0.055901 13.8091 3.96103 7.05587
75 1 3 -0.055903 14.7918 3.39366 7.85825
76 1 3 -0.055903 21.7402 17.6981 7.05587
77 1 3 -0.0559 21.7402 8.54005 0.580159
78 1 3 -0.0559 14.7918 12.5517 14.334
79 1 3 -0.055903 13.8091 13.1191 13.5316
80 1 3 -0.055903 22.7229 7.97268 1.38254
81 1 4 -1.26215 27.399 15.8188 11.1856
82 1 4 -1.26215 9.13299 5.27293 3.72853
83 1 4 -0.60118 27.399 18.9383 11.9641
84 1 4 -0.60118 9.13299 2.15347 2.95001
85 1 4 -0.601179 27.399 17.5926 13.8671
86 1 4 -0.601179 9.13299 3.49912 1.04697
87 1 4 -0.601179 26.2336 13.3722 9.45555
88 1 4 -0.601179 10.2984 7.71958 5.45857
89 1 4 -0.60118 28.5643 13.3722 9.45555
90 1 4 -0.60118 7.96762 7.71958 5.45857
91 1 4 -0.60118 25.8628 14.9319 13.8671
92 1 4 -0.60118 10.6692 6.15984 1.04697
93 1 4 -0.601179 24.6974 14.2591 11.9641
94 1 4 -0.601179 11.8345 6.83267 2.95001
95 1 4 -0.60118 28.9351 18.0514 9.45555
96 1 4 -0.60118 7.59682 3.04037 5.45857
97 1 4 -0.601179 30.1005 16.0329 9.45555
98 1 4 -0.601179 6.43145 5.05885 5.45857
99 1 4 -0.601179 24.6974 16.0329 9.45555
100 1 4 -0.601179 11.8345 5.05885 5.45857
101 1 4 -0.60118 25.8628 18.0514 9.45555
102 1 4 -0.60118 10.6692 3.04037 5.45857
103 1 4 -0.60118 28.9351 14.9319 13.8671
104 1 4 -0.60118 7.59682 6.15984 1.04697
105 1 4 -0.60118 30.1005 14.2591 11.9641
106 1 4 -0.60118 6.43145 6.83267 2.95001
ITEM: TIMESTEP
4000
ITEM: NUMBER OF ATOMS
106
ITEM: BOX BOUNDS xy xz yz pp pp pp
0.0000000000000000e+00 3.6531964750000000e+01 9.1329911900000003e+00
0.0000000000000000e+00 2.1091739680000000e+01 9.1329911900000003e+00
0.0000000000000000e+00 1.4914112149999999e+01 5.2729349200000000e+00
ITEM: ATOMS id mol type q x y z
1 1 1 1.10383 27.399 17.6496 10.5383
2 1 1 1.10383 9.13299 3.44217 4.3758
3 1 1 1.10383 27.399 15.8188 13.1274
4 1 1 1.10383 9.13299 5.27293 1.78671
5 1 1 1.10383 25.8135 14.9034 10.5383
6 1 1 1.10383 10.7185 6.18832 4.3758
7 1 1 1.10383 28.9845 14.9034 10.5383
8 1 1 1.10383 7.5475 6.18832 4.3758
9 1 2 0.115889 18.266 5.48596 12.6084
10 1 2 0.115889 18.266 15.6058 2.30572
11 1 2 0.115888 18.266 13.716 0.969417
12 1 2 0.115888 18.266 7.37578 13.9447
13 1 2 0.11589 25.3934 11.4908 8.12521
14 1 2 0.11589 11.1386 9.60096 6.7889
15 1 2 0.115888 11.1386 11.4908 8.12521
16 1 2 0.115888 25.3934 9.60096 6.7889
17 1 2 0.115889 15.5206 8.96083 0.969417
18 1 2 0.115889 21.0114 12.1309 13.9447
19 1 2 0.115888 22.648 13.0758 12.6084
20 1 2 0.115888 13.884 8.01592 2.30572
21 1 2 0.115889 21.0114 3.90092 8.12521
22 1 2 0.115889 15.5206 17.1908 6.7889
23 1 2 0.115887 13.884 16.2459 8.12521
24 1 2 0.115887 22.648 4.84583 6.7889
25 1 2 0.115889 22.648 16.2459 8.12521
26 1 2 0.115889 13.884 4.84583 6.7889
27 1 2 0.115887 15.5206 3.90092 8.12521
28 1 2 0.115887 21.0114 17.1908 6.7889
29 1 2 0.115889 21.0114 8.96083 0.969417
30 1 2 0.115889 15.5206 12.1309 13.9447
31 1 2 0.115887 13.884 13.0758 12.6084
32 1 2 0.115887 22.648 8.01592 2.30572
33 1 3 0.671939 27.399 18.7442 13.2542
34 1 3 0.671939 9.13299 2.34751 1.65994
35 1 3 0.671939 27.399 12.8934 9.117
36 1 3 0.671939 9.13299 8.19836 5.79712
37 1 3 0.67194 24.8655 14.3561 13.2542
38 1 3 0.67194 11.6665 6.73565 1.65994
39 1 3 0.67194 29.9325 17.2815 9.117
40 1 3 0.67194 6.5995 3.81022 5.79712
41 1 3 0.67194 24.8655 17.2815 9.117
42 1 3 0.67194 11.6665 3.81022 5.79712
43 1 3 0.67194 29.9325 14.3561 13.2542
44 1 3 0.67194 6.5995 6.73565 1.65994
45 1 3 -0.11508 27.399 19.957 14.1117
46 1 3 -0.11508 9.13299 1.13474 0.802379
47 1 3 -0.11508 27.399 11.6806 8.25944
48 1 3 -0.11508 9.13299 9.41113 6.65468
49 1 3 -0.11508 23.8152 13.7497 14.1117
50 1 3 -0.11508 12.7168 7.34203 0.802379
51 1 3 -0.11508 30.9828 17.8879 8.25944
52 1 3 -0.11508 5.54921 3.20384 6.65468
53 1 3 -0.11508 23.8152 17.8879 8.25944
54 1 3 -0.11508 12.7168 3.20384 6.65468
55 1 3 -0.11508 30.9828 13.7497 14.1117
56 1 3 -0.11508 5.54921 7.34203 0.802379
57 1 3 -0.0559 18.266 5.39949 13.5316
58 1 3 -0.0559 18.266 15.6923 1.38254
59 1 3 -0.055903 18.266 14.5575 0.580159
60 1 3 -0.055903 18.266 6.53422 14.334
61 1 3 -0.0559 26.1971 11.1132 7.85825
62 1 3 -0.0559 10.3349 9.9785 7.05587
63 1 3 -0.055903 10.3349 11.1132 7.85825
64 1 3 -0.055903 26.1971 9.9785 7.05587
65 1 3 -0.0559 14.7918 8.54005 0.580159
66 1 3 -0.0559 21.7402 12.5517 14.334
67 1 3 -0.055903 22.7229 13.1191 13.5316
68 1 3 -0.055903 13.8091 7.97268 1.38254
69 1 3 -0.0559 21.7402 3.39366 7.85825
70 1 3 -0.0559 14.7918 17.6981 7.05587
71 1 3 -0.055903 13.8091 17.1307 7.85825
72 1 3 -0.055903 22.7229 3.96103 7.05587
73 1 3 -0.055901 22.7229 17.1307 7.85825
74 1 3 -0.055901 13.8091 3.96103 7.05587
75 1 3 -0.055903 14.7918 3.39366 7.85825
76 1 3 -0.055903 21.7402 17.6981 7.05587
77 1 3 -0.0559 21.7402 8.54005 0.580159
78 1 3 -0.0559 14.7918 12.5517 14.334
79 1 3 -0.055903 13.8091 13.1191 13.5316
80 1 3 -0.055903 22.7229 7.97268 1.38254
81 1 4 -1.26215 27.399 15.8188 11.1856
82 1 4 -1.26215 9.13299 5.27293 3.72853
83 1 4 -0.60118 27.399 18.9383 11.9641
84 1 4 -0.60118 9.13299 2.15347 2.95001
85 1 4 -0.601179 27.399 17.5926 13.8671
86 1 4 -0.601179 9.13299 3.49912 1.04697
87 1 4 -0.601179 26.2336 13.3722 9.45555
88 1 4 -0.601179 10.2984 7.71958 5.45857
89 1 4 -0.60118 28.5643 13.3722 9.45555
90 1 4 -0.60118 7.96762 7.71958 5.45857
91 1 4 -0.60118 25.8628 14.9319 13.8671
92 1 4 -0.60118 10.6692 6.15984 1.04697
93 1 4 -0.601179 24.6974 14.2591 11.9641
94 1 4 -0.601179 11.8345 6.83267 2.95001
95 1 4 -0.60118 28.9351 18.0514 9.45555
96 1 4 -0.60118 7.59682 3.04037 5.45857
97 1 4 -0.601179 30.1005 16.0329 9.45555
98 1 4 -0.601179 6.43145 5.05885 5.45857
99 1 4 -0.601179 24.6974 16.0329 9.45555
100 1 4 -0.601179 11.8345 5.05885 5.45857
101 1 4 -0.60118 25.8628 18.0514 9.45555
102 1 4 -0.60118 10.6692 3.04037 5.45857
103 1 4 -0.60118 28.9351 14.9319 13.8671
104 1 4 -0.60118 7.59682 6.15984 1.04697
105 1 4 -0.60118 30.1005 14.2591 11.9641
106 1 4 -0.60118 6.43145 6.83267 2.95001
ITEM: TIMESTEP
5000
ITEM: NUMBER OF ATOMS
106
ITEM: BOX BOUNDS xy xz yz pp pp pp
0.0000000000000000e+00 3.6531964750000000e+01 9.1329911900000003e+00
0.0000000000000000e+00 2.1091739680000000e+01 9.1329911900000003e+00
0.0000000000000000e+00 1.4914112149999999e+01 5.2729349200000000e+00
ITEM: ATOMS id mol type q x y z
1 1 1 1.10383 27.399 17.6496 10.5383
2 1 1 1.10383 9.13299 3.44217 4.3758
3 1 1 1.10383 27.399 15.8188 13.1274
4 1 1 1.10383 9.13299 5.27293 1.78671
5 1 1 1.10383 25.8135 14.9034 10.5383
6 1 1 1.10383 10.7185 6.18832 4.3758
7 1 1 1.10383 28.9845 14.9034 10.5383
8 1 1 1.10383 7.5475 6.18832 4.3758
9 1 2 0.115889 18.266 5.48596 12.6084
10 1 2 0.115889 18.266 15.6058 2.30572
11 1 2 0.115888 18.266 13.716 0.969417
12 1 2 0.115888 18.266 7.37578 13.9447
13 1 2 0.11589 25.3934 11.4908 8.12521
14 1 2 0.11589 11.1386 9.60096 6.7889
15 1 2 0.115888 11.1386 11.4908 8.12521
16 1 2 0.115888 25.3934 9.60096 6.7889
17 1 2 0.115889 15.5206 8.96083 0.969417
18 1 2 0.115889 21.0114 12.1309 13.9447
19 1 2 0.115888 22.648 13.0758 12.6084
20 1 2 0.115888 13.884 8.01592 2.30572
21 1 2 0.115889 21.0114 3.90092 8.12521
22 1 2 0.115889 15.5206 17.1908 6.7889
23 1 2 0.115887 13.884 16.2459 8.12521
24 1 2 0.115887 22.648 4.84583 6.7889
25 1 2 0.115889 22.648 16.2459 8.12521
26 1 2 0.115889 13.884 4.84583 6.7889
27 1 2 0.115887 15.5206 3.90092 8.12521
28 1 2 0.115887 21.0114 17.1908 6.7889
29 1 2 0.115889 21.0114 8.96083 0.969417
30 1 2 0.115889 15.5206 12.1309 13.9447
31 1 2 0.115887 13.884 13.0758 12.6084
32 1 2 0.115887 22.648 8.01592 2.30572
33 1 3 0.671939 27.399 18.7442 13.2542
34 1 3 0.671939 9.13299 2.34751 1.65994
35 1 3 0.671939 27.399 12.8934 9.117
36 1 3 0.671939 9.13299 8.19836 5.79712
37 1 3 0.67194 24.8655 14.3561 13.2542
38 1 3 0.67194 11.6665 6.73565 1.65994
39 1 3 0.67194 29.9325 17.2815 9.117
40 1 3 0.67194 6.5995 3.81022 5.79712
41 1 3 0.67194 24.8655 17.2815 9.117
42 1 3 0.67194 11.6665 3.81022 5.79712
43 1 3 0.67194 29.9325 14.3561 13.2542
44 1 3 0.67194 6.5995 6.73565 1.65994
45 1 3 -0.11508 27.399 19.957 14.1117
46 1 3 -0.11508 9.13299 1.13474 0.802379
47 1 3 -0.11508 27.399 11.6806 8.25944
48 1 3 -0.11508 9.13299 9.41113 6.65468
49 1 3 -0.11508 23.8152 13.7497 14.1117
50 1 3 -0.11508 12.7168 7.34203 0.802379
51 1 3 -0.11508 30.9828 17.8879 8.25944
52 1 3 -0.11508 5.54921 3.20384 6.65468
53 1 3 -0.11508 23.8152 17.8879 8.25944
54 1 3 -0.11508 12.7168 3.20384 6.65468
55 1 3 -0.11508 30.9828 13.7497 14.1117
56 1 3 -0.11508 5.54921 7.34203 0.802379
57 1 3 -0.0559 18.266 5.39949 13.5316
58 1 3 -0.0559 18.266 15.6923 1.38254
59 1 3 -0.055903 18.266 14.5575 0.580159
60 1 3 -0.055903 18.266 6.53422 14.334
61 1 3 -0.0559 26.1971 11.1132 7.85825
62 1 3 -0.0559 10.3349 9.9785 7.05587
63 1 3 -0.055903 10.3349 11.1132 7.85825
64 1 3 -0.055903 26.1971 9.9785 7.05587
65 1 3 -0.0559 14.7918 8.54005 0.580159
66 1 3 -0.0559 21.7402 12.5517 14.334
67 1 3 -0.055903 22.7229 13.1191 13.5316
68 1 3 -0.055903 13.8091 7.97268 1.38254
69 1 3 -0.0559 21.7402 3.39366 7.85825
70 1 3 -0.0559 14.7918 17.6981 7.05587
71 1 3 -0.055903 13.8091 17.1307 7.85825
72 1 3 -0.055903 22.7229 3.96103 7.05587
73 1 3 -0.055901 22.7229 17.1307 7.85825
74 1 3 -0.055901 13.8091 3.96103 7.05587
75 1 3 -0.055903 14.7918 3.39366 7.85825
76 1 3 -0.055903 21.7402 17.6981 7.05587
77 1 3 -0.0559 21.7402 8.54005 0.580159
78 1 3 -0.0559 14.7918 12.5517 14.334
79 1 3 -0.055903 13.8091 13.1191 13.5316
80 1 3 -0.055903 22.7229 7.97268 1.38254
81 1 4 -1.26215 27.399 15.8188 11.1856
82 1 4 -1.26215 9.13299 5.27293 3.72853
83 1 4 -0.60118 27.399 18.9383 11.9641
84 1 4 -0.60118 9.13299 2.15347 2.95001
85 1 4 -0.601179 27.399 17.5926 13.8671
86 1 4 -0.601179 9.13299 3.49912 1.04697
87 1 4 -0.601179 26.2336 13.3722 9.45555
88 1 4 -0.601179 10.2984 7.71958 5.45857
89 1 4 -0.60118 28.5643 13.3722 9.45555
90 1 4 -0.60118 7.96762 7.71958 5.45857
91 1 4 -0.60118 25.8628 14.9319 13.8671
92 1 4 -0.60118 10.6692 6.15984 1.04697
93 1 4 -0.601179 24.6974 14.2591 11.9641
94 1 4 -0.601179 11.8345 6.83267 2.95001
95 1 4 -0.60118 28.9351 18.0514 9.45555
96 1 4 -0.60118 7.59682 3.04037 5.45857
97 1 4 -0.601179 30.1005 16.0329 9.45555
98 1 4 -0.601179 6.43145 5.05885 5.45857
99 1 4 -0.601179 24.6974 16.0329 9.45555
100 1 4 -0.601179 11.8345 5.05885 5.45857
101 1 4 -0.60118 25.8628 18.0514 9.45555
102 1 4 -0.60118 10.6692 3.04037 5.45857
103 1 4 -0.60118 28.9351 14.9319 13.8671
104 1 4 -0.60118 7.59682 6.15984 1.04697
105 1 4 -0.60118 30.1005 14.2591 11.9641
106 1 4 -0.60118 6.43145 6.83267 2.95001
ITEM: TIMESTEP
6000
ITEM: NUMBER OF ATOMS
109
ITEM: BOX BOUNDS xy xz yz pp pp pp
0.0000000000000000e+00 3.6531964750000000e+01 9.1329911900000003e+00
0.0000000000000000e+00 2.1091739680000000e+01 9.1329911900000003e+00
0.0000000000000000e+00 1.4914112149999999e+01 5.2729349200000000e+00
ITEM: ATOMS id mol type q x y z
1 1 1 1.10383 27.399 17.6496 10.5383
2 1 1 1.10383 9.13299 3.44217 4.3758
3 1 1 1.10383 27.399 15.8188 13.1274
4 1 1 1.10383 9.13299 5.27293 1.78671
5 1 1 1.10383 25.8135 14.9034 10.5383
6 1 1 1.10383 10.7185 6.18832 4.3758
7 1 1 1.10383 28.9845 14.9034 10.5383
8 1 1 1.10383 7.5475 6.18832 4.3758
9 1 2 0.115889 18.266 5.48596 12.6084
10 1 2 0.115889 18.266 15.6058 2.30572
11 1 2 0.115888 18.266 13.716 0.969417
12 1 2 0.115888 18.266 7.37578 13.9447
13 1 2 0.11589 25.3934 11.4908 8.12521
14 1 2 0.11589 11.1386 9.60096 6.7889
15 1 2 0.115888 11.1386 11.4908 8.12521
16 1 2 0.115888 25.3934 9.60096 6.7889
17 1 2 0.115889 15.5206 8.96083 0.969417
18 1 2 0.115889 21.0114 12.1309 13.9447
19 1 2 0.115888 22.648 13.0758 12.6084
20 1 2 0.115888 13.884 8.01592 2.30572
21 1 2 0.115889 21.0114 3.90092 8.12521
22 1 2 0.115889 15.5206 17.1908 6.7889
23 1 2 0.115887 13.884 16.2459 8.12521
24 1 2 0.115887 22.648 4.84583 6.7889
25 1 2 0.115889 22.648 16.2459 8.12521
26 1 2 0.115889 13.884 4.84583 6.7889
27 1 2 0.115887 15.5206 3.90092 8.12521
28 1 2 0.115887 21.0114 17.1908 6.7889
29 1 2 0.115889 21.0114 8.96083 0.969417
30 1 2 0.115889 15.5206 12.1309 13.9447
31 1 2 0.115887 13.884 13.0758 12.6084
32 1 2 0.115887 22.648 8.01592 2.30572
33 1 3 0.671939 27.399 18.7442 13.2542
34 1 3 0.671939 9.13299 2.34751 1.65994
35 1 3 0.671939 27.399 12.8934 9.117
36 1 3 0.671939 9.13299 8.19836 5.79712
37 1 3 0.67194 24.8655 14.3561 13.2542
38 1 3 0.67194 11.6665 6.73565 1.65994
39 1 3 0.67194 29.9325 17.2815 9.117
40 1 3 0.67194 6.5995 3.81022 5.79712
41 1 3 0.67194 24.8655 17.2815 9.117
42 1 3 0.67194 11.6665 3.81022 5.79712
43 1 3 0.67194 29.9325 14.3561 13.2542
44 1 3 0.67194 6.5995 6.73565 1.65994
45 1 3 -0.11508 27.399 19.957 14.1117
46 1 3 -0.11508 9.13299 1.13474 0.802379
47 1 3 -0.11508 27.399 11.6806 8.25944
48 1 3 -0.11508 9.13299 9.41113 6.65468
49 1 3 -0.11508 23.8152 13.7497 14.1117
50 1 3 -0.11508 12.7168 7.34203 0.802379
51 1 3 -0.11508 30.9828 17.8879 8.25944
52 1 3 -0.11508 5.54921 3.20384 6.65468
53 1 3 -0.11508 23.8152 17.8879 8.25944
54 1 3 -0.11508 12.7168 3.20384 6.65468
55 1 3 -0.11508 30.9828 13.7497 14.1117
56 1 3 -0.11508 5.54921 7.34203 0.802379
57 1 3 -0.0559 18.266 5.39949 13.5316
58 1 3 -0.0559 18.266 15.6923 1.38254
59 1 3 -0.055903 18.266 14.5575 0.580159
60 1 3 -0.055903 18.266 6.53422 14.334
61 1 3 -0.0559 26.1971 11.1132 7.85825
62 1 3 -0.0559 10.3349 9.9785 7.05587
63 1 3 -0.055903 10.3349 11.1132 7.85825
64 1 3 -0.055903 26.1971 9.9785 7.05587
65 1 3 -0.0559 14.7918 8.54005 0.580159
66 1 3 -0.0559 21.7402 12.5517 14.334
67 1 3 -0.055903 22.7229 13.1191 13.5316
68 1 3 -0.055903 13.8091 7.97268 1.38254
69 1 3 -0.0559 21.7402 3.39366 7.85825
70 1 3 -0.0559 14.7918 17.6981 7.05587
71 1 3 -0.055903 13.8091 17.1307 7.85825
72 1 3 -0.055903 22.7229 3.96103 7.05587
73 1 3 -0.055901 22.7229 17.1307 7.85825
74 1 3 -0.055901 13.8091 3.96103 7.05587
75 1 3 -0.055903 14.7918 3.39366 7.85825
76 1 3 -0.055903 21.7402 17.6981 7.05587
77 1 3 -0.0559 21.7402 8.54005 0.580159
78 1 3 -0.0559 14.7918 12.5517 14.334
79 1 3 -0.055903 13.8091 13.1191 13.5316
80 1 3 -0.055903 22.7229 7.97268 1.38254
81 1 4 -1.26215 27.399 15.8188 11.1856
82 1 4 -1.26215 9.13299 5.27293 3.72853
83 1 4 -0.60118 27.399 18.9383 11.9641
84 1 4 -0.60118 9.13299 2.15347 2.95001
85 1 4 -0.601179 27.399 17.5926 13.8671
86 1 4 -0.601179 9.13299 3.49912 1.04697
87 1 4 -0.601179 26.2336 13.3722 9.45555
88 1 4 -0.601179 10.2984 7.71958 5.45857
89 1 4 -0.60118 28.5643 13.3722 9.45555
90 1 4 -0.60118 7.96762 7.71958 5.45857
91 1 4 -0.60118 25.8628 14.9319 13.8671
92 1 4 -0.60118 10.6692 6.15984 1.04697
93 1 4 -0.601179 24.6974 14.2591 11.9641
94 1 4 -0.601179 11.8345 6.83267 2.95001
95 1 4 -0.60118 28.9351 18.0514 9.45555
96 1 4 -0.60118 7.59682 3.04037 5.45857
97 1 4 -0.601179 30.1005 16.0329 9.45555
98 1 4 -0.601179 6.43145 5.05885 5.45857
99 1 4 -0.601179 24.6974 16.0329 9.45555
100 1 4 -0.601179 11.8345 5.05885 5.45857
101 1 4 -0.60118 25.8628 18.0514 9.45555
102 1 4 -0.60118 10.6692 3.04037 5.45857
103 1 4 -0.60118 28.9351 14.9319 13.8671
104 1 4 -0.60118 7.59682 6.15984 1.04697
105 1 4 -0.60118 30.1005 14.2591 11.9641
106 1 4 -0.60118 6.43145 6.83267 2.95001
107 2 5 -0.35 21.9351 9.00283 13.2663
108 2 6 0.7 21.002 8.53992 12.7557
109 2 5 -0.35 20.069 8.07702 12.2451
ITEM: TIMESTEP
7000
ITEM: NUMBER OF ATOMS
106
ITEM: BOX BOUNDS xy xz yz pp pp pp
0.0000000000000000e+00 3.6531964750000000e+01 9.1329911900000003e+00
0.0000000000000000e+00 2.1091739680000000e+01 9.1329911900000003e+00
0.0000000000000000e+00 1.4914112149999999e+01 5.2729349200000000e+00
ITEM: ATOMS id mol type q x y z
1 1 1 1.10383 27.399 17.6496 10.5383
2 1 1 1.10383 9.13299 3.44217 4.3758
3 1 1 1.10383 27.399 15.8188 13.1274
4 1 1 1.10383 9.13299 5.27293 1.78671
5 1 1 1.10383 25.8135 14.9034 10.5383
6 1 1 1.10383 10.7185 6.18832 4.3758
7 1 1 1.10383 28.9845 14.9034 10.5383
8 1 1 1.10383 7.5475 6.18832 4.3758
9 1 2 0.115889 18.266 5.48596 12.6084
10 1 2 0.115889 18.266 15.6058 2.30572
11 1 2 0.115888 18.266 13.716 0.969417
12 1 2 0.115888 18.266 7.37578 13.9447
13 1 2 0.11589 25.3934 11.4908 8.12521
14 1 2 0.11589 11.1386 9.60096 6.7889
15 1 2 0.115888 11.1386 11.4908 8.12521
16 1 2 0.115888 25.3934 9.60096 6.7889
17 1 2 0.115889 15.5206 8.96083 0.969417
18 1 2 0.115889 21.0114 12.1309 13.9447
19 1 2 0.115888 22.648 13.0758 12.6084
20 1 2 0.115888 13.884 8.01592 2.30572
21 1 2 0.115889 21.0114 3.90092 8.12521
22 1 2 0.115889 15.5206 17.1908 6.7889
23 1 2 0.115887 13.884 16.2459 8.12521
24 1 2 0.115887 22.648 4.84583 6.7889
25 1 2 0.115889 22.648 16.2459 8.12521
26 1 2 0.115889 13.884 4.84583 6.7889
27 1 2 0.115887 15.5206 3.90092 8.12521
28 1 2 0.115887 21.0114 17.1908 6.7889
29 1 2 0.115889 21.0114 8.96083 0.969417
30 1 2 0.115889 15.5206 12.1309 13.9447
31 1 2 0.115887 13.884 13.0758 12.6084
32 1 2 0.115887 22.648 8.01592 2.30572
33 1 3 0.671939 27.399 18.7442 13.2542
34 1 3 0.671939 9.13299 2.34751 1.65994
35 1 3 0.671939 27.399 12.8934 9.117
36 1 3 0.671939 9.13299 8.19836 5.79712
37 1 3 0.67194 24.8655 14.3561 13.2542
38 1 3 0.67194 11.6665 6.73565 1.65994
39 1 3 0.67194 29.9325 17.2815 9.117
40 1 3 0.67194 6.5995 3.81022 5.79712
41 1 3 0.67194 24.8655 17.2815 9.117
42 1 3 0.67194 11.6665 3.81022 5.79712
43 1 3 0.67194 29.9325 14.3561 13.2542
44 1 3 0.67194 6.5995 6.73565 1.65994
45 1 3 -0.11508 27.399 19.957 14.1117
46 1 3 -0.11508 9.13299 1.13474 0.802379
47 1 3 -0.11508 27.399 11.6806 8.25944
48 1 3 -0.11508 9.13299 9.41113 6.65468
49 1 3 -0.11508 23.8152 13.7497 14.1117
50 1 3 -0.11508 12.7168 7.34203 0.802379
51 1 3 -0.11508 30.9828 17.8879 8.25944
52 1 3 -0.11508 5.54921 3.20384 6.65468
53 1 3 -0.11508 23.8152 17.8879 8.25944
54 1 3 -0.11508 12.7168 3.20384 6.65468
55 1 3 -0.11508 30.9828 13.7497 14.1117
56 1 3 -0.11508 5.54921 7.34203 0.802379
57 1 3 -0.0559 18.266 5.39949 13.5316
58 1 3 -0.0559 18.266 15.6923 1.38254
59 1 3 -0.055903 18.266 14.5575 0.580159
60 1 3 -0.055903 18.266 6.53422 14.334
61 1 3 -0.0559 26.1971 11.1132 7.85825
62 1 3 -0.0559 10.3349 9.9785 7.05587
63 1 3 -0.055903 10.3349 11.1132 7.85825
64 1 3 -0.055903 26.1971 9.9785 7.05587
65 1 3 -0.0559 14.7918 8.54005 0.580159
66 1 3 -0.0559 21.7402 12.5517 14.334
67 1 3 -0.055903 22.7229 13.1191 13.5316
68 1 3 -0.055903 13.8091 7.97268 1.38254
69 1 3 -0.0559 21.7402 3.39366 7.85825
70 1 3 -0.0559 14.7918 17.6981 7.05587
71 1 3 -0.055903 13.8091 17.1307 7.85825
72 1 3 -0.055903 22.7229 3.96103 7.05587
73 1 3 -0.055901 22.7229 17.1307 7.85825
74 1 3 -0.055901 13.8091 3.96103 7.05587
75 1 3 -0.055903 14.7918 3.39366 7.85825
76 1 3 -0.055903 21.7402 17.6981 7.05587
77 1 3 -0.0559 21.7402 8.54005 0.580159
78 1 3 -0.0559 14.7918 12.5517 14.334
79 1 3 -0.055903 13.8091 13.1191 13.5316
80 1 3 -0.055903 22.7229 7.97268 1.38254
81 1 4 -1.26215 27.399 15.8188 11.1856
82 1 4 -1.26215 9.13299 5.27293 3.72853
83 1 4 -0.60118 27.399 18.9383 11.9641
84 1 4 -0.60118 9.13299 2.15347 2.95001
85 1 4 -0.601179 27.399 17.5926 13.8671
86 1 4 -0.601179 9.13299 3.49912 1.04697
87 1 4 -0.601179 26.2336 13.3722 9.45555
88 1 4 -0.601179 10.2984 7.71958 5.45857
89 1 4 -0.60118 28.5643 13.3722 9.45555
90 1 4 -0.60118 7.96762 7.71958 5.45857
91 1 4 -0.60118 25.8628 14.9319 13.8671
92 1 4 -0.60118 10.6692 6.15984 1.04697
93 1 4 -0.601179 24.6974 14.2591 11.9641
94 1 4 -0.601179 11.8345 6.83267 2.95001
95 1 4 -0.60118 28.9351 18.0514 9.45555
96 1 4 -0.60118 7.59682 3.04037 5.45857
97 1 4 -0.601179 30.1005 16.0329 9.45555
98 1 4 -0.601179 6.43145 5.05885 5.45857
99 1 4 -0.601179 24.6974 16.0329 9.45555
100 1 4 -0.601179 11.8345 5.05885 5.45857
101 1 4 -0.60118 25.8628 18.0514 9.45555
102 1 4 -0.60118 10.6692 3.04037 5.45857
103 1 4 -0.60118 28.9351 14.9319 13.8671
104 1 4 -0.60118 7.59682 6.15984 1.04697
105 1 4 -0.60118 30.1005 14.2591 11.9641
106 1 4 -0.60118 6.43145 6.83267 2.95001
ITEM: TIMESTEP
8000
ITEM: NUMBER OF ATOMS
106
ITEM: BOX BOUNDS xy xz yz pp pp pp
0.0000000000000000e+00 3.6531964750000000e+01 9.1329911900000003e+00
0.0000000000000000e+00 2.1091739680000000e+01 9.1329911900000003e+00
0.0000000000000000e+00 1.4914112149999999e+01 5.2729349200000000e+00
ITEM: ATOMS id mol type q x y z
1 1 1 1.10383 27.399 17.6496 10.5383
2 1 1 1.10383 9.13299 3.44217 4.3758
3 1 1 1.10383 27.399 15.8188 13.1274
4 1 1 1.10383 9.13299 5.27293 1.78671
5 1 1 1.10383 25.8135 14.9034 10.5383
6 1 1 1.10383 10.7185 6.18832 4.3758
7 1 1 1.10383 28.9845 14.9034 10.5383
8 1 1 1.10383 7.5475 6.18832 4.3758
9 1 2 0.115889 18.266 5.48596 12.6084
10 1 2 0.115889 18.266 15.6058 2.30572
11 1 2 0.115888 18.266 13.716 0.969417
12 1 2 0.115888 18.266 7.37578 13.9447
13 1 2 0.11589 25.3934 11.4908 8.12521
14 1 2 0.11589 11.1386 9.60096 6.7889
15 1 2 0.115888 11.1386 11.4908 8.12521
16 1 2 0.115888 25.3934 9.60096 6.7889
17 1 2 0.115889 15.5206 8.96083 0.969417
18 1 2 0.115889 21.0114 12.1309 13.9447
19 1 2 0.115888 22.648 13.0758 12.6084
20 1 2 0.115888 13.884 8.01592 2.30572
21 1 2 0.115889 21.0114 3.90092 8.12521
22 1 2 0.115889 15.5206 17.1908 6.7889
23 1 2 0.115887 13.884 16.2459 8.12521
24 1 2 0.115887 22.648 4.84583 6.7889
25 1 2 0.115889 22.648 16.2459 8.12521
26 1 2 0.115889 13.884 4.84583 6.7889
27 1 2 0.115887 15.5206 3.90092 8.12521
28 1 2 0.115887 21.0114 17.1908 6.7889
29 1 2 0.115889 21.0114 8.96083 0.969417
30 1 2 0.115889 15.5206 12.1309 13.9447
31 1 2 0.115887 13.884 13.0758 12.6084
32 1 2 0.115887 22.648 8.01592 2.30572
33 1 3 0.671939 27.399 18.7442 13.2542
34 1 3 0.671939 9.13299 2.34751 1.65994
35 1 3 0.671939 27.399 12.8934 9.117
36 1 3 0.671939 9.13299 8.19836 5.79712
37 1 3 0.67194 24.8655 14.3561 13.2542
38 1 3 0.67194 11.6665 6.73565 1.65994
39 1 3 0.67194 29.9325 17.2815 9.117
40 1 3 0.67194 6.5995 3.81022 5.79712
41 1 3 0.67194 24.8655 17.2815 9.117
42 1 3 0.67194 11.6665 3.81022 5.79712
43 1 3 0.67194 29.9325 14.3561 13.2542
44 1 3 0.67194 6.5995 6.73565 1.65994
45 1 3 -0.11508 27.399 19.957 14.1117
46 1 3 -0.11508 9.13299 1.13474 0.802379
47 1 3 -0.11508 27.399 11.6806 8.25944
48 1 3 -0.11508 9.13299 9.41113 6.65468
49 1 3 -0.11508 23.8152 13.7497 14.1117
50 1 3 -0.11508 12.7168 7.34203 0.802379
51 1 3 -0.11508 30.9828 17.8879 8.25944
52 1 3 -0.11508 5.54921 3.20384 6.65468
53 1 3 -0.11508 23.8152 17.8879 8.25944
54 1 3 -0.11508 12.7168 3.20384 6.65468
55 1 3 -0.11508 30.9828 13.7497 14.1117
56 1 3 -0.11508 5.54921 7.34203 0.802379
57 1 3 -0.0559 18.266 5.39949 13.5316
58 1 3 -0.0559 18.266 15.6923 1.38254
59 1 3 -0.055903 18.266 14.5575 0.580159
60 1 3 -0.055903 18.266 6.53422 14.334
61 1 3 -0.0559 26.1971 11.1132 7.85825
62 1 3 -0.0559 10.3349 9.9785 7.05587
63 1 3 -0.055903 10.3349 11.1132 7.85825
64 1 3 -0.055903 26.1971 9.9785 7.05587
65 1 3 -0.0559 14.7918 8.54005 0.580159
66 1 3 -0.0559 21.7402 12.5517 14.334
67 1 3 -0.055903 22.7229 13.1191 13.5316
68 1 3 -0.055903 13.8091 7.97268 1.38254
69 1 3 -0.0559 21.7402 3.39366 7.85825
70 1 3 -0.0559 14.7918 17.6981 7.05587
71 1 3 -0.055903 13.8091 17.1307 7.85825
72 1 3 -0.055903 22.7229 3.96103 7.05587
73 1 3 -0.055901 22.7229 17.1307 7.85825
74 1 3 -0.055901 13.8091 3.96103 7.05587
75 1 3 -0.055903 14.7918 3.39366 7.85825
76 1 3 -0.055903 21.7402 17.6981 7.05587
77 1 3 -0.0559 21.7402 8.54005 0.580159
78 1 3 -0.0559 14.7918 12.5517 14.334
79 1 3 -0.055903 13.8091 13.1191 13.5316
80 1 3 -0.055903 22.7229 7.97268 1.38254
81 1 4 -1.26215 27.399 15.8188 11.1856
82 1 4 -1.26215 9.13299 5.27293 3.72853
83 1 4 -0.60118 27.399 18.9383 11.9641
84 1 4 -0.60118 9.13299 2.15347 2.95001
85 1 4 -0.601179 27.399 17.5926 13.8671
86 1 4 -0.601179 9.13299 3.49912 1.04697
87 1 4 -0.601179 26.2336 13.3722 9.45555
88 1 4 -0.601179 10.2984 7.71958 5.45857
89 1 4 -0.60118 28.5643 13.3722 9.45555
90 1 4 -0.60118 7.96762 7.71958 5.45857
91 1 4 -0.60118 25.8628 14.9319 13.8671
92 1 4 -0.60118 10.6692 6.15984 1.04697
93 1 4 -0.601179 24.6974 14.2591 11.9641
94 1 4 -0.601179 11.8345 6.83267 2.95001
95 1 4 -0.60118 28.9351 18.0514 9.45555
96 1 4 -0.60118 7.59682 3.04037 5.45857
97 1 4 -0.601179 30.1005 16.0329 9.45555
98 1 4 -0.601179 6.43145 5.05885 5.45857
99 1 4 -0.601179 24.6974 16.0329 9.45555
100 1 4 -0.601179 11.8345 5.05885 5.45857
101 1 4 -0.60118 25.8628 18.0514 9.45555
102 1 4 -0.60118 10.6692 3.04037 5.45857
103 1 4 -0.60118 28.9351 14.9319 13.8671
104 1 4 -0.60118 7.59682 6.15984 1.04697
105 1 4 -0.60118 30.1005 14.2591 11.9641
106 1 4 -0.60118 6.43145 6.83267 2.95001
ITEM: TIMESTEP
9000
ITEM: NUMBER OF ATOMS
106
ITEM: BOX BOUNDS xy xz yz pp pp pp
0.0000000000000000e+00 3.6531964750000000e+01 9.1329911900000003e+00
0.0000000000000000e+00 2.1091739680000000e+01 9.1329911900000003e+00
0.0000000000000000e+00 1.4914112149999999e+01 5.2729349200000000e+00
ITEM: ATOMS id mol type q x y z
1 1 1 1.10383 27.399 17.6496 10.5383
2 1 1 1.10383 9.13299 3.44217 4.3758
3 1 1 1.10383 27.399 15.8188 13.1274
4 1 1 1.10383 9.13299 5.27293 1.78671
5 1 1 1.10383 25.8135 14.9034 10.5383
6 1 1 1.10383 10.7185 6.18832 4.3758
7 1 1 1.10383 28.9845 14.9034 10.5383
8 1 1 1.10383 7.5475 6.18832 4.3758
9 1 2 0.115889 18.266 5.48596 12.6084
10 1 2 0.115889 18.266 15.6058 2.30572
11 1 2 0.115888 18.266 13.716 0.969417
12 1 2 0.115888 18.266 7.37578 13.9447
13 1 2 0.11589 25.3934 11.4908 8.12521
14 1 2 0.11589 11.1386 9.60096 6.7889
15 1 2 0.115888 11.1386 11.4908 8.12521
16 1 2 0.115888 25.3934 9.60096 6.7889
17 1 2 0.115889 15.5206 8.96083 0.969417
18 1 2 0.115889 21.0114 12.1309 13.9447
19 1 2 0.115888 22.648 13.0758 12.6084
20 1 2 0.115888 13.884 8.01592 2.30572
21 1 2 0.115889 21.0114 3.90092 8.12521
22 1 2 0.115889 15.5206 17.1908 6.7889
23 1 2 0.115887 13.884 16.2459 8.12521
24 1 2 0.115887 22.648 4.84583 6.7889
25 1 2 0.115889 22.648 16.2459 8.12521
26 1 2 0.115889 13.884 4.84583 6.7889
27 1 2 0.115887 15.5206 3.90092 8.12521
28 1 2 0.115887 21.0114 17.1908 6.7889
29 1 2 0.115889 21.0114 8.96083 0.969417
30 1 2 0.115889 15.5206 12.1309 13.9447
31 1 2 0.115887 13.884 13.0758 12.6084
32 1 2 0.115887 22.648 8.01592 2.30572
33 1 3 0.671939 27.399 18.7442 13.2542
34 1 3 0.671939 9.13299 2.34751 1.65994
35 1 3 0.671939 27.399 12.8934 9.117
36 1 3 0.671939 9.13299 8.19836 5.79712
37 1 3 0.67194 24.8655 14.3561 13.2542
38 1 3 0.67194 11.6665 6.73565 1.65994
39 1 3 0.67194 29.9325 17.2815 9.117
40 1 3 0.67194 6.5995 3.81022 5.79712
41 1 3 0.67194 24.8655 17.2815 9.117
42 1 3 0.67194 11.6665 3.81022 5.79712
43 1 3 0.67194 29.9325 14.3561 13.2542
44 1 3 0.67194 6.5995 6.73565 1.65994
45 1 3 -0.11508 27.399 19.957 14.1117
46 1 3 -0.11508 9.13299 1.13474 0.802379
47 1 3 -0.11508 27.399 11.6806 8.25944
48 1 3 -0.11508 9.13299 9.41113 6.65468
49 1 3 -0.11508 23.8152 13.7497 14.1117
50 1 3 -0.11508 12.7168 7.34203 0.802379
51 1 3 -0.11508 30.9828 17.8879 8.25944
52 1 3 -0.11508 5.54921 3.20384 6.65468
53 1 3 -0.11508 23.8152 17.8879 8.25944
54 1 3 -0.11508 12.7168 3.20384 6.65468
55 1 3 -0.11508 30.9828 13.7497 14.1117
56 1 3 -0.11508 5.54921 7.34203 0.802379
57 1 3 -0.0559 18.266 5.39949 13.5316
58 1 3 -0.0559 18.266 15.6923 1.38254
59 1 3 -0.055903 18.266 14.5575 0.580159
60 1 3 -0.055903 18.266 6.53422 14.334
61 1 3 -0.0559 26.1971 11.1132 7.85825
62 1 3 -0.0559 10.3349 9.9785 7.05587
63 1 3 -0.055903 10.3349 11.1132 7.85825
64 1 3 -0.055903 26.1971 9.9785 7.05587
65 1 3 -0.0559 14.7918 8.54005 0.580159
66 1 3 -0.0559 21.7402 12.5517 14.334
67 1 3 -0.055903 22.7229 13.1191 13.5316
68 1 3 -0.055903 13.8091 7.97268 1.38254
69 1 3 -0.0559 21.7402 3.39366 7.85825
70 1 3 -0.0559 14.7918 17.6981 7.05587
71 1 3 -0.055903 13.8091 17.1307 7.85825
72 1 3 -0.055903 22.7229 3.96103 7.05587
73 1 3 -0.055901 22.7229 17.1307 7.85825
74 1 3 -0.055901 13.8091 3.96103 7.05587
75 1 3 -0.055903 14.7918 3.39366 7.85825
76 1 3 -0.055903 21.7402 17.6981 7.05587
77 1 3 -0.0559 21.7402 8.54005 0.580159
78 1 3 -0.0559 14.7918 12.5517 14.334
79 1 3 -0.055903 13.8091 13.1191 13.5316
80 1 3 -0.055903 22.7229 7.97268 1.38254
81 1 4 -1.26215 27.399 15.8188 11.1856
82 1 4 -1.26215 9.13299 5.27293 3.72853
83 1 4 -0.60118 27.399 18.9383 11.9641
84 1 4 -0.60118 9.13299 2.15347 2.95001
85 1 4 -0.601179 27.399 17.5926 13.8671
86 1 4 -0.601179 9.13299 3.49912 1.04697
87 1 4 -0.601179 26.2336 13.3722 9.45555
88 1 4 -0.601179 10.2984 7.71958 5.45857
89 1 4 -0.60118 28.5643 13.3722 9.45555
90 1 4 -0.60118 7.96762 7.71958 5.45857
91 1 4 -0.60118 25.8628 14.9319 13.8671
92 1 4 -0.60118 10.6692 6.15984 1.04697
93 1 4 -0.601179 24.6974 14.2591 11.9641
94 1 4 -0.601179 11.8345 6.83267 2.95001
95 1 4 -0.60118 28.9351 18.0514 9.45555
96 1 4 -0.60118 7.59682 3.04037 5.45857
97 1 4 -0.601179 30.1005 16.0329 9.45555
98 1 4 -0.601179 6.43145 5.05885 5.45857
99 1 4 -0.601179 24.6974 16.0329 9.45555
100 1 4 -0.601179 11.8345 5.05885 5.45857
101 1 4 -0.60118 25.8628 18.0514 9.45555
102 1 4 -0.60118 10.6692 3.04037 5.45857
103 1 4 -0.60118 28.9351 14.9319 13.8671
104 1 4 -0.60118 7.59682 6.15984 1.04697
105 1 4 -0.60118 30.1005 14.2591 11.9641
106 1 4 -0.60118 6.43145 6.83267 2.95001
ITEM: TIMESTEP
10000
ITEM: NUMBER OF ATOMS
106
ITEM: BOX BOUNDS xy xz yz pp pp pp
0.0000000000000000e+00 3.6531964750000000e+01 9.1329911900000003e+00
0.0000000000000000e+00 2.1091739680000000e+01 9.1329911900000003e+00
0.0000000000000000e+00 1.4914112149999999e+01 5.2729349200000000e+00
ITEM: ATOMS id mol type q x y z
1 1 1 1.10383 27.399 17.6496 10.5383
2 1 1 1.10383 9.13299 3.44217 4.3758
3 1 1 1.10383 27.399 15.8188 13.1274
4 1 1 1.10383 9.13299 5.27293 1.78671
5 1 1 1.10383 25.8135 14.9034 10.5383
6 1 1 1.10383 10.7185 6.18832 4.3758
7 1 1 1.10383 28.9845 14.9034 10.5383
8 1 1 1.10383 7.5475 6.18832 4.3758
9 1 2 0.115889 18.266 5.48596 12.6084
10 1 2 0.115889 18.266 15.6058 2.30572
11 1 2 0.115888 18.266 13.716 0.969417
12 1 2 0.115888 18.266 7.37578 13.9447
13 1 2 0.11589 25.3934 11.4908 8.12521
14 1 2 0.11589 11.1386 9.60096 6.7889
15 1 2 0.115888 11.1386 11.4908 8.12521
16 1 2 0.115888 25.3934 9.60096 6.7889
17 1 2 0.115889 15.5206 8.96083 0.969417
18 1 2 0.115889 21.0114 12.1309 13.9447
19 1 2 0.115888 22.648 13.0758 12.6084
20 1 2 0.115888 13.884 8.01592 2.30572
21 1 2 0.115889 21.0114 3.90092 8.12521
22 1 2 0.115889 15.5206 17.1908 6.7889
23 1 2 0.115887 13.884 16.2459 8.12521
24 1 2 0.115887 22.648 4.84583 6.7889
25 1 2 0.115889 22.648 16.2459 8.12521
26 1 2 0.115889 13.884 4.84583 6.7889
27 1 2 0.115887 15.5206 3.90092 8.12521
28 1 2 0.115887 21.0114 17.1908 6.7889
29 1 2 0.115889 21.0114 8.96083 0.969417
30 1 2 0.115889 15.5206 12.1309 13.9447
31 1 2 0.115887 13.884 13.0758 12.6084
32 1 2 0.115887 22.648 8.01592 2.30572
33 1 3 0.671939 27.399 18.7442 13.2542
34 1 3 0.671939 9.13299 2.34751 1.65994
35 1 3 0.671939 27.399 12.8934 9.117
36 1 3 0.671939 9.13299 8.19836 5.79712
37 1 3 0.67194 24.8655 14.3561 13.2542
38 1 3 0.67194 11.6665 6.73565 1.65994
39 1 3 0.67194 29.9325 17.2815 9.117
40 1 3 0.67194 6.5995 3.81022 5.79712
41 1 3 0.67194 24.8655 17.2815 9.117
42 1 3 0.67194 11.6665 3.81022 5.79712
43 1 3 0.67194 29.9325 14.3561 13.2542
44 1 3 0.67194 6.5995 6.73565 1.65994
45 1 3 -0.11508 27.399 19.957 14.1117
46 1 3 -0.11508 9.13299 1.13474 0.802379
47 1 3 -0.11508 27.399 11.6806 8.25944
48 1 3 -0.11508 9.13299 9.41113 6.65468
49 1 3 -0.11508 23.8152 13.7497 14.1117
50 1 3 -0.11508 12.7168 7.34203 0.802379
51 1 3 -0.11508 30.9828 17.8879 8.25944
52 1 3 -0.11508 5.54921 3.20384 6.65468
53 1 3 -0.11508 23.8152 17.8879 8.25944
54 1 3 -0.11508 12.7168 3.20384 6.65468
55 1 3 -0.11508 30.9828 13.7497 14.1117
56 1 3 -0.11508 5.54921 7.34203 0.802379
57 1 3 -0.0559 18.266 5.39949 13.5316
58 1 3 -0.0559 18.266 15.6923 1.38254
59 1 3 -0.055903 18.266 14.5575 0.580159
60 1 3 -0.055903 18.266 6.53422 14.334
61 1 3 -0.0559 26.1971 11.1132 7.85825
62 1 3 -0.0559 10.3349 9.9785 7.05587
63 1 3 -0.055903 10.3349 11.1132 7.85825
64 1 3 -0.055903 26.1971 9.9785 7.05587
65 1 3 -0.0559 14.7918 8.54005 0.580159
66 1 3 -0.0559 21.7402 12.5517 14.334
67 1 3 -0.055903 22.7229 13.1191 13.5316
68 1 3 -0.055903 13.8091 7.97268 1.38254
69 1 3 -0.0559 21.7402 3.39366 7.85825
70 1 3 -0.0559 14.7918 17.6981 7.05587
71 1 3 -0.055903 13.8091 17.1307 7.85825
72 1 3 -0.055903 22.7229 3.96103 7.05587
73 1 3 -0.055901 22.7229 17.1307 7.85825
74 1 3 -0.055901 13.8091 3.96103 7.05587
75 1 3 -0.055903 14.7918 3.39366 7.85825
76 1 3 -0.055903 21.7402 17.6981 7.05587
77 1 3 -0.0559 21.7402 8.54005 0.580159
78 1 3 -0.0559 14.7918 12.5517 14.334
79 1 3 -0.055903 13.8091 13.1191 13.5316
80 1 3 -0.055903 22.7229 7.97268 1.38254
81 1 4 -1.26215 27.399 15.8188 11.1856
82 1 4 -1.26215 9.13299 5.27293 3.72853
83 1 4 -0.60118 27.399 18.9383 11.9641
84 1 4 -0.60118 9.13299 2.15347 2.95001
85 1 4 -0.601179 27.399 17.5926 13.8671
86 1 4 -0.601179 9.13299 3.49912 1.04697
87 1 4 -0.601179 26.2336 13.3722 9.45555
88 1 4 -0.601179 10.2984 7.71958 5.45857
89 1 4 -0.60118 28.5643 13.3722 9.45555
90 1 4 -0.60118 7.96762 7.71958 5.45857
91 1 4 -0.60118 25.8628 14.9319 13.8671
92 1 4 -0.60118 10.6692 6.15984 1.04697
93 1 4 -0.601179 24.6974 14.2591 11.9641
94 1 4 -0.601179 11.8345 6.83267 2.95001
95 1 4 -0.60118 28.9351 18.0514 9.45555
96 1 4 -0.60118 7.59682 3.04037 5.45857
97 1 4 -0.601179 30.1005 16.0329 9.45555
98 1 4 -0.601179 6.43145 5.05885 5.45857
99 1 4 -0.601179 24.6974 16.0329 9.45555
100 1 4 -0.601179 11.8345 5.05885 5.45857
101 1 4 -0.60118 25.8628 18.0514 9.45555
102 1 4 -0.60118 10.6692 3.04037 5.45857
103 1 4 -0.60118 28.9351 14.9319 13.8671
104 1 4 -0.60118 7.59682 6.15984 1.04697
105 1 4 -0.60118 30.1005 14.2591 11.9641
106 1 4 -0.60118 6.43145 6.83267 2.95001
ITEM: TIMESTEP
11000
ITEM: NUMBER OF ATOMS
106
ITEM: BOX BOUNDS xy xz yz pp pp pp
0.0000000000000000e+00 3.6531964750000000e+01 9.1329911900000003e+00
0.0000000000000000e+00 2.1091739680000000e+01 9.1329911900000003e+00
0.0000000000000000e+00 1.4914112149999999e+01 5.2729349200000000e+00
ITEM: ATOMS id mol type q x y z
1 1 1 1.10383 27.399 17.6496 10.5383
2 1 1 1.10383 9.13299 3.44217 4.3758
3 1 1 1.10383 27.399 15.8188 13.1274
4 1 1 1.10383 9.13299 5.27293 1.78671
5 1 1 1.10383 25.8135 14.9034 10.5383
6 1 1 1.10383 10.7185 6.18832 4.3758
7 1 1 1.10383 28.9845 14.9034 10.5383
8 1 1 1.10383 7.5475 6.18832 4.3758
9 1 2 0.115889 18.266 5.48596 12.6084
10 1 2 0.115889 18.266 15.6058 2.30572
11 1 2 0.115888 18.266 13.716 0.969417
12 1 2 0.115888 18.266 7.37578 13.9447
13 1 2 0.11589 25.3934 11.4908 8.12521
14 1 2 0.11589 11.1386 9.60096 6.7889
15 1 2 0.115888 11.1386 11.4908 8.12521
16 1 2 0.115888 25.3934 9.60096 6.7889
17 1 2 0.115889 15.5206 8.96083 0.969417
18 1 2 0.115889 21.0114 12.1309 13.9447
19 1 2 0.115888 22.648 13.0758 12.6084
20 1 2 0.115888 13.884 8.01592 2.30572
21 1 2 0.115889 21.0114 3.90092 8.12521
22 1 2 0.115889 15.5206 17.1908 6.7889
23 1 2 0.115887 13.884 16.2459 8.12521
24 1 2 0.115887 22.648 4.84583 6.7889
25 1 2 0.115889 22.648 16.2459 8.12521
26 1 2 0.115889 13.884 4.84583 6.7889
27 1 2 0.115887 15.5206 3.90092 8.12521
28 1 2 0.115887 21.0114 17.1908 6.7889
29 1 2 0.115889 21.0114 8.96083 0.969417
30 1 2 0.115889 15.5206 12.1309 13.9447
31 1 2 0.115887 13.884 13.0758 12.6084
32 1 2 0.115887 22.648 8.01592 2.30572
33 1 3 0.671939 27.399 18.7442 13.2542
34 1 3 0.671939 9.13299 2.34751 1.65994
35 1 3 0.671939 27.399 12.8934 9.117
36 1 3 0.671939 9.13299 8.19836 5.79712
37 1 3 0.67194 24.8655 14.3561 13.2542
38 1 3 0.67194 11.6665 6.73565 1.65994
39 1 3 0.67194 29.9325 17.2815 9.117
40 1 3 0.67194 6.5995 3.81022 5.79712
41 1 3 0.67194 24.8655 17.2815 9.117
42 1 3 0.67194 11.6665 3.81022 5.79712
43 1 3 0.67194 29.9325 14.3561 13.2542
44 1 3 0.67194 6.5995 6.73565 1.65994
45 1 3 -0.11508 27.399 19.957 14.1117
46 1 3 -0.11508 9.13299 1.13474 0.802379
47 1 3 -0.11508 27.399 11.6806 8.25944
48 1 3 -0.11508 9.13299 9.41113 6.65468
49 1 3 -0.11508 23.8152 13.7497 14.1117
50 1 3 -0.11508 12.7168 7.34203 0.802379
51 1 3 -0.11508 30.9828 17.8879 8.25944
52 1 3 -0.11508 5.54921 3.20384 6.65468
53 1 3 -0.11508 23.8152 17.8879 8.25944
54 1 3 -0.11508 12.7168 3.20384 6.65468
55 1 3 -0.11508 30.9828 13.7497 14.1117
56 1 3 -0.11508 5.54921 7.34203 0.802379
57 1 3 -0.0559 18.266 5.39949 13.5316
58 1 3 -0.0559 18.266 15.6923 1.38254
59 1 3 -0.055903 18.266 14.5575 0.580159
60 1 3 -0.055903 18.266 6.53422 14.334
61 1 3 -0.0559 26.1971 11.1132 7.85825
62 1 3 -0.0559 10.3349 9.9785 7.05587
63 1 3 -0.055903 10.3349 11.1132 7.85825
64 1 3 -0.055903 26.1971 9.9785 7.05587
65 1 3 -0.0559 14.7918 8.54005 0.580159
66 1 3 -0.0559 21.7402 12.5517 14.334
67 1 3 -0.055903 22.7229 13.1191 13.5316
68 1 3 -0.055903 13.8091 7.97268 1.38254
69 1 3 -0.0559 21.7402 3.39366 7.85825
70 1 3 -0.0559 14.7918 17.6981 7.05587
71 1 3 -0.055903 13.8091 17.1307 7.85825
72 1 3 -0.055903 22.7229 3.96103 7.05587
73 1 3 -0.055901 22.7229 17.1307 7.85825
74 1 3 -0.055901 13.8091 3.96103 7.05587
75 1 3 -0.055903 14.7918 3.39366 7.85825
76 1 3 -0.055903 21.7402 17.6981 7.05587
77 1 3 -0.0559 21.7402 8.54005 0.580159
78 1 3 -0.0559 14.7918 12.5517 14.334
79 1 3 -0.055903 13.8091 13.1191 13.5316
80 1 3 -0.055903 22.7229 7.97268 1.38254
81 1 4 -1.26215 27.399 15.8188 11.1856
82 1 4 -1.26215 9.13299 5.27293 3.72853
83 1 4 -0.60118 27.399 18.9383 11.9641
84 1 4 -0.60118 9.13299 2.15347 2.95001
85 1 4 -0.601179 27.399 17.5926 13.8671
86 1 4 -0.601179 9.13299 3.49912 1.04697
87 1 4 -0.601179 26.2336 13.3722 9.45555
88 1 4 -0.601179 10.2984 7.71958 5.45857
89 1 4 -0.60118 28.5643 13.3722 9.45555
90 1 4 -0.60118 7.96762 7.71958 5.45857
91 1 4 -0.60118 25.8628 14.9319 13.8671
92 1 4 -0.60118 10.6692 6.15984 1.04697
93 1 4 -0.601179 24.6974 14.2591 11.9641
94 1 4 -0.601179 11.8345 6.83267 2.95001
95 1 4 -0.60118 28.9351 18.0514 9.45555
96 1 4 -0.60118 7.59682 3.04037 5.45857
97 1 4 -0.601179 30.1005 16.0329 9.45555
98 1 4 -0.601179 6.43145 5.05885 5.45857
99 1 4 -0.601179 24.6974 16.0329 9.45555
100 1 4 -0.601179 11.8345 5.05885 5.45857
101 1 4 -0.60118 25.8628 18.0514 9.45555
102 1 4 -0.60118 10.6692 3.04037 5.45857
103 1 4 -0.60118 28.9351 14.9319 13.8671
104 1 4 -0.60118 7.59682 6.15984 1.04697
105 1 4 -0.60118 30.1005 14.2591 11.9641
106 1 4 -0.60118 6.43145 6.83267 2.95001
ITEM: TIMESTEP
12000
ITEM: NUMBER OF ATOMS
106
ITEM: BOX BOUNDS xy xz yz pp pp pp
0.0000000000000000e+00 3.6531964750000000e+01 9.1329911900000003e+00
0.0000000000000000e+00 2.1091739680000000e+01 9.1329911900000003e+00
0.0000000000000000e+00 1.4914112149999999e+01 5.2729349200000000e+00
ITEM: ATOMS id mol type q x y z
1 1 1 1.10383 27.399 17.6496 10.5383
2 1 1 1.10383 9.13299 3.44217 4.3758
3 1 1 1.10383 27.399 15.8188 13.1274
4 1 1 1.10383 9.13299 5.27293 1.78671
5 1 1 1.10383 25.8135 14.9034 10.5383
6 1 1 1.10383 10.7185 6.18832 4.3758
7 1 1 1.10383 28.9845 14.9034 10.5383
8 1 1 1.10383 7.5475 6.18832 4.3758
9 1 2 0.115889 18.266 5.48596 12.6084
10 1 2 0.115889 18.266 15.6058 2.30572
11 1 2 0.115888 18.266 13.716 0.969417
12 1 2 0.115888 18.266 7.37578 13.9447
13 1 2 0.11589 25.3934 11.4908 8.12521
14 1 2 0.11589 11.1386 9.60096 6.7889
15 1 2 0.115888 11.1386 11.4908 8.12521
16 1 2 0.115888 25.3934 9.60096 6.7889
17 1 2 0.115889 15.5206 8.96083 0.969417
18 1 2 0.115889 21.0114 12.1309 13.9447
19 1 2 0.115888 22.648 13.0758 12.6084
20 1 2 0.115888 13.884 8.01592 2.30572
21 1 2 0.115889 21.0114 3.90092 8.12521
22 1 2 0.115889 15.5206 17.1908 6.7889
23 1 2 0.115887 13.884 16.2459 8.12521
24 1 2 0.115887 22.648 4.84583 6.7889
25 1 2 0.115889 22.648 16.2459 8.12521
26 1 2 0.115889 13.884 4.84583 6.7889
27 1 2 0.115887 15.5206 3.90092 8.12521
28 1 2 0.115887 21.0114 17.1908 6.7889
29 1 2 0.115889 21.0114 8.96083 0.969417
30 1 2 0.115889 15.5206 12.1309 13.9447
31 1 2 0.115887 13.884 13.0758 12.6084
32 1 2 0.115887 22.648 8.01592 2.30572
33 1 3 0.671939 27.399 18.7442 13.2542
34 1 3 0.671939 9.13299 2.34751 1.65994
35 1 3 0.671939 27.399 12.8934 9.117
36 1 3 0.671939 9.13299 8.19836 5.79712
37 1 3 0.67194 24.8655 14.3561 13.2542
38 1 3 0.67194 11.6665 6.73565 1.65994
39 1 3 0.67194 29.9325 17.2815 9.117
40 1 3 0.67194 6.5995 3.81022 5.79712
41 1 3 0.67194 24.8655 17.2815 9.117
42 1 3 0.67194 11.6665 3.81022 5.79712
43 1 3 0.67194 29.9325 14.3561 13.2542
44 1 3 0.67194 6.5995 6.73565 1.65994
45 1 3 -0.11508 27.399 19.957 14.1117
46 1 3 -0.11508 9.13299 1.13474 0.802379
47 1 3 -0.11508 27.399 11.6806 8.25944
48 1 3 -0.11508 9.13299 9.41113 6.65468
49 1 3 -0.11508 23.8152 13.7497 14.1117
50 1 3 -0.11508 12.7168 7.34203 0.802379
51 1 3 -0.11508 30.9828 17.8879 8.25944
52 1 3 -0.11508 5.54921 3.20384 6.65468
53 1 3 -0.11508 23.8152 17.8879 8.25944
54 1 3 -0.11508 12.7168 3.20384 6.65468
55 1 3 -0.11508 30.9828 13.7497 14.1117
56 1 3 -0.11508 5.54921 7.34203 0.802379
57 1 3 -0.0559 18.266 5.39949 13.5316
58 1 3 -0.0559 18.266 15.6923 1.38254
59 1 3 -0.055903 18.266 14.5575 0.580159
60 1 3 -0.055903 18.266 6.53422 14.334
61 1 3 -0.0559 26.1971 11.1132 7.85825
62 1 3 -0.0559 10.3349 9.9785 7.05587
63 1 3 -0.055903 10.3349 11.1132 7.85825
64 1 3 -0.055903 26.1971 9.9785 7.05587
65 1 3 -0.0559 14.7918 8.54005 0.580159
66 1 3 -0.0559 21.7402 12.5517 14.334
67 1 3 -0.055903 22.7229 13.1191 13.5316
68 1 3 -0.055903 13.8091 7.97268 1.38254
69 1 3 -0.0559 21.7402 3.39366 7.85825
70 1 3 -0.0559 14.7918 17.6981 7.05587
71 1 3 -0.055903 13.8091 17.1307 7.85825
72 1 3 -0.055903 22.7229 3.96103 7.05587
73 1 3 -0.055901 22.7229 17.1307 7.85825
74 1 3 -0.055901 13.8091 3.96103 7.05587
75 1 3 -0.055903 14.7918 3.39366 7.85825
76 1 3 -0.055903 21.7402 17.6981 7.05587
77 1 3 -0.0559 21.7402 8.54005 0.580159
78 1 3 -0.0559 14.7918 12.5517 14.334
79 1 3 -0.055903 13.8091 13.1191 13.5316
80 1 3 -0.055903 22.7229 7.97268 1.38254
81 1 4 -1.26215 27.399 15.8188 11.1856
82 1 4 -1.26215 9.13299 5.27293 3.72853
83 1 4 -0.60118 27.399 18.9383 11.9641
84 1 4 -0.60118 9.13299 2.15347 2.95001
85 1 4 -0.601179 27.399 17.5926 13.8671
86 1 4 -0.601179 9.13299 3.49912 1.04697
87 1 4 -0.601179 26.2336 13.3722 9.45555
88 1 4 -0.601179 10.2984 7.71958 5.45857
89 1 4 -0.60118 28.5643 13.3722 9.45555
90 1 4 -0.60118 7.96762 7.71958 5.45857
91 1 4 -0.60118 25.8628 14.9319 13.8671
92 1 4 -0.60118 10.6692 6.15984 1.04697
93 1 4 -0.601179 24.6974 14.2591 11.9641
94 1 4 -0.601179 11.8345 6.83267 2.95001
95 1 4 -0.60118 28.9351 18.0514 9.45555
96 1 4 -0.60118 7.59682 3.04037 5.45857
97 1 4 -0.601179 30.1005 16.0329 9.45555
98 1 4 -0.601179 6.43145 5.05885 5.45857
99 1 4 -0.601179 24.6974 16.0329 9.45555
100 1 4 -0.601179 11.8345 5.05885 5.45857
101 1 4 -0.60118 25.8628 18.0514 9.45555
102 1 4 -0.60118 10.6692 3.04037 5.45857
103 1 4 -0.60118 28.9351 14.9319 13.8671
104 1 4 -0.60118 7.59682 6.15984 1.04697
105 1 4 -0.60118 30.1005 14.2591 11.9641
106 1 4 -0.60118 6.43145 6.83267 2.95001
ITEM: TIMESTEP
13000
ITEM: NUMBER OF ATOMS
109
ITEM: BOX BOUNDS xy xz yz pp pp pp
0.0000000000000000e+00 3.6531964750000000e+01 9.1329911900000003e+00
0.0000000000000000e+00 2.1091739680000000e+01 9.1329911900000003e+00
0.0000000000000000e+00 1.4914112149999999e+01 5.2729349200000000e+00
ITEM: ATOMS id mol type q x y z
1 1 1 1.10383 27.399 17.6496 10.5383
2 1 1 1.10383 9.13299 3.44217 4.3758
3 1 1 1.10383 27.399 15.8188 13.1274
4 1 1 1.10383 9.13299 5.27293 1.78671
5 1 1 1.10383 25.8135 14.9034 10.5383
6 1 1 1.10383 10.7185 6.18832 4.3758
7 1 1 1.10383 28.9845 14.9034 10.5383
8 1 1 1.10383 7.5475 6.18832 4.3758
9 1 2 0.115889 18.266 5.48596 12.6084
10 1 2 0.115889 18.266 15.6058 2.30572
11 1 2 0.115888 18.266 13.716 0.969417
12 1 2 0.115888 18.266 7.37578 13.9447
13 1 2 0.11589 25.3934 11.4908 8.12521
14 1 2 0.11589 11.1386 9.60096 6.7889
15 1 2 0.115888 11.1386 11.4908 8.12521
16 1 2 0.115888 25.3934 9.60096 6.7889
17 1 2 0.115889 15.5206 8.96083 0.969417
18 1 2 0.115889 21.0114 12.1309 13.9447
19 1 2 0.115888 22.648 13.0758 12.6084
20 1 2 0.115888 13.884 8.01592 2.30572
21 1 2 0.115889 21.0114 3.90092 8.12521
22 1 2 0.115889 15.5206 17.1908 6.7889
23 1 2 0.115887 13.884 16.2459 8.12521
24 1 2 0.115887 22.648 4.84583 6.7889
25 1 2 0.115889 22.648 16.2459 8.12521
26 1 2 0.115889 13.884 4.84583 6.7889
27 1 2 0.115887 15.5206 3.90092 8.12521
28 1 2 0.115887 21.0114 17.1908 6.7889
29 1 2 0.115889 21.0114 8.96083 0.969417
30 1 2 0.115889 15.5206 12.1309 13.9447
31 1 2 0.115887 13.884 13.0758 12.6084
32 1 2 0.115887 22.648 8.01592 2.30572
33 1 3 0.671939 27.399 18.7442 13.2542
34 1 3 0.671939 9.13299 2.34751 1.65994
35 1 3 0.671939 27.399 12.8934 9.117
36 1 3 0.671939 9.13299 8.19836 5.79712
37 1 3 0.67194 24.8655 14.3561 13.2542
38 1 3 0.67194 11.6665 6.73565 1.65994
39 1 3 0.67194 29.9325 17.2815 9.117
40 1 3 0.67194 6.5995 3.81022 5.79712
41 1 3 0.67194 24.8655 17.2815 9.117
42 1 3 0.67194 11.6665 3.81022 5.79712
43 1 3 0.67194 29.9325 14.3561 13.2542
44 1 3 0.67194 6.5995 6.73565 1.65994
45 1 3 -0.11508 27.399 19.957 14.1117
46 1 3 -0.11508 9.13299 1.13474 0.802379
47 1 3 -0.11508 27.399 11.6806 8.25944
48 1 3 -0.11508 9.13299 9.41113 6.65468
49 1 3 -0.11508 23.8152 13.7497 14.1117
50 1 3 -0.11508 12.7168 7.34203 0.802379
51 1 3 -0.11508 30.9828 17.8879 8.25944
52 1 3 -0.11508 5.54921 3.20384 6.65468
53 1 3 -0.11508 23.8152 17.8879 8.25944
54 1 3 -0.11508 12.7168 3.20384 6.65468
55 1 3 -0.11508 30.9828 13.7497 14.1117
56 1 3 -0.11508 5.54921 7.34203 0.802379
57 1 3 -0.0559 18.266 5.39949 13.5316
58 1 3 -0.0559 18.266 15.6923 1.38254
59 1 3 -0.055903 18.266 14.5575 0.580159
60 1 3 -0.055903 18.266 6.53422 14.334
61 1 3 -0.0559 26.1971 11.1132 7.85825
62 1 3 -0.0559 10.3349 9.9785 7.05587
63 1 3 -0.055903 10.3349 11.1132 7.85825
64 1 3 -0.055903 26.1971 9.9785 7.05587
65 1 3 -0.0559 14.7918 8.54005 0.580159
66 1 3 -0.0559 21.7402 12.5517 14.334
67 1 3 -0.055903 22.7229 13.1191 13.5316
68 1 3 -0.055903 13.8091 7.97268 1.38254
69 1 3 -0.0559 21.7402 3.39366 7.85825
70 1 3 -0.0559 14.7918 17.6981 7.05587
71 1 3 -0.055903 13.8091 17.1307 7.85825
72 1 3 -0.055903 22.7229 3.96103 7.05587
73 1 3 -0.055901 22.7229 17.1307 7.85825
74 1 3 -0.055901 13.8091 3.96103 7.05587
75 1 3 -0.055903 14.7918 3.39366 7.85825
76 1 3 -0.055903 21.7402 17.6981 7.05587
77 1 3 -0.0559 21.7402 8.54005 0.580159
78 1 3 -0.0559 14.7918 12.5517 14.334
79 1 3 -0.055903 13.8091 13.1191 13.5316
80 1 3 -0.055903 22.7229 7.97268 1.38254
81 1 4 -1.26215 27.399 15.8188 11.1856
82 1 4 -1.26215 9.13299 5.27293 3.72853
83 1 4 -0.60118 27.399 18.9383 11.9641
84 1 4 -0.60118 9.13299 2.15347 2.95001
85 1 4 -0.601179 27.399 17.5926 13.8671
86 1 4 -0.601179 9.13299 3.49912 1.04697
87 1 4 -0.601179 26.2336 13.3722 9.45555
88 1 4 -0.601179 10.2984 7.71958 5.45857
89 1 4 -0.60118 28.5643 13.3722 9.45555
90 1 4 -0.60118 7.96762 7.71958 5.45857
91 1 4 -0.60118 25.8628 14.9319 13.8671
92 1 4 -0.60118 10.6692 6.15984 1.04697
93 1 4 -0.601179 24.6974 14.2591 11.9641
94 1 4 -0.601179 11.8345 6.83267 2.95001
95 1 4 -0.60118 28.9351 18.0514 9.45555
96 1 4 -0.60118 7.59682 3.04037 5.45857
97 1 4 -0.601179 30.1005 16.0329 9.45555
98 1 4 -0.601179 6.43145 5.05885 5.45857
99 1 4 -0.601179 24.6974 16.0329 9.45555
100 1 4 -0.601179 11.8345 5.05885 5.45857
101 1 4 -0.60118 25.8628 18.0514 9.45555
102 1 4 -0.60118 10.6692 3.04037 5.45857
103 1 4 -0.60118 28.9351 14.9319 13.8671
104 1 4 -0.60118 7.59682 6.15984 1.04697
105 1 4 -0.60118 30.1005 14.2591 11.9641
106 1 4 -0.60118 6.43145 6.83267 2.95001
107 2 5 -0.35 23.9692 19.0152 12.0167
108 2 6 0.7 14.527 4.08647 11.3401
109 2 5 -0.35 14.2178 4.97655 10.6635
ITEM: TIMESTEP
14000
ITEM: NUMBER OF ATOMS
106
ITEM: BOX BOUNDS xy xz yz pp pp pp
0.0000000000000000e+00 3.6531964750000000e+01 9.1329911900000003e+00
0.0000000000000000e+00 2.1091739680000000e+01 9.1329911900000003e+00
0.0000000000000000e+00 1.4914112149999999e+01 5.2729349200000000e+00
ITEM: ATOMS id mol type q x y z
1 1 1 1.10383 27.399 17.6496 10.5383
2 1 1 1.10383 9.13299 3.44217 4.3758
3 1 1 1.10383 27.399 15.8188 13.1274
4 1 1 1.10383 9.13299 5.27293 1.78671
5 1 1 1.10383 25.8135 14.9034 10.5383
6 1 1 1.10383 10.7185 6.18832 4.3758
7 1 1 1.10383 28.9845 14.9034 10.5383
8 1 1 1.10383 7.5475 6.18832 4.3758
9 1 2 0.115889 18.266 5.48596 12.6084
10 1 2 0.115889 18.266 15.6058 2.30572
11 1 2 0.115888 18.266 13.716 0.969417
12 1 2 0.115888 18.266 7.37578 13.9447
13 1 2 0.11589 25.3934 11.4908 8.12521
14 1 2 0.11589 11.1386 9.60096 6.7889
15 1 2 0.115888 11.1386 11.4908 8.12521
16 1 2 0.115888 25.3934 9.60096 6.7889
17 1 2 0.115889 15.5206 8.96083 0.969417
18 1 2 0.115889 21.0114 12.1309 13.9447
19 1 2 0.115888 22.648 13.0758 12.6084
20 1 2 0.115888 13.884 8.01592 2.30572
21 1 2 0.115889 21.0114 3.90092 8.12521
22 1 2 0.115889 15.5206 17.1908 6.7889
23 1 2 0.115887 13.884 16.2459 8.12521
24 1 2 0.115887 22.648 4.84583 6.7889
25 1 2 0.115889 22.648 16.2459 8.12521
26 1 2 0.115889 13.884 4.84583 6.7889
27 1 2 0.115887 15.5206 3.90092 8.12521
28 1 2 0.115887 21.0114 17.1908 6.7889
29 1 2 0.115889 21.0114 8.96083 0.969417
30 1 2 0.115889 15.5206 12.1309 13.9447
31 1 2 0.115887 13.884 13.0758 12.6084
32 1 2 0.115887 22.648 8.01592 2.30572
33 1 3 0.671939 27.399 18.7442 13.2542
34 1 3 0.671939 9.13299 2.34751 1.65994
35 1 3 0.671939 27.399 12.8934 9.117
36 1 3 0.671939 9.13299 8.19836 5.79712
37 1 3 0.67194 24.8655 14.3561 13.2542
38 1 3 0.67194 11.6665 6.73565 1.65994
39 1 3 0.67194 29.9325 17.2815 9.117
40 1 3 0.67194 6.5995 3.81022 5.79712
41 1 3 0.67194 24.8655 17.2815 9.117
42 1 3 0.67194 11.6665 3.81022 5.79712
43 1 3 0.67194 29.9325 14.3561 13.2542
44 1 3 0.67194 6.5995 6.73565 1.65994
45 1 3 -0.11508 27.399 19.957 14.1117
46 1 3 -0.11508 9.13299 1.13474 0.802379
47 1 3 -0.11508 27.399 11.6806 8.25944
48 1 3 -0.11508 9.13299 9.41113 6.65468
49 1 3 -0.11508 23.8152 13.7497 14.1117
50 1 3 -0.11508 12.7168 7.34203 0.802379
51 1 3 -0.11508 30.9828 17.8879 8.25944
52 1 3 -0.11508 5.54921 3.20384 6.65468
53 1 3 -0.11508 23.8152 17.8879 8.25944
54 1 3 -0.11508 12.7168 3.20384 6.65468
55 1 3 -0.11508 30.9828 13.7497 14.1117
56 1 3 -0.11508 5.54921 7.34203 0.802379
57 1 3 -0.0559 18.266 5.39949 13.5316
58 1 3 -0.0559 18.266 15.6923 1.38254
59 1 3 -0.055903 18.266 14.5575 0.580159
60 1 3 -0.055903 18.266 6.53422 14.334
61 1 3 -0.0559 26.1971 11.1132 7.85825
62 1 3 -0.0559 10.3349 9.9785 7.05587
63 1 3 -0.055903 10.3349 11.1132 7.85825
64 1 3 -0.055903 26.1971 9.9785 7.05587
65 1 3 -0.0559 14.7918 8.54005 0.580159
66 1 3 -0.0559 21.7402 12.5517 14.334
67 1 3 -0.055903 22.7229 13.1191 13.5316
68 1 3 -0.055903 13.8091 7.97268 1.38254
69 1 3 -0.0559 21.7402 3.39366 7.85825
70 1 3 -0.0559 14.7918 17.6981 7.05587
71 1 3 -0.055903 13.8091 17.1307 7.85825
72 1 3 -0.055903 22.7229 3.96103 7.05587
73 1 3 -0.055901 22.7229 17.1307 7.85825
74 1 3 -0.055901 13.8091 3.96103 7.05587
75 1 3 -0.055903 14.7918 3.39366 7.85825
76 1 3 -0.055903 21.7402 17.6981 7.05587
77 1 3 -0.0559 21.7402 8.54005 0.580159
78 1 3 -0.0559 14.7918 12.5517 14.334
79 1 3 -0.055903 13.8091 13.1191 13.5316
80 1 3 -0.055903 22.7229 7.97268 1.38254
81 1 4 -1.26215 27.399 15.8188 11.1856
82 1 4 -1.26215 9.13299 5.27293 3.72853
83 1 4 -0.60118 27.399 18.9383 11.9641
84 1 4 -0.60118 9.13299 2.15347 2.95001
85 1 4 -0.601179 27.399 17.5926 13.8671
86 1 4 -0.601179 9.13299 3.49912 1.04697
87 1 4 -0.601179 26.2336 13.3722 9.45555
88 1 4 -0.601179 10.2984 7.71958 5.45857
89 1 4 -0.60118 28.5643 13.3722 9.45555
90 1 4 -0.60118 7.96762 7.71958 5.45857
91 1 4 -0.60118 25.8628 14.9319 13.8671
92 1 4 -0.60118 10.6692 6.15984 1.04697
93 1 4 -0.601179 24.6974 14.2591 11.9641
94 1 4 -0.601179 11.8345 6.83267 2.95001
95 1 4 -0.60118 28.9351 18.0514 9.45555
96 1 4 -0.60118 7.59682 3.04037 5.45857
97 1 4 -0.601179 30.1005 16.0329 9.45555
98 1 4 -0.601179 6.43145 5.05885 5.45857
99 1 4 -0.601179 24.6974 16.0329 9.45555
100 1 4 -0.601179 11.8345 5.05885 5.45857
101 1 4 -0.60118 25.8628 18.0514 9.45555
102 1 4 -0.60118 10.6692 3.04037 5.45857
103 1 4 -0.60118 28.9351 14.9319 13.8671
104 1 4 -0.60118 7.59682 6.15984 1.04697
105 1 4 -0.60118 30.1005 14.2591 11.9641
106 1 4 -0.60118 6.43145 6.83267 2.95001
ITEM: TIMESTEP
15000
ITEM: NUMBER OF ATOMS
106
ITEM: BOX BOUNDS xy xz yz pp pp pp
0.0000000000000000e+00 3.6531964750000000e+01 9.1329911900000003e+00
0.0000000000000000e+00 2.1091739680000000e+01 9.1329911900000003e+00
0.0000000000000000e+00 1.4914112149999999e+01 5.2729349200000000e+00
ITEM: ATOMS id mol type q x y z
1 1 1 1.10383 27.399 17.6496 10.5383
2 1 1 1.10383 9.13299 3.44217 4.3758
3 1 1 1.10383 27.399 15.8188 13.1274
4 1 1 1.10383 9.13299 5.27293 1.78671
5 1 1 1.10383 25.8135 14.9034 10.5383
6 1 1 1.10383 10.7185 6.18832 4.3758
7 1 1 1.10383 28.9845 14.9034 10.5383
8 1 1 1.10383 7.5475 6.18832 4.3758
9 1 2 0.115889 18.266 5.48596 12.6084
10 1 2 0.115889 18.266 15.6058 2.30572
11 1 2 0.115888 18.266 13.716 0.969417
12 1 2 0.115888 18.266 7.37578 13.9447
13 1 2 0.11589 25.3934 11.4908 8.12521
14 1 2 0.11589 11.1386 9.60096 6.7889
15 1 2 0.115888 11.1386 11.4908 8.12521
16 1 2 0.115888 25.3934 9.60096 6.7889
17 1 2 0.115889 15.5206 8.96083 0.969417
18 1 2 0.115889 21.0114 12.1309 13.9447
19 1 2 0.115888 22.648 13.0758 12.6084
20 1 2 0.115888 13.884 8.01592 2.30572
21 1 2 0.115889 21.0114 3.90092 8.12521
22 1 2 0.115889 15.5206 17.1908 6.7889
23 1 2 0.115887 13.884 16.2459 8.12521
24 1 2 0.115887 22.648 4.84583 6.7889
25 1 2 0.115889 22.648 16.2459 8.12521
26 1 2 0.115889 13.884 4.84583 6.7889
27 1 2 0.115887 15.5206 3.90092 8.12521
28 1 2 0.115887 21.0114 17.1908 6.7889
29 1 2 0.115889 21.0114 8.96083 0.969417
30 1 2 0.115889 15.5206 12.1309 13.9447
31 1 2 0.115887 13.884 13.0758 12.6084
32 1 2 0.115887 22.648 8.01592 2.30572
33 1 3 0.671939 27.399 18.7442 13.2542
34 1 3 0.671939 9.13299 2.34751 1.65994
35 1 3 0.671939 27.399 12.8934 9.117
36 1 3 0.671939 9.13299 8.19836 5.79712
37 1 3 0.67194 24.8655 14.3561 13.2542
38 1 3 0.67194 11.6665 6.73565 1.65994
39 1 3 0.67194 29.9325 17.2815 9.117
40 1 3 0.67194 6.5995 3.81022 5.79712
41 1 3 0.67194 24.8655 17.2815 9.117
42 1 3 0.67194 11.6665 3.81022 5.79712
43 1 3 0.67194 29.9325 14.3561 13.2542
44 1 3 0.67194 6.5995 6.73565 1.65994
45 1 3 -0.11508 27.399 19.957 14.1117
46 1 3 -0.11508 9.13299 1.13474 0.802379
47 1 3 -0.11508 27.399 11.6806 8.25944
48 1 3 -0.11508 9.13299 9.41113 6.65468
49 1 3 -0.11508 23.8152 13.7497 14.1117
50 1 3 -0.11508 12.7168 7.34203 0.802379
51 1 3 -0.11508 30.9828 17.8879 8.25944
52 1 3 -0.11508 5.54921 3.20384 6.65468
53 1 3 -0.11508 23.8152 17.8879 8.25944
54 1 3 -0.11508 12.7168 3.20384 6.65468
55 1 3 -0.11508 30.9828 13.7497 14.1117
56 1 3 -0.11508 5.54921 7.34203 0.802379
57 1 3 -0.0559 18.266 5.39949 13.5316
58 1 3 -0.0559 18.266 15.6923 1.38254
59 1 3 -0.055903 18.266 14.5575 0.580159
60 1 3 -0.055903 18.266 6.53422 14.334
61 1 3 -0.0559 26.1971 11.1132 7.85825
62 1 3 -0.0559 10.3349 9.9785 7.05587
63 1 3 -0.055903 10.3349 11.1132 7.85825
64 1 3 -0.055903 26.1971 9.9785 7.05587
65 1 3 -0.0559 14.7918 8.54005 0.580159
66 1 3 -0.0559 21.7402 12.5517 14.334
67 1 3 -0.055903 22.7229 13.1191 13.5316
68 1 3 -0.055903 13.8091 7.97268 1.38254
69 1 3 -0.0559 21.7402 3.39366 7.85825
70 1 3 -0.0559 14.7918 17.6981 7.05587
71 1 3 -0.055903 13.8091 17.1307 7.85825
72 1 3 -0.055903 22.7229 3.96103 7.05587
73 1 3 -0.055901 22.7229 17.1307 7.85825
74 1 3 -0.055901 13.8091 3.96103 7.05587
75 1 3 -0.055903 14.7918 3.39366 7.85825
76 1 3 -0.055903 21.7402 17.6981 7.05587
77 1 3 -0.0559 21.7402 8.54005 0.580159
78 1 3 -0.0559 14.7918 12.5517 14.334
79 1 3 -0.055903 13.8091 13.1191 13.5316
80 1 3 -0.055903 22.7229 7.97268 1.38254
81 1 4 -1.26215 27.399 15.8188 11.1856
82 1 4 -1.26215 9.13299 5.27293 3.72853
83 1 4 -0.60118 27.399 18.9383 11.9641
84 1 4 -0.60118 9.13299 2.15347 2.95001
85 1 4 -0.601179 27.399 17.5926 13.8671
86 1 4 -0.601179 9.13299 3.49912 1.04697
87 1 4 -0.601179 26.2336 13.3722 9.45555
88 1 4 -0.601179 10.2984 7.71958 5.45857
89 1 4 -0.60118 28.5643 13.3722 9.45555
90 1 4 -0.60118 7.96762 7.71958 5.45857
91 1 4 -0.60118 25.8628 14.9319 13.8671
92 1 4 -0.60118 10.6692 6.15984 1.04697
93 1 4 -0.601179 24.6974 14.2591 11.9641
94 1 4 -0.601179 11.8345 6.83267 2.95001
95 1 4 -0.60118 28.9351 18.0514 9.45555
96 1 4 -0.60118 7.59682 3.04037 5.45857
97 1 4 -0.601179 30.1005 16.0329 9.45555
98 1 4 -0.601179 6.43145 5.05885 5.45857
99 1 4 -0.601179 24.6974 16.0329 9.45555
100 1 4 -0.601179 11.8345 5.05885 5.45857
101 1 4 -0.60118 25.8628 18.0514 9.45555
102 1 4 -0.60118 10.6692 3.04037 5.45857
103 1 4 -0.60118 28.9351 14.9319 13.8671
104 1 4 -0.60118 7.59682 6.15984 1.04697
105 1 4 -0.60118 30.1005 14.2591 11.9641
106 1 4 -0.60118 6.43145 6.83267 2.95001
ITEM: TIMESTEP
16000
ITEM: NUMBER OF ATOMS
106
ITEM: BOX BOUNDS xy xz yz pp pp pp
0.0000000000000000e+00 3.6531964750000000e+01 9.1329911900000003e+00
0.0000000000000000e+00 2.1091739680000000e+01 9.1329911900000003e+00
0.0000000000000000e+00 1.4914112149999999e+01 5.2729349200000000e+00
ITEM: ATOMS id mol type q x y z
1 1 1 1.10383 27.399 17.6496 10.5383
2 1 1 1.10383 9.13299 3.44217 4.3758
3 1 1 1.10383 27.399 15.8188 13.1274
4 1 1 1.10383 9.13299 5.27293 1.78671
5 1 1 1.10383 25.8135 14.9034 10.5383
6 1 1 1.10383 10.7185 6.18832 4.3758
7 1 1 1.10383 28.9845 14.9034 10.5383
8 1 1 1.10383 7.5475 6.18832 4.3758
9 1 2 0.115889 18.266 5.48596 12.6084
10 1 2 0.115889 18.266 15.6058 2.30572
11 1 2 0.115888 18.266 13.716 0.969417
12 1 2 0.115888 18.266 7.37578 13.9447
13 1 2 0.11589 25.3934 11.4908 8.12521
14 1 2 0.11589 11.1386 9.60096 6.7889
15 1 2 0.115888 11.1386 11.4908 8.12521
16 1 2 0.115888 25.3934 9.60096 6.7889
17 1 2 0.115889 15.5206 8.96083 0.969417
18 1 2 0.115889 21.0114 12.1309 13.9447
19 1 2 0.115888 22.648 13.0758 12.6084
20 1 2 0.115888 13.884 8.01592 2.30572
21 1 2 0.115889 21.0114 3.90092 8.12521
22 1 2 0.115889 15.5206 17.1908 6.7889
23 1 2 0.115887 13.884 16.2459 8.12521
24 1 2 0.115887 22.648 4.84583 6.7889
25 1 2 0.115889 22.648 16.2459 8.12521
26 1 2 0.115889 13.884 4.84583 6.7889
27 1 2 0.115887 15.5206 3.90092 8.12521
28 1 2 0.115887 21.0114 17.1908 6.7889
29 1 2 0.115889 21.0114 8.96083 0.969417
30 1 2 0.115889 15.5206 12.1309 13.9447
31 1 2 0.115887 13.884 13.0758 12.6084
32 1 2 0.115887 22.648 8.01592 2.30572
33 1 3 0.671939 27.399 18.7442 13.2542
34 1 3 0.671939 9.13299 2.34751 1.65994
35 1 3 0.671939 27.399 12.8934 9.117
36 1 3 0.671939 9.13299 8.19836 5.79712
37 1 3 0.67194 24.8655 14.3561 13.2542
38 1 3 0.67194 11.6665 6.73565 1.65994
39 1 3 0.67194 29.9325 17.2815 9.117
40 1 3 0.67194 6.5995 3.81022 5.79712
41 1 3 0.67194 24.8655 17.2815 9.117
42 1 3 0.67194 11.6665 3.81022 5.79712
43 1 3 0.67194 29.9325 14.3561 13.2542
44 1 3 0.67194 6.5995 6.73565 1.65994
45 1 3 -0.11508 27.399 19.957 14.1117
46 1 3 -0.11508 9.13299 1.13474 0.802379
47 1 3 -0.11508 27.399 11.6806 8.25944
48 1 3 -0.11508 9.13299 9.41113 6.65468
49 1 3 -0.11508 23.8152 13.7497 14.1117
50 1 3 -0.11508 12.7168 7.34203 0.802379
51 1 3 -0.11508 30.9828 17.8879 8.25944
52 1 3 -0.11508 5.54921 3.20384 6.65468
53 1 3 -0.11508 23.8152 17.8879 8.25944
54 1 3 -0.11508 12.7168 3.20384 6.65468
55 1 3 -0.11508 30.9828 13.7497 14.1117
56 1 3 -0.11508 5.54921 7.34203 0.802379
57 1 3 -0.0559 18.266 5.39949 13.5316
58 1 3 -0.0559 18.266 15.6923 1.38254
59 1 3 -0.055903 18.266 14.5575 0.580159
60 1 3 -0.055903 18.266 6.53422 14.334
61 1 3 -0.0559 26.1971 11.1132 7.85825
62 1 3 -0.0559 10.3349 9.9785 7.05587
63 1 3 -0.055903 10.3349 11.1132 7.85825
64 1 3 -0.055903 26.1971 9.9785 7.05587
65 1 3 -0.0559 14.7918 8.54005 0.580159
66 1 3 -0.0559 21.7402 12.5517 14.334
67 1 3 -0.055903 22.7229 13.1191 13.5316
68 1 3 -0.055903 13.8091 7.97268 1.38254
69 1 3 -0.0559 21.7402 3.39366 7.85825
70 1 3 -0.0559 14.7918 17.6981 7.05587
71 1 3 -0.055903 13.8091 17.1307 7.85825
72 1 3 -0.055903 22.7229 3.96103 7.05587
73 1 3 -0.055901 22.7229 17.1307 7.85825
74 1 3 -0.055901 13.8091 3.96103 7.05587
75 1 3 -0.055903 14.7918 3.39366 7.85825
76 1 3 -0.055903 21.7402 17.6981 7.05587
77 1 3 -0.0559 21.7402 8.54005 0.580159
78 1 3 -0.0559 14.7918 12.5517 14.334
79 1 3 -0.055903 13.8091 13.1191 13.5316
80 1 3 -0.055903 22.7229 7.97268 1.38254
81 1 4 -1.26215 27.399 15.8188 11.1856
82 1 4 -1.26215 9.13299 5.27293 3.72853
83 1 4 -0.60118 27.399 18.9383 11.9641
84 1 4 -0.60118 9.13299 2.15347 2.95001
85 1 4 -0.601179 27.399 17.5926 13.8671
86 1 4 -0.601179 9.13299 3.49912 1.04697
87 1 4 -0.601179 26.2336 13.3722 9.45555
88 1 4 -0.601179 10.2984 7.71958 5.45857
89 1 4 -0.60118 28.5643 13.3722 9.45555
90 1 4 -0.60118 7.96762 7.71958 5.45857
91 1 4 -0.60118 25.8628 14.9319 13.8671
92 1 4 -0.60118 10.6692 6.15984 1.04697
93 1 4 -0.601179 24.6974 14.2591 11.9641
94 1 4 -0.601179 11.8345 6.83267 2.95001
95 1 4 -0.60118 28.9351 18.0514 9.45555
96 1 4 -0.60118 7.59682 3.04037 5.45857
97 1 4 -0.601179 30.1005 16.0329 9.45555
98 1 4 -0.601179 6.43145 5.05885 5.45857
99 1 4 -0.601179 24.6974 16.0329 9.45555
100 1 4 -0.601179 11.8345 5.05885 5.45857
101 1 4 -0.60118 25.8628 18.0514 9.45555
102 1 4 -0.60118 10.6692 3.04037 5.45857
103 1 4 -0.60118 28.9351 14.9319 13.8671
104 1 4 -0.60118 7.59682 6.15984 1.04697
105 1 4 -0.60118 30.1005 14.2591 11.9641
106 1 4 -0.60118 6.43145 6.83267 2.95001
ITEM: TIMESTEP
17000
ITEM: NUMBER OF ATOMS
106
ITEM: BOX BOUNDS xy xz yz pp pp pp
0.0000000000000000e+00 3.6531964750000000e+01 9.1329911900000003e+00
0.0000000000000000e+00 2.1091739680000000e+01 9.1329911900000003e+00
0.0000000000000000e+00 1.4914112149999999e+01 5.2729349200000000e+00
ITEM: ATOMS id mol type q x y z
1 1 1 1.10383 27.399 17.6496 10.5383
2 1 1 1.10383 9.13299 3.44217 4.3758
3 1 1 1.10383 27.399 15.8188 13.1274
4 1 1 1.10383 9.13299 5.27293 1.78671
5 1 1 1.10383 25.8135 14.9034 10.5383
6 1 1 1.10383 10.7185 6.18832 4.3758
7 1 1 1.10383 28.9845 14.9034 10.5383
8 1 1 1.10383 7.5475 6.18832 4.3758
9 1 2 0.115889 18.266 5.48596 12.6084
10 1 2 0.115889 18.266 15.6058 2.30572
11 1 2 0.115888 18.266 13.716 0.969417
12 1 2 0.115888 18.266 7.37578 13.9447
13 1 2 0.11589 25.3934 11.4908 8.12521
14 1 2 0.11589 11.1386 9.60096 6.7889
15 1 2 0.115888 11.1386 11.4908 8.12521
16 1 2 0.115888 25.3934 9.60096 6.7889
17 1 2 0.115889 15.5206 8.96083 0.969417
18 1 2 0.115889 21.0114 12.1309 13.9447
19 1 2 0.115888 22.648 13.0758 12.6084
20 1 2 0.115888 13.884 8.01592 2.30572
21 1 2 0.115889 21.0114 3.90092 8.12521
22 1 2 0.115889 15.5206 17.1908 6.7889
23 1 2 0.115887 13.884 16.2459 8.12521
24 1 2 0.115887 22.648 4.84583 6.7889
25 1 2 0.115889 22.648 16.2459 8.12521
26 1 2 0.115889 13.884 4.84583 6.7889
27 1 2 0.115887 15.5206 3.90092 8.12521
28 1 2 0.115887 21.0114 17.1908 6.7889
29 1 2 0.115889 21.0114 8.96083 0.969417
30 1 2 0.115889 15.5206 12.1309 13.9447
31 1 2 0.115887 13.884 13.0758 12.6084
32 1 2 0.115887 22.648 8.01592 2.30572
33 1 3 0.671939 27.399 18.7442 13.2542
34 1 3 0.671939 9.13299 2.34751 1.65994
35 1 3 0.671939 27.399 12.8934 9.117
36 1 3 0.671939 9.13299 8.19836 5.79712
37 1 3 0.67194 24.8655 14.3561 13.2542
38 1 3 0.67194 11.6665 6.73565 1.65994
39 1 3 0.67194 29.9325 17.2815 9.117
40 1 3 0.67194 6.5995 3.81022 5.79712
41 1 3 0.67194 24.8655 17.2815 9.117
42 1 3 0.67194 11.6665 3.81022 5.79712
43 1 3 0.67194 29.9325 14.3561 13.2542
44 1 3 0.67194 6.5995 6.73565 1.65994
45 1 3 -0.11508 27.399 19.957 14.1117
46 1 3 -0.11508 9.13299 1.13474 0.802379
47 1 3 -0.11508 27.399 11.6806 8.25944
48 1 3 -0.11508 9.13299 9.41113 6.65468
49 1 3 -0.11508 23.8152 13.7497 14.1117
50 1 3 -0.11508 12.7168 7.34203 0.802379
51 1 3 -0.11508 30.9828 17.8879 8.25944
52 1 3 -0.11508 5.54921 3.20384 6.65468
53 1 3 -0.11508 23.8152 17.8879 8.25944
54 1 3 -0.11508 12.7168 3.20384 6.65468
55 1 3 -0.11508 30.9828 13.7497 14.1117
56 1 3 -0.11508 5.54921 7.34203 0.802379
57 1 3 -0.0559 18.266 5.39949 13.5316
58 1 3 -0.0559 18.266 15.6923 1.38254
59 1 3 -0.055903 18.266 14.5575 0.580159
60 1 3 -0.055903 18.266 6.53422 14.334
61 1 3 -0.0559 26.1971 11.1132 7.85825
62 1 3 -0.0559 10.3349 9.9785 7.05587
63 1 3 -0.055903 10.3349 11.1132 7.85825
64 1 3 -0.055903 26.1971 9.9785 7.05587
65 1 3 -0.0559 14.7918 8.54005 0.580159
66 1 3 -0.0559 21.7402 12.5517 14.334
67 1 3 -0.055903 22.7229 13.1191 13.5316
68 1 3 -0.055903 13.8091 7.97268 1.38254
69 1 3 -0.0559 21.7402 3.39366 7.85825
70 1 3 -0.0559 14.7918 17.6981 7.05587
71 1 3 -0.055903 13.8091 17.1307 7.85825
72 1 3 -0.055903 22.7229 3.96103 7.05587
73 1 3 -0.055901 22.7229 17.1307 7.85825
74 1 3 -0.055901 13.8091 3.96103 7.05587
75 1 3 -0.055903 14.7918 3.39366 7.85825
76 1 3 -0.055903 21.7402 17.6981 7.05587
77 1 3 -0.0559 21.7402 8.54005 0.580159
78 1 3 -0.0559 14.7918 12.5517 14.334
79 1 3 -0.055903 13.8091 13.1191 13.5316
80 1 3 -0.055903 22.7229 7.97268 1.38254
81 1 4 -1.26215 27.399 15.8188 11.1856
82 1 4 -1.26215 9.13299 5.27293 3.72853
83 1 4 -0.60118 27.399 18.9383 11.9641
84 1 4 -0.60118 9.13299 2.15347 2.95001
85 1 4 -0.601179 27.399 17.5926 13.8671
86 1 4 -0.601179 9.13299 3.49912 1.04697
87 1 4 -0.601179 26.2336 13.3722 9.45555
88 1 4 -0.601179 10.2984 7.71958 5.45857
89 1 4 -0.60118 28.5643 13.3722 9.45555
90 1 4 -0.60118 7.96762 7.71958 5.45857
91 1 4 -0.60118 25.8628 14.9319 13.8671
92 1 4 -0.60118 10.6692 6.15984 1.04697
93 1 4 -0.601179 24.6974 14.2591 11.9641
94 1 4 -0.601179 11.8345 6.83267 2.95001
95 1 4 -0.60118 28.9351 18.0514 9.45555
96 1 4 -0.60118 7.59682 3.04037 5.45857
97 1 4 -0.601179 30.1005 16.0329 9.45555
98 1 4 -0.601179 6.43145 5.05885 5.45857
99 1 4 -0.601179 24.6974 16.0329 9.45555
100 1 4 -0.601179 11.8345 5.05885 5.45857
101 1 4 -0.60118 25.8628 18.0514 9.45555
102 1 4 -0.60118 10.6692 3.04037 5.45857
103 1 4 -0.60118 28.9351 14.9319 13.8671
104 1 4 -0.60118 7.59682 6.15984 1.04697
105 1 4 -0.60118 30.1005 14.2591 11.9641
106 1 4 -0.60118 6.43145 6.83267 2.95001
ITEM: TIMESTEP
18000
ITEM: NUMBER OF ATOMS
106
ITEM: BOX BOUNDS xy xz yz pp pp pp
0.0000000000000000e+00 3.6531964750000000e+01 9.1329911900000003e+00
0.0000000000000000e+00 2.1091739680000000e+01 9.1329911900000003e+00
0.0000000000000000e+00 1.4914112149999999e+01 5.2729349200000000e+00
ITEM: ATOMS id mol type q x y z
1 1 1 1.10383 27.399 17.6496 10.5383
2 1 1 1.10383 9.13299 3.44217 4.3758
3 1 1 1.10383 27.399 15.8188 13.1274
4 1 1 1.10383 9.13299 5.27293 1.78671
5 1 1 1.10383 25.8135 14.9034 10.5383
6 1 1 1.10383 10.7185 6.18832 4.3758
7 1 1 1.10383 28.9845 14.9034 10.5383
8 1 1 1.10383 7.5475 6.18832 4.3758
9 1 2 0.115889 18.266 5.48596 12.6084
10 1 2 0.115889 18.266 15.6058 2.30572
11 1 2 0.115888 18.266 13.716 0.969417
12 1 2 0.115888 18.266 7.37578 13.9447
13 1 2 0.11589 25.3934 11.4908 8.12521
14 1 2 0.11589 11.1386 9.60096 6.7889
15 1 2 0.115888 11.1386 11.4908 8.12521
16 1 2 0.115888 25.3934 9.60096 6.7889
17 1 2 0.115889 15.5206 8.96083 0.969417
18 1 2 0.115889 21.0114 12.1309 13.9447
19 1 2 0.115888 22.648 13.0758 12.6084
20 1 2 0.115888 13.884 8.01592 2.30572
21 1 2 0.115889 21.0114 3.90092 8.12521
22 1 2 0.115889 15.5206 17.1908 6.7889
23 1 2 0.115887 13.884 16.2459 8.12521
24 1 2 0.115887 22.648 4.84583 6.7889
25 1 2 0.115889 22.648 16.2459 8.12521
26 1 2 0.115889 13.884 4.84583 6.7889
27 1 2 0.115887 15.5206 3.90092 8.12521
28 1 2 0.115887 21.0114 17.1908 6.7889
29 1 2 0.115889 21.0114 8.96083 0.969417
30 1 2 0.115889 15.5206 12.1309 13.9447
31 1 2 0.115887 13.884 13.0758 12.6084
32 1 2 0.115887 22.648 8.01592 2.30572
33 1 3 0.671939 27.399 18.7442 13.2542
34 1 3 0.671939 9.13299 2.34751 1.65994
35 1 3 0.671939 27.399 12.8934 9.117
36 1 3 0.671939 9.13299 8.19836 5.79712
37 1 3 0.67194 24.8655 14.3561 13.2542
38 1 3 0.67194 11.6665 6.73565 1.65994
39 1 3 0.67194 29.9325 17.2815 9.117
40 1 3 0.67194 6.5995 3.81022 5.79712
41 1 3 0.67194 24.8655 17.2815 9.117
42 1 3 0.67194 11.6665 3.81022 5.79712
43 1 3 0.67194 29.9325 14.3561 13.2542
44 1 3 0.67194 6.5995 6.73565 1.65994
45 1 3 -0.11508 27.399 19.957 14.1117
46 1 3 -0.11508 9.13299 1.13474 0.802379
47 1 3 -0.11508 27.399 11.6806 8.25944
48 1 3 -0.11508 9.13299 9.41113 6.65468
49 1 3 -0.11508 23.8152 13.7497 14.1117
50 1 3 -0.11508 12.7168 7.34203 0.802379
51 1 3 -0.11508 30.9828 17.8879 8.25944
52 1 3 -0.11508 5.54921 3.20384 6.65468
53 1 3 -0.11508 23.8152 17.8879 8.25944
54 1 3 -0.11508 12.7168 3.20384 6.65468
55 1 3 -0.11508 30.9828 13.7497 14.1117
56 1 3 -0.11508 5.54921 7.34203 0.802379
57 1 3 -0.0559 18.266 5.39949 13.5316
58 1 3 -0.0559 18.266 15.6923 1.38254
59 1 3 -0.055903 18.266 14.5575 0.580159
60 1 3 -0.055903 18.266 6.53422 14.334
61 1 3 -0.0559 26.1971 11.1132 7.85825
62 1 3 -0.0559 10.3349 9.9785 7.05587
63 1 3 -0.055903 10.3349 11.1132 7.85825
64 1 3 -0.055903 26.1971 9.9785 7.05587
65 1 3 -0.0559 14.7918 8.54005 0.580159
66 1 3 -0.0559 21.7402 12.5517 14.334
67 1 3 -0.055903 22.7229 13.1191 13.5316
68 1 3 -0.055903 13.8091 7.97268 1.38254
69 1 3 -0.0559 21.7402 3.39366 7.85825
70 1 3 -0.0559 14.7918 17.6981 7.05587
71 1 3 -0.055903 13.8091 17.1307 7.85825
72 1 3 -0.055903 22.7229 3.96103 7.05587
73 1 3 -0.055901 22.7229 17.1307 7.85825
74 1 3 -0.055901 13.8091 3.96103 7.05587
75 1 3 -0.055903 14.7918 3.39366 7.85825
76 1 3 -0.055903 21.7402 17.6981 7.05587
77 1 3 -0.0559 21.7402 8.54005 0.580159
78 1 3 -0.0559 14.7918 12.5517 14.334
79 1 3 -0.055903 13.8091 13.1191 13.5316
80 1 3 -0.055903 22.7229 7.97268 1.38254
81 1 4 -1.26215 27.399 15.8188 11.1856
82 1 4 -1.26215 9.13299 5.27293 3.72853
83 1 4 -0.60118 27.399 18.9383 11.9641
84 1 4 -0.60118 9.13299 2.15347 2.95001
85 1 4 -0.601179 27.399 17.5926 13.8671
86 1 4 -0.601179 9.13299 3.49912 1.04697
87 1 4 -0.601179 26.2336 13.3722 9.45555
88 1 4 -0.601179 10.2984 7.71958 5.45857
89 1 4 -0.60118 28.5643 13.3722 9.45555
90 1 4 -0.60118 7.96762 7.71958 5.45857
91 1 4 -0.60118 25.8628 14.9319 13.8671
92 1 4 -0.60118 10.6692 6.15984 1.04697
93 1 4 -0.601179 24.6974 14.2591 11.9641
94 1 4 -0.601179 11.8345 6.83267 2.95001
95 1 4 -0.60118 28.9351 18.0514 9.45555
96 1 4 -0.60118 7.59682 3.04037 5.45857
97 1 4 -0.601179 30.1005 16.0329 9.45555
98 1 4 -0.601179 6.43145 5.05885 5.45857
99 1 4 -0.601179 24.6974 16.0329 9.45555
100 1 4 -0.601179 11.8345 5.05885 5.45857
101 1 4 -0.60118 25.8628 18.0514 9.45555
102 1 4 -0.60118 10.6692 3.04037 5.45857
103 1 4 -0.60118 28.9351 14.9319 13.8671
104 1 4 -0.60118 7.59682 6.15984 1.04697
105 1 4 -0.60118 30.1005 14.2591 11.9641
106 1 4 -0.60118 6.43145 6.83267 2.95001
ITEM: TIMESTEP
19000
ITEM: NUMBER OF ATOMS
106
ITEM: BOX BOUNDS xy xz yz pp pp pp
0.0000000000000000e+00 3.6531964750000000e+01 9.1329911900000003e+00
0.0000000000000000e+00 2.1091739680000000e+01 9.1329911900000003e+00
0.0000000000000000e+00 1.4914112149999999e+01 5.2729349200000000e+00
ITEM: ATOMS id mol type q x y z
1 1 1 1.10383 27.399 17.6496 10.5383
2 1 1 1.10383 9.13299 3.44217 4.3758
3 1 1 1.10383 27.399 15.8188 13.1274
4 1 1 1.10383 9.13299 5.27293 1.78671
5 1 1 1.10383 25.8135 14.9034 10.5383
6 1 1 1.10383 10.7185 6.18832 4.3758
7 1 1 1.10383 28.9845 14.9034 10.5383
8 1 1 1.10383 7.5475 6.18832 4.3758
9 1 2 0.115889 18.266 5.48596 12.6084
10 1 2 0.115889 18.266 15.6058 2.30572
11 1 2 0.115888 18.266 13.716 0.969417
12 1 2 0.115888 18.266 7.37578 13.9447
13 1 2 0.11589 25.3934 11.4908 8.12521
14 1 2 0.11589 11.1386 9.60096 6.7889
15 1 2 0.115888 11.1386 11.4908 8.12521
16 1 2 0.115888 25.3934 9.60096 6.7889
17 1 2 0.115889 15.5206 8.96083 0.969417
18 1 2 0.115889 21.0114 12.1309 13.9447
19 1 2 0.115888 22.648 13.0758 12.6084
20 1 2 0.115888 13.884 8.01592 2.30572
21 1 2 0.115889 21.0114 3.90092 8.12521
22 1 2 0.115889 15.5206 17.1908 6.7889
23 1 2 0.115887 13.884 16.2459 8.12521
24 1 2 0.115887 22.648 4.84583 6.7889
25 1 2 0.115889 22.648 16.2459 8.12521
26 1 2 0.115889 13.884 4.84583 6.7889
27 1 2 0.115887 15.5206 3.90092 8.12521
28 1 2 0.115887 21.0114 17.1908 6.7889
29 1 2 0.115889 21.0114 8.96083 0.969417
30 1 2 0.115889 15.5206 12.1309 13.9447
31 1 2 0.115887 13.884 13.0758 12.6084
32 1 2 0.115887 22.648 8.01592 2.30572
33 1 3 0.671939 27.399 18.7442 13.2542
34 1 3 0.671939 9.13299 2.34751 1.65994
35 1 3 0.671939 27.399 12.8934 9.117
36 1 3 0.671939 9.13299 8.19836 5.79712
37 1 3 0.67194 24.8655 14.3561 13.2542
38 1 3 0.67194 11.6665 6.73565 1.65994
39 1 3 0.67194 29.9325 17.2815 9.117
40 1 3 0.67194 6.5995 3.81022 5.79712
41 1 3 0.67194 24.8655 17.2815 9.117
42 1 3 0.67194 11.6665 3.81022 5.79712
43 1 3 0.67194 29.9325 14.3561 13.2542
44 1 3 0.67194 6.5995 6.73565 1.65994
45 1 3 -0.11508 27.399 19.957 14.1117
46 1 3 -0.11508 9.13299 1.13474 0.802379
47 1 3 -0.11508 27.399 11.6806 8.25944
48 1 3 -0.11508 9.13299 9.41113 6.65468
49 1 3 -0.11508 23.8152 13.7497 14.1117
50 1 3 -0.11508 12.7168 7.34203 0.802379
51 1 3 -0.11508 30.9828 17.8879 8.25944
52 1 3 -0.11508 5.54921 3.20384 6.65468
53 1 3 -0.11508 23.8152 17.8879 8.25944
54 1 3 -0.11508 12.7168 3.20384 6.65468
55 1 3 -0.11508 30.9828 13.7497 14.1117
56 1 3 -0.11508 5.54921 7.34203 0.802379
57 1 3 -0.0559 18.266 5.39949 13.5316
58 1 3 -0.0559 18.266 15.6923 1.38254
59 1 3 -0.055903 18.266 14.5575 0.580159
60 1 3 -0.055903 18.266 6.53422 14.334
61 1 3 -0.0559 26.1971 11.1132 7.85825
62 1 3 -0.0559 10.3349 9.9785 7.05587
63 1 3 -0.055903 10.3349 11.1132 7.85825
64 1 3 -0.055903 26.1971 9.9785 7.05587
65 1 3 -0.0559 14.7918 8.54005 0.580159
66 1 3 -0.0559 21.7402 12.5517 14.334
67 1 3 -0.055903 22.7229 13.1191 13.5316
68 1 3 -0.055903 13.8091 7.97268 1.38254
69 1 3 -0.0559 21.7402 3.39366 7.85825
70 1 3 -0.0559 14.7918 17.6981 7.05587
71 1 3 -0.055903 13.8091 17.1307 7.85825
72 1 3 -0.055903 22.7229 3.96103 7.05587
73 1 3 -0.055901 22.7229 17.1307 7.85825
74 1 3 -0.055901 13.8091 3.96103 7.05587
75 1 3 -0.055903 14.7918 3.39366 7.85825
76 1 3 -0.055903 21.7402 17.6981 7.05587
77 1 3 -0.0559 21.7402 8.54005 0.580159
78 1 3 -0.0559 14.7918 12.5517 14.334
79 1 3 -0.055903 13.8091 13.1191 13.5316
80 1 3 -0.055903 22.7229 7.97268 1.38254
81 1 4 -1.26215 27.399 15.8188 11.1856
82 1 4 -1.26215 9.13299 5.27293 3.72853
83 1 4 -0.60118 27.399 18.9383 11.9641
84 1 4 -0.60118 9.13299 2.15347 2.95001
85 1 4 -0.601179 27.399 17.5926 13.8671
86 1 4 -0.601179 9.13299 3.49912 1.04697
87 1 4 -0.601179 26.2336 13.3722 9.45555
88 1 4 -0.601179 10.2984 7.71958 5.45857
89 1 4 -0.60118 28.5643 13.3722 9.45555
90 1 4 -0.60118 7.96762 7.71958 5.45857
91 1 4 -0.60118 25.8628 14.9319 13.8671
92 1 4 -0.60118 10.6692 6.15984 1.04697
93 1 4 -0.601179 24.6974 14.2591 11.9641
94 1 4 -0.601179 11.8345 6.83267 2.95001
95 1 4 -0.60118 28.9351 18.0514 9.45555
96 1 4 -0.60118 7.59682 3.04037 5.45857
97 1 4 -0.601179 30.1005 16.0329 9.45555
98 1 4 -0.601179 6.43145 5.05885 5.45857
99 1 4 -0.601179 24.6974 16.0329 9.45555
100 1 4 -0.601179 11.8345 5.05885 5.45857
101 1 4 -0.60118 25.8628 18.0514 9.45555
102 1 4 -0.60118 10.6692 3.04037 5.45857
103 1 4 -0.60118 28.9351 14.9319 13.8671
104 1 4 -0.60118 7.59682 6.15984 1.04697
105 1 4 -0.60118 30.1005 14.2591 11.9641
106 1 4 -0.60118 6.43145 6.83267 2.95001
ITEM: TIMESTEP
20000
ITEM: NUMBER OF ATOMS
106
ITEM: BOX BOUNDS xy xz yz pp pp pp
0.0000000000000000e+00 3.6531964750000000e+01 9.1329911900000003e+00
0.0000000000000000e+00 2.1091739680000000e+01 9.1329911900000003e+00
0.0000000000000000e+00 1.4914112149999999e+01 5.2729349200000000e+00
ITEM: ATOMS id mol type q x y z
1 1 1 1.10383 27.399 17.6496 10.5383
2 1 1 1.10383 9.13299 3.44217 4.3758
3 1 1 1.10383 27.399 15.8188 13.1274
4 1 1 1.10383 9.13299 5.27293 1.78671
5 1 1 1.10383 25.8135 14.9034 10.5383
6 1 1 1.10383 10.7185 6.18832 4.3758
7 1 1 1.10383 28.9845 14.9034 10.5383
8 1 1 1.10383 7.5475 6.18832 4.3758
9 1 2 0.115889 18.266 5.48596 12.6084
10 1 2 0.115889 18.266 15.6058 2.30572
11 1 2 0.115888 18.266 13.716 0.969417
12 1 2 0.115888 18.266 7.37578 13.9447
13 1 2 0.11589 25.3934 11.4908 8.12521
14 1 2 0.11589 11.1386 9.60096 6.7889
15 1 2 0.115888 11.1386 11.4908 8.12521
16 1 2 0.115888 25.3934 9.60096 6.7889
17 1 2 0.115889 15.5206 8.96083 0.969417
18 1 2 0.115889 21.0114 12.1309 13.9447
19 1 2 0.115888 22.648 13.0758 12.6084
20 1 2 0.115888 13.884 8.01592 2.30572
21 1 2 0.115889 21.0114 3.90092 8.12521
22 1 2 0.115889 15.5206 17.1908 6.7889
23 1 2 0.115887 13.884 16.2459 8.12521
24 1 2 0.115887 22.648 4.84583 6.7889
25 1 2 0.115889 22.648 16.2459 8.12521
26 1 2 0.115889 13.884 4.84583 6.7889
27 1 2 0.115887 15.5206 3.90092 8.12521
28 1 2 0.115887 21.0114 17.1908 6.7889
29 1 2 0.115889 21.0114 8.96083 0.969417
30 1 2 0.115889 15.5206 12.1309 13.9447
31 1 2 0.115887 13.884 13.0758 12.6084
32 1 2 0.115887 22.648 8.01592 2.30572
33 1 3 0.671939 27.399 18.7442 13.2542
34 1 3 0.671939 9.13299 2.34751 1.65994
35 1 3 0.671939 27.399 12.8934 9.117
36 1 3 0.671939 9.13299 8.19836 5.79712
37 1 3 0.67194 24.8655 14.3561 13.2542
38 1 3 0.67194 11.6665 6.73565 1.65994
39 1 3 0.67194 29.9325 17.2815 9.117
40 1 3 0.67194 6.5995 3.81022 5.79712
41 1 3 0.67194 24.8655 17.2815 9.117
42 1 3 0.67194 11.6665 3.81022 5.79712
43 1 3 0.67194 29.9325 14.3561 13.2542
44 1 3 0.67194 6.5995 6.73565 1.65994
45 1 3 -0.11508 27.399 19.957 14.1117
46 1 3 -0.11508 9.13299 1.13474 0.802379
47 1 3 -0.11508 27.399 11.6806 8.25944
48 1 3 -0.11508 9.13299 9.41113 6.65468
49 1 3 -0.11508 23.8152 13.7497 14.1117
50 1 3 -0.11508 12.7168 7.34203 0.802379
51 1 3 -0.11508 30.9828 17.8879 8.25944
52 1 3 -0.11508 5.54921 3.20384 6.65468
53 1 3 -0.11508 23.8152 17.8879 8.25944
54 1 3 -0.11508 12.7168 3.20384 6.65468
55 1 3 -0.11508 30.9828 13.7497 14.1117
56 1 3 -0.11508 5.54921 7.34203 0.802379
57 1 3 -0.0559 18.266 5.39949 13.5316
58 1 3 -0.0559 18.266 15.6923 1.38254
59 1 3 -0.055903 18.266 14.5575 0.580159
60 1 3 -0.055903 18.266 6.53422 14.334
61 1 3 -0.0559 26.1971 11.1132 7.85825
62 1 3 -0.0559 10.3349 9.9785 7.05587
63 1 3 -0.055903 10.3349 11.1132 7.85825
64 1 3 -0.055903 26.1971 9.9785 7.05587
65 1 3 -0.0559 14.7918 8.54005 0.580159
66 1 3 -0.0559 21.7402 12.5517 14.334
67 1 3 -0.055903 22.7229 13.1191 13.5316
68 1 3 -0.055903 13.8091 7.97268 1.38254
69 1 3 -0.0559 21.7402 3.39366 7.85825
70 1 3 -0.0559 14.7918 17.6981 7.05587
71 1 3 -0.055903 13.8091 17.1307 7.85825
72 1 3 -0.055903 22.7229 3.96103 7.05587
73 1 3 -0.055901 22.7229 17.1307 7.85825
74 1 3 -0.055901 13.8091 3.96103 7.05587
75 1 3 -0.055903 14.7918 3.39366 7.85825
76 1 3 -0.055903 21.7402 17.6981 7.05587
77 1 3 -0.0559 21.7402 8.54005 0.580159
78 1 3 -0.0559 14.7918 12.5517 14.334
79 1 3 -0.055903 13.8091 13.1191 13.5316
80 1 3 -0.055903 22.7229 7.97268 1.38254
81 1 4 -1.26215 27.399 15.8188 11.1856
82 1 4 -1.26215 9.13299 5.27293 3.72853
83 1 4 -0.60118 27.399 18.9383 11.9641
84 1 4 -0.60118 9.13299 2.15347 2.95001
85 1 4 -0.601179 27.399 17.5926 13.8671
86 1 4 -0.601179 9.13299 3.49912 1.04697
87 1 4 -0.601179 26.2336 13.3722 9.45555
88 1 4 -0.601179 10.2984 7.71958 5.45857
89 1 4 -0.60118 28.5643 13.3722 9.45555
90 1 4 -0.60118 7.96762 7.71958 5.45857
91 1 4 -0.60118 25.8628 14.9319 13.8671
92 1 4 -0.60118 10.6692 6.15984 1.04697
93 1 4 -0.601179 24.6974 14.2591 11.9641
94 1 4 -0.601179 11.8345 6.83267 2.95001
95 1 4 -0.60118 28.9351 18.0514 9.45555
96 1 4 -0.60118 7.59682 3.04037 5.45857
97 1 4 -0.601179 30.1005 16.0329 9.45555
98 1 4 -0.601179 6.43145 5.05885 5.45857
99 1 4 -0.601179 24.6974 16.0329 9.45555
100 1 4 -0.601179 11.8345 5.05885 5.45857
101 1 4 -0.60118 25.8628 18.0514 9.45555
102 1 4 -0.60118 10.6692 3.04037 5.45857
103 1 4 -0.60118 28.9351 14.9319 13.8671
104 1 4 -0.60118 7.59682 6.15984 1.04697
105 1 4 -0.60118 30.1005 14.2591 11.9641
106 1 4 -0.60118 6.43145 6.83267 2.95001
ITEM: TIMESTEP
21000
ITEM: NUMBER OF ATOMS
106
ITEM: BOX BOUNDS xy xz yz pp pp pp
0.0000000000000000e+00 3.6531964750000000e+01 9.1329911900000003e+00
0.0000000000000000e+00 2.1091739680000000e+01 9.1329911900000003e+00
0.0000000000000000e+00 1.4914112149999999e+01 5.2729349200000000e+00
ITEM: ATOMS id mol type q x y z
1 1 1 1.10383 27.399 17.6496 10.5383
2 1 1 1.10383 9.13299 3.44217 4.3758
3 1 1 1.10383 27.399 15.8188 13.1274
4 1 1 1.10383 9.13299 5.27293 1.78671
5 1 1 1.10383 25.8135 14.9034 10.5383
6 1 1 1.10383 10.7185 6.18832 4.3758
7 1 1 1.10383 28.9845 14.9034 10.5383
8 1 1 1.10383 7.5475 6.18832 4.3758
9 1 2 0.115889 18.266 5.48596 12.6084
10 1 2 0.115889 18.266 15.6058 2.30572
11 1 2 0.115888 18.266 13.716 0.969417
12 1 2 0.115888 18.266 7.37578 13.9447
13 1 2 0.11589 25.3934 11.4908 8.12521
14 1 2 0.11589 11.1386 9.60096 6.7889
15 1 2 0.115888 11.1386 11.4908 8.12521
16 1 2 0.115888 25.3934 9.60096 6.7889
17 1 2 0.115889 15.5206 8.96083 0.969417
18 1 2 0.115889 21.0114 12.1309 13.9447
19 1 2 0.115888 22.648 13.0758 12.6084
20 1 2 0.115888 13.884 8.01592 2.30572
21 1 2 0.115889 21.0114 3.90092 8.12521
22 1 2 0.115889 15.5206 17.1908 6.7889
23 1 2 0.115887 13.884 16.2459 8.12521
24 1 2 0.115887 22.648 4.84583 6.7889
25 1 2 0.115889 22.648 16.2459 8.12521
26 1 2 0.115889 13.884 4.84583 6.7889
27 1 2 0.115887 15.5206 3.90092 8.12521
28 1 2 0.115887 21.0114 17.1908 6.7889
29 1 2 0.115889 21.0114 8.96083 0.969417
30 1 2 0.115889 15.5206 12.1309 13.9447
31 1 2 0.115887 13.884 13.0758 12.6084
32 1 2 0.115887 22.648 8.01592 2.30572
33 1 3 0.671939 27.399 18.7442 13.2542
34 1 3 0.671939 9.13299 2.34751 1.65994
35 1 3 0.671939 27.399 12.8934 9.117
36 1 3 0.671939 9.13299 8.19836 5.79712
37 1 3 0.67194 24.8655 14.3561 13.2542
38 1 3 0.67194 11.6665 6.73565 1.65994
39 1 3 0.67194 29.9325 17.2815 9.117
40 1 3 0.67194 6.5995 3.81022 5.79712
41 1 3 0.67194 24.8655 17.2815 9.117
42 1 3 0.67194 11.6665 3.81022 5.79712
43 1 3 0.67194 29.9325 14.3561 13.2542
44 1 3 0.67194 6.5995 6.73565 1.65994
45 1 3 -0.11508 27.399 19.957 14.1117
46 1 3 -0.11508 9.13299 1.13474 0.802379
47 1 3 -0.11508 27.399 11.6806 8.25944
48 1 3 -0.11508 9.13299 9.41113 6.65468
49 1 3 -0.11508 23.8152 13.7497 14.1117
50 1 3 -0.11508 12.7168 7.34203 0.802379
51 1 3 -0.11508 30.9828 17.8879 8.25944
52 1 3 -0.11508 5.54921 3.20384 6.65468
53 1 3 -0.11508 23.8152 17.8879 8.25944
54 1 3 -0.11508 12.7168 3.20384 6.65468
55 1 3 -0.11508 30.9828 13.7497 14.1117
56 1 3 -0.11508 5.54921 7.34203 0.802379
57 1 3 -0.0559 18.266 5.39949 13.5316
58 1 3 -0.0559 18.266 15.6923 1.38254
59 1 3 -0.055903 18.266 14.5575 0.580159
60 1 3 -0.055903 18.266 6.53422 14.334
61 1 3 -0.0559 26.1971 11.1132 7.85825
62 1 3 -0.0559 10.3349 9.9785 7.05587
63 1 3 -0.055903 10.3349 11.1132 7.85825
64 1 3 -0.055903 26.1971 9.9785 7.05587
65 1 3 -0.0559 14.7918 8.54005 0.580159
66 1 3 -0.0559 21.7402 12.5517 14.334
67 1 3 -0.055903 22.7229 13.1191 13.5316
68 1 3 -0.055903 13.8091 7.97268 1.38254
69 1 3 -0.0559 21.7402 3.39366 7.85825
70 1 3 -0.0559 14.7918 17.6981 7.05587
71 1 3 -0.055903 13.8091 17.1307 7.85825
72 1 3 -0.055903 22.7229 3.96103 7.05587
73 1 3 -0.055901 22.7229 17.1307 7.85825
74 1 3 -0.055901 13.8091 3.96103 7.05587
75 1 3 -0.055903 14.7918 3.39366 7.85825
76 1 3 -0.055903 21.7402 17.6981 7.05587
77 1 3 -0.0559 21.7402 8.54005 0.580159
78 1 3 -0.0559 14.7918 12.5517 14.334
79 1 3 -0.055903 13.8091 13.1191 13.5316
80 1 3 -0.055903 22.7229 7.97268 1.38254
81 1 4 -1.26215 27.399 15.8188 11.1856
82 1 4 -1.26215 9.13299 5.27293 3.72853
83 1 4 -0.60118 27.399 18.9383 11.9641
84 1 4 -0.60118 9.13299 2.15347 2.95001
85 1 4 -0.601179 27.399 17.5926 13.8671
86 1 4 -0.601179 9.13299 3.49912 1.04697
87 1 4 -0.601179 26.2336 13.3722 9.45555
88 1 4 -0.601179 10.2984 7.71958 5.45857
89 1 4 -0.60118 28.5643 13.3722 9.45555
90 1 4 -0.60118 7.96762 7.71958 5.45857
91 1 4 -0.60118 25.8628 14.9319 13.8671
92 1 4 -0.60118 10.6692 6.15984 1.04697
93 1 4 -0.601179 24.6974 14.2591 11.9641
94 1 4 -0.601179 11.8345 6.83267 2.95001
95 1 4 -0.60118 28.9351 18.0514 9.45555
96 1 4 -0.60118 7.59682 3.04037 5.45857
97 1 4 -0.601179 30.1005 16.0329 9.45555
98 1 4 -0.601179 6.43145 5.05885 5.45857
99 1 4 -0.601179 24.6974 16.0329 9.45555
100 1 4 -0.601179 11.8345 5.05885 5.45857
101 1 4 -0.60118 25.8628 18.0514 9.45555
102 1 4 -0.60118 10.6692 3.04037 5.45857
103 1 4 -0.60118 28.9351 14.9319 13.8671
104 1 4 -0.60118 7.59682 6.15984 1.04697
105 1 4 -0.60118 30.1005 14.2591 11.9641
106 1 4 -0.60118 6.43145 6.83267 2.95001
ITEM: TIMESTEP
22000
ITEM: NUMBER OF ATOMS
106
ITEM: BOX BOUNDS xy xz yz pp pp pp
0.0000000000000000e+00 3.6531964750000000e+01 9.1329911900000003e+00
0.0000000000000000e+00 2.1091739680000000e+01 9.1329911900000003e+00
0.0000000000000000e+00 1.4914112149999999e+01 5.2729349200000000e+00
ITEM: ATOMS id mol type q x y z
1 1 1 1.10383 27.399 17.6496 10.5383
2 1 1 1.10383 9.13299 3.44217 4.3758
3 1 1 1.10383 27.399 15.8188 13.1274
4 1 1 1.10383 9.13299 5.27293 1.78671
5 1 1 1.10383 25.8135 14.9034 10.5383
6 1 1 1.10383 10.7185 6.18832 4.3758
7 1 1 1.10383 28.9845 14.9034 10.5383
8 1 1 1.10383 7.5475 6.18832 4.3758
9 1 2 0.115889 18.266 5.48596 12.6084
10 1 2 0.115889 18.266 15.6058 2.30572
11 1 2 0.115888 18.266 13.716 0.969417
12 1 2 0.115888 18.266 7.37578 13.9447
13 1 2 0.11589 25.3934 11.4908 8.12521
14 1 2 0.11589 11.1386 9.60096 6.7889
15 1 2 0.115888 11.1386 11.4908 8.12521
16 1 2 0.115888 25.3934 9.60096 6.7889
17 1 2 0.115889 15.5206 8.96083 0.969417
18 1 2 0.115889 21.0114 12.1309 13.9447
19 1 2 0.115888 22.648 13.0758 12.6084
20 1 2 0.115888 13.884 8.01592 2.30572
21 1 2 0.115889 21.0114 3.90092 8.12521
22 1 2 0.115889 15.5206 17.1908 6.7889
23 1 2 0.115887 13.884 16.2459 8.12521
24 1 2 0.115887 22.648 4.84583 6.7889
25 1 2 0.115889 22.648 16.2459 8.12521
26 1 2 0.115889 13.884 4.84583 6.7889
27 1 2 0.115887 15.5206 3.90092 8.12521
28 1 2 0.115887 21.0114 17.1908 6.7889
29 1 2 0.115889 21.0114 8.96083 0.969417
30 1 2 0.115889 15.5206 12.1309 13.9447
31 1 2 0.115887 13.884 13.0758 12.6084
32 1 2 0.115887 22.648 8.01592 2.30572
33 1 3 0.671939 27.399 18.7442 13.2542
34 1 3 0.671939 9.13299 2.34751 1.65994
35 1 3 0.671939 27.399 12.8934 9.117
36 1 3 0.671939 9.13299 8.19836 5.79712
37 1 3 0.67194 24.8655 14.3561 13.2542
38 1 3 0.67194 11.6665 6.73565 1.65994
39 1 3 0.67194 29.9325 17.2815 9.117
40 1 3 0.67194 6.5995 3.81022 5.79712
41 1 3 0.67194 24.8655 17.2815 9.117
42 1 3 0.67194 11.6665 3.81022 5.79712
43 1 3 0.67194 29.9325 14.3561 13.2542
44 1 3 0.67194 6.5995 6.73565 1.65994
45 1 3 -0.11508 27.399 19.957 14.1117
46 1 3 -0.11508 9.13299 1.13474 0.802379
47 1 3 -0.11508 27.399 11.6806 8.25944
48 1 3 -0.11508 9.13299 9.41113 6.65468
49 1 3 -0.11508 23.8152 13.7497 14.1117
50 1 3 -0.11508 12.7168 7.34203 0.802379
51 1 3 -0.11508 30.9828 17.8879 8.25944
52 1 3 -0.11508 5.54921 3.20384 6.65468
53 1 3 -0.11508 23.8152 17.8879 8.25944
54 1 3 -0.11508 12.7168 3.20384 6.65468
55 1 3 -0.11508 30.9828 13.7497 14.1117
56 1 3 -0.11508 5.54921 7.34203 0.802379
57 1 3 -0.0559 18.266 5.39949 13.5316
58 1 3 -0.0559 18.266 15.6923 1.38254
59 1 3 -0.055903 18.266 14.5575 0.580159
60 1 3 -0.055903 18.266 6.53422 14.334
61 1 3 -0.0559 26.1971 11.1132 7.85825
62 1 3 -0.0559 10.3349 9.9785 7.05587
63 1 3 -0.055903 10.3349 11.1132 7.85825
64 1 3 -0.055903 26.1971 9.9785 7.05587
65 1 3 -0.0559 14.7918 8.54005 0.580159
66 1 3 -0.0559 21.7402 12.5517 14.334
67 1 3 -0.055903 22.7229 13.1191 13.5316
68 1 3 -0.055903 13.8091 7.97268 1.38254
69 1 3 -0.0559 21.7402 3.39366 7.85825
70 1 3 -0.0559 14.7918 17.6981 7.05587
71 1 3 -0.055903 13.8091 17.1307 7.85825
72 1 3 -0.055903 22.7229 3.96103 7.05587
73 1 3 -0.055901 22.7229 17.1307 7.85825
74 1 3 -0.055901 13.8091 3.96103 7.05587
75 1 3 -0.055903 14.7918 3.39366 7.85825
76 1 3 -0.055903 21.7402 17.6981 7.05587
77 1 3 -0.0559 21.7402 8.54005 0.580159
78 1 3 -0.0559 14.7918 12.5517 14.334
79 1 3 -0.055903 13.8091 13.1191 13.5316
80 1 3 -0.055903 22.7229 7.97268 1.38254
81 1 4 -1.26215 27.399 15.8188 11.1856
82 1 4 -1.26215 9.13299 5.27293 3.72853
83 1 4 -0.60118 27.399 18.9383 11.9641
84 1 4 -0.60118 9.13299 2.15347 2.95001
85 1 4 -0.601179 27.399 17.5926 13.8671
86 1 4 -0.601179 9.13299 3.49912 1.04697
87 1 4 -0.601179 26.2336 13.3722 9.45555
88 1 4 -0.601179 10.2984 7.71958 5.45857
89 1 4 -0.60118 28.5643 13.3722 9.45555
90 1 4 -0.60118 7.96762 7.71958 5.45857
91 1 4 -0.60118 25.8628 14.9319 13.8671
92 1 4 -0.60118 10.6692 6.15984 1.04697
93 1 4 -0.601179 24.6974 14.2591 11.9641
94 1 4 -0.601179 11.8345 6.83267 2.95001
95 1 4 -0.60118 28.9351 18.0514 9.45555
96 1 4 -0.60118 7.59682 3.04037 5.45857
97 1 4 -0.601179 30.1005 16.0329 9.45555
98 1 4 -0.601179 6.43145 5.05885 5.45857
99 1 4 -0.601179 24.6974 16.0329 9.45555
100 1 4 -0.601179 11.8345 5.05885 5.45857
101 1 4 -0.60118 25.8628 18.0514 9.45555
102 1 4 -0.60118 10.6692 3.04037 5.45857
103 1 4 -0.60118 28.9351 14.9319 13.8671
104 1 4 -0.60118 7.59682 6.15984 1.04697
105 1 4 -0.60118 30.1005 14.2591 11.9641
106 1 4 -0.60118 6.43145 6.83267 2.95001
ITEM: TIMESTEP
23000
ITEM: NUMBER OF ATOMS
106
ITEM: BOX BOUNDS xy xz yz pp pp pp
0.0000000000000000e+00 3.6531964750000000e+01 9.1329911900000003e+00
0.0000000000000000e+00 2.1091739680000000e+01 9.1329911900000003e+00
0.0000000000000000e+00 1.4914112149999999e+01 5.2729349200000000e+00
ITEM: ATOMS id mol type q x y z
1 1 1 1.10383 27.399 17.6496 10.5383
2 1 1 1.10383 9.13299 3.44217 4.3758
3 1 1 1.10383 27.399 15.8188 13.1274
4 1 1 1.10383 9.13299 5.27293 1.78671
5 1 1 1.10383 25.8135 14.9034 10.5383
6 1 1 1.10383 10.7185 6.18832 4.3758
7 1 1 1.10383 28.9845 14.9034 10.5383
8 1 1 1.10383 7.5475 6.18832 4.3758
9 1 2 0.115889 18.266 5.48596 12.6084
10 1 2 0.115889 18.266 15.6058 2.30572
11 1 2 0.115888 18.266 13.716 0.969417
12 1 2 0.115888 18.266 7.37578 13.9447
13 1 2 0.11589 25.3934 11.4908 8.12521
14 1 2 0.11589 11.1386 9.60096 6.7889
15 1 2 0.115888 11.1386 11.4908 8.12521
16 1 2 0.115888 25.3934 9.60096 6.7889
17 1 2 0.115889 15.5206 8.96083 0.969417
18 1 2 0.115889 21.0114 12.1309 13.9447
19 1 2 0.115888 22.648 13.0758 12.6084
20 1 2 0.115888 13.884 8.01592 2.30572
21 1 2 0.115889 21.0114 3.90092 8.12521
22 1 2 0.115889 15.5206 17.1908 6.7889
23 1 2 0.115887 13.884 16.2459 8.12521
24 1 2 0.115887 22.648 4.84583 6.7889
25 1 2 0.115889 22.648 16.2459 8.12521
26 1 2 0.115889 13.884 4.84583 6.7889
27 1 2 0.115887 15.5206 3.90092 8.12521
28 1 2 0.115887 21.0114 17.1908 6.7889
29 1 2 0.115889 21.0114 8.96083 0.969417
30 1 2 0.115889 15.5206 12.1309 13.9447
31 1 2 0.115887 13.884 13.0758 12.6084
32 1 2 0.115887 22.648 8.01592 2.30572
33 1 3 0.671939 27.399 18.7442 13.2542
34 1 3 0.671939 9.13299 2.34751 1.65994
35 1 3 0.671939 27.399 12.8934 9.117
36 1 3 0.671939 9.13299 8.19836 5.79712
37 1 3 0.67194 24.8655 14.3561 13.2542
38 1 3 0.67194 11.6665 6.73565 1.65994
39 1 3 0.67194 29.9325 17.2815 9.117
40 1 3 0.67194 6.5995 3.81022 5.79712
41 1 3 0.67194 24.8655 17.2815 9.117
42 1 3 0.67194 11.6665 3.81022 5.79712
43 1 3 0.67194 29.9325 14.3561 13.2542
44 1 3 0.67194 6.5995 6.73565 1.65994
45 1 3 -0.11508 27.399 19.957 14.1117
46 1 3 -0.11508 9.13299 1.13474 0.802379
47 1 3 -0.11508 27.399 11.6806 8.25944
48 1 3 -0.11508 9.13299 9.41113 6.65468
49 1 3 -0.11508 23.8152 13.7497 14.1117
50 1 3 -0.11508 12.7168 7.34203 0.802379
51 1 3 -0.11508 30.9828 17.8879 8.25944
52 1 3 -0.11508 5.54921 3.20384 6.65468
53 1 3 -0.11508 23.8152 17.8879 8.25944
54 1 3 -0.11508 12.7168 3.20384 6.65468
55 1 3 -0.11508 30.9828 13.7497 14.1117
56 1 3 -0.11508 5.54921 7.34203 0.802379
57 1 3 -0.0559 18.266 5.39949 13.5316
58 1 3 -0.0559 18.266 15.6923 1.38254
59 1 3 -0.055903 18.266 14.5575 0.580159
60 1 3 -0.055903 18.266 6.53422 14.334
61 1 3 -0.0559 26.1971 11.1132 7.85825
62 1 3 -0.0559 10.3349 9.9785 7.05587
63 1 3 -0.055903 10.3349 11.1132 7.85825
64 1 3 -0.055903 26.1971 9.9785 7.05587
65 1 3 -0.0559 14.7918 8.54005 0.580159
66 1 3 -0.0559 21.7402 12.5517 14.334
67 1 3 -0.055903 22.7229 13.1191 13.5316
68 1 3 -0.055903 13.8091 7.97268 1.38254
69 1 3 -0.0559 21.7402 3.39366 7.85825
70 1 3 -0.0559 14.7918 17.6981 7.05587
71 1 3 -0.055903 13.8091 17.1307 7.85825
72 1 3 -0.055903 22.7229 3.96103 7.05587
73 1 3 -0.055901 22.7229 17.1307 7.85825
74 1 3 -0.055901 13.8091 3.96103 7.05587
75 1 3 -0.055903 14.7918 3.39366 7.85825
76 1 3 -0.055903 21.7402 17.6981 7.05587
77 1 3 -0.0559 21.7402 8.54005 0.580159
78 1 3 -0.0559 14.7918 12.5517 14.334
79 1 3 -0.055903 13.8091 13.1191 13.5316
80 1 3 -0.055903 22.7229 7.97268 1.38254
81 1 4 -1.26215 27.399 15.8188 11.1856
82 1 4 -1.26215 9.13299 5.27293 3.72853
83 1 4 -0.60118 27.399 18.9383 11.9641
84 1 4 -0.60118 9.13299 2.15347 2.95001
85 1 4 -0.601179 27.399 17.5926 13.8671
86 1 4 -0.601179 9.13299 3.49912 1.04697
87 1 4 -0.601179 26.2336 13.3722 9.45555
88 1 4 -0.601179 10.2984 7.71958 5.45857
89 1 4 -0.60118 28.5643 13.3722 9.45555
90 1 4 -0.60118 7.96762 7.71958 5.45857
91 1 4 -0.60118 25.8628 14.9319 13.8671
92 1 4 -0.60118 10.6692 6.15984 1.04697
93 1 4 -0.601179 24.6974 14.2591 11.9641
94 1 4 -0.601179 11.8345 6.83267 2.95001
95 1 4 -0.60118 28.9351 18.0514 9.45555
96 1 4 -0.60118 7.59682 3.04037 5.45857
97 1 4 -0.601179 30.1005 16.0329 9.45555
98 1 4 -0.601179 6.43145 5.05885 5.45857
99 1 4 -0.601179 24.6974 16.0329 9.45555
100 1 4 -0.601179 11.8345 5.05885 5.45857
101 1 4 -0.60118 25.8628 18.0514 9.45555
102 1 4 -0.60118 10.6692 3.04037 5.45857
103 1 4 -0.60118 28.9351 14.9319 13.8671
104 1 4 -0.60118 7.59682 6.15984 1.04697
105 1 4 -0.60118 30.1005 14.2591 11.9641
106 1 4 -0.60118 6.43145 6.83267 2.95001
ITEM: TIMESTEP
24000
ITEM: NUMBER OF ATOMS
106
ITEM: BOX BOUNDS xy xz yz pp pp pp
0.0000000000000000e+00 3.6531964750000000e+01 9.1329911900000003e+00
0.0000000000000000e+00 2.1091739680000000e+01 9.1329911900000003e+00
0.0000000000000000e+00 1.4914112149999999e+01 5.2729349200000000e+00
ITEM: ATOMS id mol type q x y z
1 1 1 1.10383 27.399 17.6496 10.5383
2 1 1 1.10383 9.13299 3.44217 4.3758
3 1 1 1.10383 27.399 15.8188 13.1274
4 1 1 1.10383 9.13299 5.27293 1.78671
5 1 1 1.10383 25.8135 14.9034 10.5383
6 1 1 1.10383 10.7185 6.18832 4.3758
7 1 1 1.10383 28.9845 14.9034 10.5383
8 1 1 1.10383 7.5475 6.18832 4.3758
9 1 2 0.115889 18.266 5.48596 12.6084
10 1 2 0.115889 18.266 15.6058 2.30572
11 1 2 0.115888 18.266 13.716 0.969417
12 1 2 0.115888 18.266 7.37578 13.9447
13 1 2 0.11589 25.3934 11.4908 8.12521
14 1 2 0.11589 11.1386 9.60096 6.7889
15 1 2 0.115888 11.1386 11.4908 8.12521
16 1 2 0.115888 25.3934 9.60096 6.7889
17 1 2 0.115889 15.5206 8.96083 0.969417
18 1 2 0.115889 21.0114 12.1309 13.9447
19 1 2 0.115888 22.648 13.0758 12.6084
20 1 2 0.115888 13.884 8.01592 2.30572
21 1 2 0.115889 21.0114 3.90092 8.12521
22 1 2 0.115889 15.5206 17.1908 6.7889
23 1 2 0.115887 13.884 16.2459 8.12521
24 1 2 0.115887 22.648 4.84583 6.7889
25 1 2 0.115889 22.648 16.2459 8.12521
26 1 2 0.115889 13.884 4.84583 6.7889
27 1 2 0.115887 15.5206 3.90092 8.12521
28 1 2 0.115887 21.0114 17.1908 6.7889
29 1 2 0.115889 21.0114 8.96083 0.969417
30 1 2 0.115889 15.5206 12.1309 13.9447
31 1 2 0.115887 13.884 13.0758 12.6084
32 1 2 0.115887 22.648 8.01592 2.30572
33 1 3 0.671939 27.399 18.7442 13.2542
34 1 3 0.671939 9.13299 2.34751 1.65994
35 1 3 0.671939 27.399 12.8934 9.117
36 1 3 0.671939 9.13299 8.19836 5.79712
37 1 3 0.67194 24.8655 14.3561 13.2542
38 1 3 0.67194 11.6665 6.73565 1.65994
39 1 3 0.67194 29.9325 17.2815 9.117
40 1 3 0.67194 6.5995 3.81022 5.79712
41 1 3 0.67194 24.8655 17.2815 9.117
42 1 3 0.67194 11.6665 3.81022 5.79712
43 1 3 0.67194 29.9325 14.3561 13.2542
44 1 3 0.67194 6.5995 6.73565 1.65994
45 1 3 -0.11508 27.399 19.957 14.1117
46 1 3 -0.11508 9.13299 1.13474 0.802379
47 1 3 -0.11508 27.399 11.6806 8.25944
48 1 3 -0.11508 9.13299 9.41113 6.65468
49 1 3 -0.11508 23.8152 13.7497 14.1117
50 1 3 -0.11508 12.7168 7.34203 0.802379
51 1 3 -0.11508 30.9828 17.8879 8.25944
52 1 3 -0.11508 5.54921 3.20384 6.65468
53 1 3 -0.11508 23.8152 17.8879 8.25944
54 1 3 -0.11508 12.7168 3.20384 6.65468
55 1 3 -0.11508 30.9828 13.7497 14.1117
56 1 3 -0.11508 5.54921 7.34203 0.802379
57 1 3 -0.0559 18.266 5.39949 13.5316
58 1 3 -0.0559 18.266 15.6923 1.38254
59 1 3 -0.055903 18.266 14.5575 0.580159
60 1 3 -0.055903 18.266 6.53422 14.334
61 1 3 -0.0559 26.1971 11.1132 7.85825
62 1 3 -0.0559 10.3349 9.9785 7.05587
63 1 3 -0.055903 10.3349 11.1132 7.85825
64 1 3 -0.055903 26.1971 9.9785 7.05587
65 1 3 -0.0559 14.7918 8.54005 0.580159
66 1 3 -0.0559 21.7402 12.5517 14.334
67 1 3 -0.055903 22.7229 13.1191 13.5316
68 1 3 -0.055903 13.8091 7.97268 1.38254
69 1 3 -0.0559 21.7402 3.39366 7.85825
70 1 3 -0.0559 14.7918 17.6981 7.05587
71 1 3 -0.055903 13.8091 17.1307 7.85825
72 1 3 -0.055903 22.7229 3.96103 7.05587
73 1 3 -0.055901 22.7229 17.1307 7.85825
74 1 3 -0.055901 13.8091 3.96103 7.05587
75 1 3 -0.055903 14.7918 3.39366 7.85825
76 1 3 -0.055903 21.7402 17.6981 7.05587
77 1 3 -0.0559 21.7402 8.54005 0.580159
78 1 3 -0.0559 14.7918 12.5517 14.334
79 1 3 -0.055903 13.8091 13.1191 13.5316
80 1 3 -0.055903 22.7229 7.97268 1.38254
81 1 4 -1.26215 27.399 15.8188 11.1856
82 1 4 -1.26215 9.13299 5.27293 3.72853
83 1 4 -0.60118 27.399 18.9383 11.9641
84 1 4 -0.60118 9.13299 2.15347 2.95001
85 1 4 -0.601179 27.399 17.5926 13.8671
86 1 4 -0.601179 9.13299 3.49912 1.04697
87 1 4 -0.601179 26.2336 13.3722 9.45555
88 1 4 -0.601179 10.2984 7.71958 5.45857
89 1 4 -0.60118 28.5643 13.3722 9.45555
90 1 4 -0.60118 7.96762 7.71958 5.45857
91 1 4 -0.60118 25.8628 14.9319 13.8671
92 1 4 -0.60118 10.6692 6.15984 1.04697
93 1 4 -0.601179 24.6974 14.2591 11.9641
94 1 4 -0.601179 11.8345 6.83267 2.95001
95 1 4 -0.60118 28.9351 18.0514 9.45555
96 1 4 -0.60118 7.59682 3.04037 5.45857
97 1 4 -0.601179 30.1005 16.0329 9.45555
98 1 4 -0.601179 6.43145 5.05885 5.45857
99 1 4 -0.601179 24.6974 16.0329 9.45555
100 1 4 -0.601179 11.8345 5.05885 5.45857
101 1 4 -0.60118 25.8628 18.0514 9.45555
102 1 4 -0.60118 10.6692 3.04037 5.45857
103 1 4 -0.60118 28.9351 14.9319 13.8671
104 1 4 -0.60118 7.59682 6.15984 1.04697
105 1 4 -0.60118 30.1005 14.2591 11.9641
106 1 4 -0.60118 6.43145 6.83267 2.95001
ITEM: TIMESTEP
25000
ITEM: NUMBER OF ATOMS
106
ITEM: BOX BOUNDS xy xz yz pp pp pp
0.0000000000000000e+00 3.6531964750000000e+01 9.1329911900000003e+00
0.0000000000000000e+00 2.1091739680000000e+01 9.1329911900000003e+00
0.0000000000000000e+00 1.4914112149999999e+01 5.2729349200000000e+00
ITEM: ATOMS id mol type q x y z
1 1 1 1.10383 27.399 17.6496 10.5383
2 1 1 1.10383 9.13299 3.44217 4.3758
3 1 1 1.10383 27.399 15.8188 13.1274
4 1 1 1.10383 9.13299 5.27293 1.78671
5 1 1 1.10383 25.8135 14.9034 10.5383
6 1 1 1.10383 10.7185 6.18832 4.3758
7 1 1 1.10383 28.9845 14.9034 10.5383
8 1 1 1.10383 7.5475 6.18832 4.3758
9 1 2 0.115889 18.266 5.48596 12.6084
10 1 2 0.115889 18.266 15.6058 2.30572
11 1 2 0.115888 18.266 13.716 0.969417
12 1 2 0.115888 18.266 7.37578 13.9447
13 1 2 0.11589 25.3934 11.4908 8.12521
14 1 2 0.11589 11.1386 9.60096 6.7889
15 1 2 0.115888 11.1386 11.4908 8.12521
16 1 2 0.115888 25.3934 9.60096 6.7889
17 1 2 0.115889 15.5206 8.96083 0.969417
18 1 2 0.115889 21.0114 12.1309 13.9447
19 1 2 0.115888 22.648 13.0758 12.6084
20 1 2 0.115888 13.884 8.01592 2.30572
21 1 2 0.115889 21.0114 3.90092 8.12521
22 1 2 0.115889 15.5206 17.1908 6.7889
23 1 2 0.115887 13.884 16.2459 8.12521
24 1 2 0.115887 22.648 4.84583 6.7889
25 1 2 0.115889 22.648 16.2459 8.12521
26 1 2 0.115889 13.884 4.84583 6.7889
27 1 2 0.115887 15.5206 3.90092 8.12521
28 1 2 0.115887 21.0114 17.1908 6.7889
29 1 2 0.115889 21.0114 8.96083 0.969417
30 1 2 0.115889 15.5206 12.1309 13.9447
31 1 2 0.115887 13.884 13.0758 12.6084
32 1 2 0.115887 22.648 8.01592 2.30572
33 1 3 0.671939 27.399 18.7442 13.2542
34 1 3 0.671939 9.13299 2.34751 1.65994
35 1 3 0.671939 27.399 12.8934 9.117
36 1 3 0.671939 9.13299 8.19836 5.79712
37 1 3 0.67194 24.8655 14.3561 13.2542
38 1 3 0.67194 11.6665 6.73565 1.65994
39 1 3 0.67194 29.9325 17.2815 9.117
40 1 3 0.67194 6.5995 3.81022 5.79712
41 1 3 0.67194 24.8655 17.2815 9.117
42 1 3 0.67194 11.6665 3.81022 5.79712
43 1 3 0.67194 29.9325 14.3561 13.2542
44 1 3 0.67194 6.5995 6.73565 1.65994
45 1 3 -0.11508 27.399 19.957 14.1117
46 1 3 -0.11508 9.13299 1.13474 0.802379
47 1 3 -0.11508 27.399 11.6806 8.25944
48 1 3 -0.11508 9.13299 9.41113 6.65468
49 1 3 -0.11508 23.8152 13.7497 14.1117
50 1 3 -0.11508 12.7168 7.34203 0.802379
51 1 3 -0.11508 30.9828 17.8879 8.25944
52 1 3 -0.11508 5.54921 3.20384 6.65468
53 1 3 -0.11508 23.8152 17.8879 8.25944
54 1 3 -0.11508 12.7168 3.20384 6.65468
55 1 3 -0.11508 30.9828 13.7497 14.1117
56 1 3 -0.11508 5.54921 7.34203 0.802379
57 1 3 -0.0559 18.266 5.39949 13.5316
58 1 3 -0.0559 18.266 15.6923 1.38254
59 1 3 -0.055903 18.266 14.5575 0.580159
60 1 3 -0.055903 18.266 6.53422 14.334
61 1 3 -0.0559 26.1971 11.1132 7.85825
62 1 3 -0.0559 10.3349 9.9785 7.05587
63 1 3 -0.055903 10.3349 11.1132 7.85825
64 1 3 -0.055903 26.1971 9.9785 7.05587
65 1 3 -0.0559 14.7918 8.54005 0.580159
66 1 3 -0.0559 21.7402 12.5517 14.334
67 1 3 -0.055903 22.7229 13.1191 13.5316
68 1 3 -0.055903 13.8091 7.97268 1.38254
69 1 3 -0.0559 21.7402 3.39366 7.85825
70 1 3 -0.0559 14.7918 17.6981 7.05587
71 1 3 -0.055903 13.8091 17.1307 7.85825
72 1 3 -0.055903 22.7229 3.96103 7.05587
73 1 3 -0.055901 22.7229 17.1307 7.85825
74 1 3 -0.055901 13.8091 3.96103 7.05587
75 1 3 -0.055903 14.7918 3.39366 7.85825
76 1 3 -0.055903 21.7402 17.6981 7.05587
77 1 3 -0.0559 21.7402 8.54005 0.580159
78 1 3 -0.0559 14.7918 12.5517 14.334
79 1 3 -0.055903 13.8091 13.1191 13.5316
80 1 3 -0.055903 22.7229 7.97268 1.38254
81 1 4 -1.26215 27.399 15.8188 11.1856
82 1 4 -1.26215 9.13299 5.27293 3.72853
83 1 4 -0.60118 27.399 18.9383 11.9641
84 1 4 -0.60118 9.13299 2.15347 2.95001
85 1 4 -0.601179 27.399 17.5926 13.8671
86 1 4 -0.601179 9.13299 3.49912 1.04697
87 1 4 -0.601179 26.2336 13.3722 9.45555
88 1 4 -0.601179 10.2984 7.71958 5.45857
89 1 4 -0.60118 28.5643 13.3722 9.45555
90 1 4 -0.60118 7.96762 7.71958 5.45857
91 1 4 -0.60118 25.8628 14.9319 13.8671
92 1 4 -0.60118 10.6692 6.15984 1.04697
93 1 4 -0.601179 24.6974 14.2591 11.9641
94 1 4 -0.601179 11.8345 6.83267 2.95001
95 1 4 -0.60118 28.9351 18.0514 9.45555
96 1 4 -0.60118 7.59682 3.04037 5.45857
97 1 4 -0.601179 30.1005 16.0329 9.45555
98 1 4 -0.601179 6.43145 5.05885 5.45857
99 1 4 -0.601179 24.6974 16.0329 9.45555
100 1 4 -0.601179 11.8345 5.05885 5.45857
101 1 4 -0.60118 25.8628 18.0514 9.45555
102 1 4 -0.60118 10.6692 3.04037 5.45857
103 1 4 -0.60118 28.9351 14.9319 13.8671
104 1 4 -0.60118 7.59682 6.15984 1.04697
105 1 4 -0.60118 30.1005 14.2591 11.9641
106 1 4 -0.60118 6.43145 6.83267 2.95001
ITEM: TIMESTEP
26000
ITEM: NUMBER OF ATOMS
106
ITEM: BOX BOUNDS xy xz yz pp pp pp
0.0000000000000000e+00 3.6531964750000000e+01 9.1329911900000003e+00
0.0000000000000000e+00 2.1091739680000000e+01 9.1329911900000003e+00
0.0000000000000000e+00 1.4914112149999999e+01 5.2729349200000000e+00
ITEM: ATOMS id mol type q x y z
1 1 1 1.10383 27.399 17.6496 10.5383
2 1 1 1.10383 9.13299 3.44217 4.3758
3 1 1 1.10383 27.399 15.8188 13.1274
4 1 1 1.10383 9.13299 5.27293 1.78671
5 1 1 1.10383 25.8135 14.9034 10.5383
6 1 1 1.10383 10.7185 6.18832 4.3758
7 1 1 1.10383 28.9845 14.9034 10.5383
8 1 1 1.10383 7.5475 6.18832 4.3758
9 1 2 0.115889 18.266 5.48596 12.6084
10 1 2 0.115889 18.266 15.6058 2.30572
11 1 2 0.115888 18.266 13.716 0.969417
12 1 2 0.115888 18.266 7.37578 13.9447
13 1 2 0.11589 25.3934 11.4908 8.12521
14 1 2 0.11589 11.1386 9.60096 6.7889
15 1 2 0.115888 11.1386 11.4908 8.12521
16 1 2 0.115888 25.3934 9.60096 6.7889
17 1 2 0.115889 15.5206 8.96083 0.969417
18 1 2 0.115889 21.0114 12.1309 13.9447
19 1 2 0.115888 22.648 13.0758 12.6084
20 1 2 0.115888 13.884 8.01592 2.30572
21 1 2 0.115889 21.0114 3.90092 8.12521
22 1 2 0.115889 15.5206 17.1908 6.7889
23 1 2 0.115887 13.884 16.2459 8.12521
24 1 2 0.115887 22.648 4.84583 6.7889
25 1 2 0.115889 22.648 16.2459 8.12521
26 1 2 0.115889 13.884 4.84583 6.7889
27 1 2 0.115887 15.5206 3.90092 8.12521
28 1 2 0.115887 21.0114 17.1908 6.7889
29 1 2 0.115889 21.0114 8.96083 0.969417
30 1 2 0.115889 15.5206 12.1309 13.9447
31 1 2 0.115887 13.884 13.0758 12.6084
32 1 2 0.115887 22.648 8.01592 2.30572
33 1 3 0.671939 27.399 18.7442 13.2542
34 1 3 0.671939 9.13299 2.34751 1.65994
35 1 3 0.671939 27.399 12.8934 9.117
36 1 3 0.671939 9.13299 8.19836 5.79712
37 1 3 0.67194 24.8655 14.3561 13.2542
38 1 3 0.67194 11.6665 6.73565 1.65994
39 1 3 0.67194 29.9325 17.2815 9.117
40 1 3 0.67194 6.5995 3.81022 5.79712
41 1 3 0.67194 24.8655 17.2815 9.117
42 1 3 0.67194 11.6665 3.81022 5.79712
43 1 3 0.67194 29.9325 14.3561 13.2542
44 1 3 0.67194 6.5995 6.73565 1.65994
45 1 3 -0.11508 27.399 19.957 14.1117
46 1 3 -0.11508 9.13299 1.13474 0.802379
47 1 3 -0.11508 27.399 11.6806 8.25944
48 1 3 -0.11508 9.13299 9.41113 6.65468
49 1 3 -0.11508 23.8152 13.7497 14.1117
50 1 3 -0.11508 12.7168 7.34203 0.802379
51 1 3 -0.11508 30.9828 17.8879 8.25944
52 1 3 -0.11508 5.54921 3.20384 6.65468
53 1 3 -0.11508 23.8152 17.8879 8.25944
54 1 3 -0.11508 12.7168 3.20384 6.65468
55 1 3 -0.11508 30.9828 13.7497 14.1117
56 1 3 -0.11508 5.54921 7.34203 0.802379
57 1 3 -0.0559 18.266 5.39949 13.5316
58 1 3 -0.0559 18.266 15.6923 1.38254
59 1 3 -0.055903 18.266 14.5575 0.580159
60 1 3 -0.055903 18.266 6.53422 14.334
61 1 3 -0.0559 26.1971 11.1132 7.85825
62 1 3 -0.0559 10.3349 9.9785 7.05587
63 1 3 -0.055903 10.3349 11.1132 7.85825
64 1 3 -0.055903 26.1971 9.9785 7.05587
65 1 3 -0.0559 14.7918 8.54005 0.580159
66 1 3 -0.0559 21.7402 12.5517 14.334
67 1 3 -0.055903 22.7229 13.1191 13.5316
68 1 3 -0.055903 13.8091 7.97268 1.38254
69 1 3 -0.0559 21.7402 3.39366 7.85825
70 1 3 -0.0559 14.7918 17.6981 7.05587
71 1 3 -0.055903 13.8091 17.1307 7.85825
72 1 3 -0.055903 22.7229 3.96103 7.05587
73 1 3 -0.055901 22.7229 17.1307 7.85825
74 1 3 -0.055901 13.8091 3.96103 7.05587
75 1 3 -0.055903 14.7918 3.39366 7.85825
76 1 3 -0.055903 21.7402 17.6981 7.05587
77 1 3 -0.0559 21.7402 8.54005 0.580159
78 1 3 -0.0559 14.7918 12.5517 14.334
79 1 3 -0.055903 13.8091 13.1191 13.5316
80 1 3 -0.055903 22.7229 7.97268 1.38254
81 1 4 -1.26215 27.399 15.8188 11.1856
82 1 4 -1.26215 9.13299 5.27293 3.72853
83 1 4 -0.60118 27.399 18.9383 11.9641
84 1 4 -0.60118 9.13299 2.15347 2.95001
85 1 4 -0.601179 27.399 17.5926 13.8671
86 1 4 -0.601179 9.13299 3.49912 1.04697
87 1 4 -0.601179 26.2336 13.3722 9.45555
88 1 4 -0.601179 10.2984 7.71958 5.45857
89 1 4 -0.60118 28.5643 13.3722 9.45555
90 1 4 -0.60118 7.96762 7.71958 5.45857
91 1 4 -0.60118 25.8628 14.9319 13.8671
92 1 4 -0.60118 10.6692 6.15984 1.04697
93 1 4 -0.601179 24.6974 14.2591 11.9641
94 1 4 -0.601179 11.8345 6.83267 2.95001
95 1 4 -0.60118 28.9351 18.0514 9.45555
96 1 4 -0.60118 7.59682 3.04037 5.45857
97 1 4 -0.601179 30.1005 16.0329 9.45555
98 1 4 -0.601179 6.43145 5.05885 5.45857
99 1 4 -0.601179 24.6974 16.0329 9.45555
100 1 4 -0.601179 11.8345 5.05885 5.45857
101 1 4 -0.60118 25.8628 18.0514 9.45555
102 1 4 -0.60118 10.6692 3.04037 5.45857
103 1 4 -0.60118 28.9351 14.9319 13.8671
104 1 4 -0.60118 7.59682 6.15984 1.04697
105 1 4 -0.60118 30.1005 14.2591 11.9641
106 1 4 -0.60118 6.43145 6.83267 2.95001
ITEM: TIMESTEP
27000
ITEM: NUMBER OF ATOMS
106
ITEM: BOX BOUNDS xy xz yz pp pp pp
0.0000000000000000e+00 3.6531964750000000e+01 9.1329911900000003e+00
0.0000000000000000e+00 2.1091739680000000e+01 9.1329911900000003e+00
0.0000000000000000e+00 1.4914112149999999e+01 5.2729349200000000e+00
ITEM: ATOMS id mol type q x y z
1 1 1 1.10383 27.399 17.6496 10.5383
2 1 1 1.10383 9.13299 3.44217 4.3758
3 1 1 1.10383 27.399 15.8188 13.1274
4 1 1 1.10383 9.13299 5.27293 1.78671
5 1 1 1.10383 25.8135 14.9034 10.5383
6 1 1 1.10383 10.7185 6.18832 4.3758
7 1 1 1.10383 28.9845 14.9034 10.5383
8 1 1 1.10383 7.5475 6.18832 4.3758
9 1 2 0.115889 18.266 5.48596 12.6084
10 1 2 0.115889 18.266 15.6058 2.30572
11 1 2 0.115888 18.266 13.716 0.969417
12 1 2 0.115888 18.266 7.37578 13.9447
13 1 2 0.11589 25.3934 11.4908 8.12521
14 1 2 0.11589 11.1386 9.60096 6.7889
15 1 2 0.115888 11.1386 11.4908 8.12521
16 1 2 0.115888 25.3934 9.60096 6.7889
17 1 2 0.115889 15.5206 8.96083 0.969417
18 1 2 0.115889 21.0114 12.1309 13.9447
19 1 2 0.115888 22.648 13.0758 12.6084
20 1 2 0.115888 13.884 8.01592 2.30572
21 1 2 0.115889 21.0114 3.90092 8.12521
22 1 2 0.115889 15.5206 17.1908 6.7889
23 1 2 0.115887 13.884 16.2459 8.12521
24 1 2 0.115887 22.648 4.84583 6.7889
25 1 2 0.115889 22.648 16.2459 8.12521
26 1 2 0.115889 13.884 4.84583 6.7889
27 1 2 0.115887 15.5206 3.90092 8.12521
28 1 2 0.115887 21.0114 17.1908 6.7889
29 1 2 0.115889 21.0114 8.96083 0.969417
30 1 2 0.115889 15.5206 12.1309 13.9447
31 1 2 0.115887 13.884 13.0758 12.6084
32 1 2 0.115887 22.648 8.01592 2.30572
33 1 3 0.671939 27.399 18.7442 13.2542
34 1 3 0.671939 9.13299 2.34751 1.65994
35 1 3 0.671939 27.399 12.8934 9.117
36 1 3 0.671939 9.13299 8.19836 5.79712
37 1 3 0.67194 24.8655 14.3561 13.2542
38 1 3 0.67194 11.6665 6.73565 1.65994
39 1 3 0.67194 29.9325 17.2815 9.117
40 1 3 0.67194 6.5995 3.81022 5.79712
41 1 3 0.67194 24.8655 17.2815 9.117
42 1 3 0.67194 11.6665 3.81022 5.79712
43 1 3 0.67194 29.9325 14.3561 13.2542
44 1 3 0.67194 6.5995 6.73565 1.65994
45 1 3 -0.11508 27.399 19.957 14.1117
46 1 3 -0.11508 9.13299 1.13474 0.802379
47 1 3 -0.11508 27.399 11.6806 8.25944
48 1 3 -0.11508 9.13299 9.41113 6.65468
49 1 3 -0.11508 23.8152 13.7497 14.1117
50 1 3 -0.11508 12.7168 7.34203 0.802379
51 1 3 -0.11508 30.9828 17.8879 8.25944
52 1 3 -0.11508 5.54921 3.20384 6.65468
53 1 3 -0.11508 23.8152 17.8879 8.25944
54 1 3 -0.11508 12.7168 3.20384 6.65468
55 1 3 -0.11508 30.9828 13.7497 14.1117
56 1 3 -0.11508 5.54921 7.34203 0.802379
57 1 3 -0.0559 18.266 5.39949 13.5316
58 1 3 -0.0559 18.266 15.6923 1.38254
59 1 3 -0.055903 18.266 14.5575 0.580159
60 1 3 -0.055903 18.266 6.53422 14.334
61 1 3 -0.0559 26.1971 11.1132 7.85825
62 1 3 -0.0559 10.3349 9.9785 7.05587
63 1 3 -0.055903 10.3349 11.1132 7.85825
64 1 3 -0.055903 26.1971 9.9785 7.05587
65 1 3 -0.0559 14.7918 8.54005 0.580159
66 1 3 -0.0559 21.7402 12.5517 14.334
67 1 3 -0.055903 22.7229 13.1191 13.5316
68 1 3 -0.055903 13.8091 7.97268 1.38254
69 1 3 -0.0559 21.7402 3.39366 7.85825
70 1 3 -0.0559 14.7918 17.6981 7.05587
71 1 3 -0.055903 13.8091 17.1307 7.85825
72 1 3 -0.055903 22.7229 3.96103 7.05587
73 1 3 -0.055901 22.7229 17.1307 7.85825
74 1 3 -0.055901 13.8091 3.96103 7.05587
75 1 3 -0.055903 14.7918 3.39366 7.85825
76 1 3 -0.055903 21.7402 17.6981 7.05587
77 1 3 -0.0559 21.7402 8.54005 0.580159
78 1 3 -0.0559 14.7918 12.5517 14.334
79 1 3 -0.055903 13.8091 13.1191 13.5316
80 1 3 -0.055903 22.7229 7.97268 1.38254
81 1 4 -1.26215 27.399 15.8188 11.1856
82 1 4 -1.26215 9.13299 5.27293 3.72853
83 1 4 -0.60118 27.399 18.9383 11.9641
84 1 4 -0.60118 9.13299 2.15347 2.95001
85 1 4 -0.601179 27.399 17.5926 13.8671
86 1 4 -0.601179 9.13299 3.49912 1.04697
87 1 4 -0.601179 26.2336 13.3722 9.45555
88 1 4 -0.601179 10.2984 7.71958 5.45857
89 1 4 -0.60118 28.5643 13.3722 9.45555
90 1 4 -0.60118 7.96762 7.71958 5.45857
91 1 4 -0.60118 25.8628 14.9319 13.8671
92 1 4 -0.60118 10.6692 6.15984 1.04697
93 1 4 -0.601179 24.6974 14.2591 11.9641
94 1 4 -0.601179 11.8345 6.83267 2.95001
95 1 4 -0.60118 28.9351 18.0514 9.45555
96 1 4 -0.60118 7.59682 3.04037 5.45857
97 1 4 -0.601179 30.1005 16.0329 9.45555
98 1 4 -0.601179 6.43145 5.05885 5.45857
99 1 4 -0.601179 24.6974 16.0329 9.45555
100 1 4 -0.601179 11.8345 5.05885 5.45857
101 1 4 -0.60118 25.8628 18.0514 9.45555
102 1 4 -0.60118 10.6692 3.04037 5.45857
103 1 4 -0.60118 28.9351 14.9319 13.8671
104 1 4 -0.60118 7.59682 6.15984 1.04697
105 1 4 -0.60118 30.1005 14.2591 11.9641
106 1 4 -0.60118 6.43145 6.83267 2.95001
ITEM: TIMESTEP
28000
ITEM: NUMBER OF ATOMS
106
ITEM: BOX BOUNDS xy xz yz pp pp pp
0.0000000000000000e+00 3.6531964750000000e+01 9.1329911900000003e+00
0.0000000000000000e+00 2.1091739680000000e+01 9.1329911900000003e+00
0.0000000000000000e+00 1.4914112149999999e+01 5.2729349200000000e+00
ITEM: ATOMS id mol type q x y z
1 1 1 1.10383 27.399 17.6496 10.5383
2 1 1 1.10383 9.13299 3.44217 4.3758
3 1 1 1.10383 27.399 15.8188 13.1274
4 1 1 1.10383 9.13299 5.27293 1.78671
5 1 1 1.10383 25.8135 14.9034 10.5383
6 1 1 1.10383 10.7185 6.18832 4.3758
7 1 1 1.10383 28.9845 14.9034 10.5383
8 1 1 1.10383 7.5475 6.18832 4.3758
9 1 2 0.115889 18.266 5.48596 12.6084
10 1 2 0.115889 18.266 15.6058 2.30572
11 1 2 0.115888 18.266 13.716 0.969417
12 1 2 0.115888 18.266 7.37578 13.9447
13 1 2 0.11589 25.3934 11.4908 8.12521
14 1 2 0.11589 11.1386 9.60096 6.7889
15 1 2 0.115888 11.1386 11.4908 8.12521
16 1 2 0.115888 25.3934 9.60096 6.7889
17 1 2 0.115889 15.5206 8.96083 0.969417
18 1 2 0.115889 21.0114 12.1309 13.9447
19 1 2 0.115888 22.648 13.0758 12.6084
20 1 2 0.115888 13.884 8.01592 2.30572
21 1 2 0.115889 21.0114 3.90092 8.12521
22 1 2 0.115889 15.5206 17.1908 6.7889
23 1 2 0.115887 13.884 16.2459 8.12521
24 1 2 0.115887 22.648 4.84583 6.7889
25 1 2 0.115889 22.648 16.2459 8.12521
26 1 2 0.115889 13.884 4.84583 6.7889
27 1 2 0.115887 15.5206 3.90092 8.12521
28 1 2 0.115887 21.0114 17.1908 6.7889
29 1 2 0.115889 21.0114 8.96083 0.969417
30 1 2 0.115889 15.5206 12.1309 13.9447
31 1 2 0.115887 13.884 13.0758 12.6084
32 1 2 0.115887 22.648 8.01592 2.30572
33 1 3 0.671939 27.399 18.7442 13.2542
34 1 3 0.671939 9.13299 2.34751 1.65994
35 1 3 0.671939 27.399 12.8934 9.117
36 1 3 0.671939 9.13299 8.19836 5.79712
37 1 3 0.67194 24.8655 14.3561 13.2542
38 1 3 0.67194 11.6665 6.73565 1.65994
39 1 3 0.67194 29.9325 17.2815 9.117
40 1 3 0.67194 6.5995 3.81022 5.79712
41 1 3 0.67194 24.8655 17.2815 9.117
42 1 3 0.67194 11.6665 3.81022 5.79712
43 1 3 0.67194 29.9325 14.3561 13.2542
44 1 3 0.67194 6.5995 6.73565 1.65994
45 1 3 -0.11508 27.399 19.957 14.1117
46 1 3 -0.11508 9.13299 1.13474 0.802379
47 1 3 -0.11508 27.399 11.6806 8.25944
48 1 3 -0.11508 9.13299 9.41113 6.65468
49 1 3 -0.11508 23.8152 13.7497 14.1117
50 1 3 -0.11508 12.7168 7.34203 0.802379
51 1 3 -0.11508 30.9828 17.8879 8.25944
52 1 3 -0.11508 5.54921 3.20384 6.65468
53 1 3 -0.11508 23.8152 17.8879 8.25944
54 1 3 -0.11508 12.7168 3.20384 6.65468
55 1 3 -0.11508 30.9828 13.7497 14.1117
56 1 3 -0.11508 5.54921 7.34203 0.802379
57 1 3 -0.0559 18.266 5.39949 13.5316
58 1 3 -0.0559 18.266 15.6923 1.38254
59 1 3 -0.055903 18.266 14.5575 0.580159
60 1 3 -0.055903 18.266 6.53422 14.334
61 1 3 -0.0559 26.1971 11.1132 7.85825
62 1 3 -0.0559 10.3349 9.9785 7.05587
63 1 3 -0.055903 10.3349 11.1132 7.85825
64 1 3 -0.055903 26.1971 9.9785 7.05587
65 1 3 -0.0559 14.7918 8.54005 0.580159
66 1 3 -0.0559 21.7402 12.5517 14.334
67 1 3 -0.055903 22.7229 13.1191 13.5316
68 1 3 -0.055903 13.8091 7.97268 1.38254
69 1 3 -0.0559 21.7402 3.39366 7.85825
70 1 3 -0.0559 14.7918 17.6981 7.05587
71 1 3 -0.055903 13.8091 17.1307 7.85825
72 1 3 -0.055903 22.7229 3.96103 7.05587
73 1 3 -0.055901 22.7229 17.1307 7.85825
74 1 3 -0.055901 13.8091 3.96103 7.05587
75 1 3 -0.055903 14.7918 3.39366 7.85825
76 1 3 -0.055903 21.7402 17.6981 7.05587
77 1 3 -0.0559 21.7402 8.54005 0.580159
78 1 3 -0.0559 14.7918 12.5517 14.334
79 1 3 -0.055903 13.8091 13.1191 13.5316
80 1 3 -0.055903 22.7229 7.97268 1.38254
81 1 4 -1.26215 27.399 15.8188 11.1856
82 1 4 -1.26215 9.13299 5.27293 3.72853
83 1 4 -0.60118 27.399 18.9383 11.9641
84 1 4 -0.60118 9.13299 2.15347 2.95001
85 1 4 -0.601179 27.399 17.5926 13.8671
86 1 4 -0.601179 9.13299 3.49912 1.04697
87 1 4 -0.601179 26.2336 13.3722 9.45555
88 1 4 -0.601179 10.2984 7.71958 5.45857
89 1 4 -0.60118 28.5643 13.3722 9.45555
90 1 4 -0.60118 7.96762 7.71958 5.45857
91 1 4 -0.60118 25.8628 14.9319 13.8671
92 1 4 -0.60118 10.6692 6.15984 1.04697
93 1 4 -0.601179 24.6974 14.2591 11.9641
94 1 4 -0.601179 11.8345 6.83267 2.95001
95 1 4 -0.60118 28.9351 18.0514 9.45555
96 1 4 -0.60118 7.59682 3.04037 5.45857
97 1 4 -0.601179 30.1005 16.0329 9.45555
98 1 4 -0.601179 6.43145 5.05885 5.45857
99 1 4 -0.601179 24.6974 16.0329 9.45555
100 1 4 -0.601179 11.8345 5.05885 5.45857
101 1 4 -0.60118 25.8628 18.0514 9.45555
102 1 4 -0.60118 10.6692 3.04037 5.45857
103 1 4 -0.60118 28.9351 14.9319 13.8671
104 1 4 -0.60118 7.59682 6.15984 1.04697
105 1 4 -0.60118 30.1005 14.2591 11.9641
106 1 4 -0.60118 6.43145 6.83267 2.95001
ITEM: TIMESTEP
29000
ITEM: NUMBER OF ATOMS
106
ITEM: BOX BOUNDS xy xz yz pp pp pp
0.0000000000000000e+00 3.6531964750000000e+01 9.1329911900000003e+00
0.0000000000000000e+00 2.1091739680000000e+01 9.1329911900000003e+00
0.0000000000000000e+00 1.4914112149999999e+01 5.2729349200000000e+00
ITEM: ATOMS id mol type q x y z
1 1 1 1.10383 27.399 17.6496 10.5383
2 1 1 1.10383 9.13299 3.44217 4.3758
3 1 1 1.10383 27.399 15.8188 13.1274
4 1 1 1.10383 9.13299 5.27293 1.78671
5 1 1 1.10383 25.8135 14.9034 10.5383
6 1 1 1.10383 10.7185 6.18832 4.3758
7 1 1 1.10383 28.9845 14.9034 10.5383
8 1 1 1.10383 7.5475 6.18832 4.3758
9 1 2 0.115889 18.266 5.48596 12.6084
10 1 2 0.115889 18.266 15.6058 2.30572
11 1 2 0.115888 18.266 13.716 0.969417
12 1 2 0.115888 18.266 7.37578 13.9447
13 1 2 0.11589 25.3934 11.4908 8.12521
14 1 2 0.11589 11.1386 9.60096 6.7889
15 1 2 0.115888 11.1386 11.4908 8.12521
16 1 2 0.115888 25.3934 9.60096 6.7889
17 1 2 0.115889 15.5206 8.96083 0.969417
18 1 2 0.115889 21.0114 12.1309 13.9447
19 1 2 0.115888 22.648 13.0758 12.6084
20 1 2 0.115888 13.884 8.01592 2.30572
21 1 2 0.115889 21.0114 3.90092 8.12521
22 1 2 0.115889 15.5206 17.1908 6.7889
23 1 2 0.115887 13.884 16.2459 8.12521
24 1 2 0.115887 22.648 4.84583 6.7889
25 1 2 0.115889 22.648 16.2459 8.12521
26 1 2 0.115889 13.884 4.84583 6.7889
27 1 2 0.115887 15.5206 3.90092 8.12521
28 1 2 0.115887 21.0114 17.1908 6.7889
29 1 2 0.115889 21.0114 8.96083 0.969417
30 1 2 0.115889 15.5206 12.1309 13.9447
31 1 2 0.115887 13.884 13.0758 12.6084
32 1 2 0.115887 22.648 8.01592 2.30572
33 1 3 0.671939 27.399 18.7442 13.2542
34 1 3 0.671939 9.13299 2.34751 1.65994
35 1 3 0.671939 27.399 12.8934 9.117
36 1 3 0.671939 9.13299 8.19836 5.79712
37 1 3 0.67194 24.8655 14.3561 13.2542
38 1 3 0.67194 11.6665 6.73565 1.65994
39 1 3 0.67194 29.9325 17.2815 9.117
40 1 3 0.67194 6.5995 3.81022 5.79712
41 1 3 0.67194 24.8655 17.2815 9.117
42 1 3 0.67194 11.6665 3.81022 5.79712
43 1 3 0.67194 29.9325 14.3561 13.2542
44 1 3 0.67194 6.5995 6.73565 1.65994
45 1 3 -0.11508 27.399 19.957 14.1117
46 1 3 -0.11508 9.13299 1.13474 0.802379
47 1 3 -0.11508 27.399 11.6806 8.25944
48 1 3 -0.11508 9.13299 9.41113 6.65468
49 1 3 -0.11508 23.8152 13.7497 14.1117
50 1 3 -0.11508 12.7168 7.34203 0.802379
51 1 3 -0.11508 30.9828 17.8879 8.25944
52 1 3 -0.11508 5.54921 3.20384 6.65468
53 1 3 -0.11508 23.8152 17.8879 8.25944
54 1 3 -0.11508 12.7168 3.20384 6.65468
55 1 3 -0.11508 30.9828 13.7497 14.1117
56 1 3 -0.11508 5.54921 7.34203 0.802379
57 1 3 -0.0559 18.266 5.39949 13.5316
58 1 3 -0.0559 18.266 15.6923 1.38254
59 1 3 -0.055903 18.266 14.5575 0.580159
60 1 3 -0.055903 18.266 6.53422 14.334
61 1 3 -0.0559 26.1971 11.1132 7.85825
62 1 3 -0.0559 10.3349 9.9785 7.05587
63 1 3 -0.055903 10.3349 11.1132 7.85825
64 1 3 -0.055903 26.1971 9.9785 7.05587
65 1 3 -0.0559 14.7918 8.54005 0.580159
66 1 3 -0.0559 21.7402 12.5517 14.334
67 1 3 -0.055903 22.7229 13.1191 13.5316
68 1 3 -0.055903 13.8091 7.97268 1.38254
69 1 3 -0.0559 21.7402 3.39366 7.85825
70 1 3 -0.0559 14.7918 17.6981 7.05587
71 1 3 -0.055903 13.8091 17.1307 7.85825
72 1 3 -0.055903 22.7229 3.96103 7.05587
73 1 3 -0.055901 22.7229 17.1307 7.85825
74 1 3 -0.055901 13.8091 3.96103 7.05587
75 1 3 -0.055903 14.7918 3.39366 7.85825
76 1 3 -0.055903 21.7402 17.6981 7.05587
77 1 3 -0.0559 21.7402 8.54005 0.580159
78 1 3 -0.0559 14.7918 12.5517 14.334
79 1 3 -0.055903 13.8091 13.1191 13.5316
80 1 3 -0.055903 22.7229 7.97268 1.38254
81 1 4 -1.26215 27.399 15.8188 11.1856
82 1 4 -1.26215 9.13299 5.27293 3.72853
83 1 4 -0.60118 27.399 18.9383 11.9641
84 1 4 -0.60118 9.13299 2.15347 2.95001
85 1 4 -0.601179 27.399 17.5926 13.8671
86 1 4 -0.601179 9.13299 3.49912 1.04697
87 1 4 -0.601179 26.2336 13.3722 9.45555
88 1 4 -0.601179 10.2984 7.71958 5.45857
89 1 4 -0.60118 28.5643 13.3722 9.45555
90 1 4 -0.60118 7.96762 7.71958 5.45857
91 1 4 -0.60118 25.8628 14.9319 13.8671
92 1 4 -0.60118 10.6692 6.15984 1.04697
93 1 4 -0.601179 24.6974 14.2591 11.9641
94 1 4 -0.601179 11.8345 6.83267 2.95001
95 1 4 -0.60118 28.9351 18.0514 9.45555
96 1 4 -0.60118 7.59682 3.04037 5.45857
97 1 4 -0.601179 30.1005 16.0329 9.45555
98 1 4 -0.601179 6.43145 5.05885 5.45857
99 1 4 -0.601179 24.6974 16.0329 9.45555
100 1 4 -0.601179 11.8345 5.05885 5.45857
101 1 4 -0.60118 25.8628 18.0514 9.45555
102 1 4 -0.60118 10.6692 3.04037 5.45857
103 1 4 -0.60118 28.9351 14.9319 13.8671
104 1 4 -0.60118 7.59682 6.15984 1.04697
105 1 4 -0.60118 30.1005 14.2591 11.9641
106 1 4 -0.60118 6.43145 6.83267 2.95001
ITEM: TIMESTEP
30000
ITEM: NUMBER OF ATOMS
106
ITEM: BOX BOUNDS xy xz yz pp pp pp
0.0000000000000000e+00 3.6531964750000000e+01 9.1329911900000003e+00
0.0000000000000000e+00 2.1091739680000000e+01 9.1329911900000003e+00
0.0000000000000000e+00 1.4914112149999999e+01 5.2729349200000000e+00
ITEM: ATOMS id mol type q x y z
1 1 1 1.10383 27.399 17.6496 10.5383
2 1 1 1.10383 9.13299 3.44217 4.3758
3 1 1 1.10383 27.399 15.8188 13.1274
4 1 1 1.10383 9.13299 5.27293 1.78671
5 1 1 1.10383 25.8135 14.9034 10.5383
6 1 1 1.10383 10.7185 6.18832 4.3758
7 1 1 1.10383 28.9845 14.9034 10.5383
8 1 1 1.10383 7.5475 6.18832 4.3758
9 1 2 0.115889 18.266 5.48596 12.6084
10 1 2 0.115889 18.266 15.6058 2.30572
11 1 2 0.115888 18.266 13.716 0.969417
12 1 2 0.115888 18.266 7.37578 13.9447
13 1 2 0.11589 25.3934 11.4908 8.12521
14 1 2 0.11589 11.1386 9.60096 6.7889
15 1 2 0.115888 11.1386 11.4908 8.12521
16 1 2 0.115888 25.3934 9.60096 6.7889
17 1 2 0.115889 15.5206 8.96083 0.969417
18 1 2 0.115889 21.0114 12.1309 13.9447
19 1 2 0.115888 22.648 13.0758 12.6084
20 1 2 0.115888 13.884 8.01592 2.30572
21 1 2 0.115889 21.0114 3.90092 8.12521
22 1 2 0.115889 15.5206 17.1908 6.7889
23 1 2 0.115887 13.884 16.2459 8.12521
24 1 2 0.115887 22.648 4.84583 6.7889
25 1 2 0.115889 22.648 16.2459 8.12521
26 1 2 0.115889 13.884 4.84583 6.7889
27 1 2 0.115887 15.5206 3.90092 8.12521
28 1 2 0.115887 21.0114 17.1908 6.7889
29 1 2 0.115889 21.0114 8.96083 0.969417
30 1 2 0.115889 15.5206 12.1309 13.9447
31 1 2 0.115887 13.884 13.0758 12.6084
32 1 2 0.115887 22.648 8.01592 2.30572
33 1 3 0.671939 27.399 18.7442 13.2542
34 1 3 0.671939 9.13299 2.34751 1.65994
35 1 3 0.671939 27.399 12.8934 9.117
36 1 3 0.671939 9.13299 8.19836 5.79712
37 1 3 0.67194 24.8655 14.3561 13.2542
38 1 3 0.67194 11.6665 6.73565 1.65994
39 1 3 0.67194 29.9325 17.2815 9.117
40 1 3 0.67194 6.5995 3.81022 5.79712
41 1 3 0.67194 24.8655 17.2815 9.117
42 1 3 0.67194 11.6665 3.81022 5.79712
43 1 3 0.67194 29.9325 14.3561 13.2542
44 1 3 0.67194 6.5995 6.73565 1.65994
45 1 3 -0.11508 27.399 19.957 14.1117
46 1 3 -0.11508 9.13299 1.13474 0.802379
47 1 3 -0.11508 27.399 11.6806 8.25944
48 1 3 -0.11508 9.13299 9.41113 6.65468
49 1 3 -0.11508 23.8152 13.7497 14.1117
50 1 3 -0.11508 12.7168 7.34203 0.802379
51 1 3 -0.11508 30.9828 17.8879 8.25944
52 1 3 -0.11508 5.54921 3.20384 6.65468
53 1 3 -0.11508 23.8152 17.8879 8.25944
54 1 3 -0.11508 12.7168 3.20384 6.65468
55 1 3 -0.11508 30.9828 13.7497 14.1117
56 1 3 -0.11508 5.54921 7.34203 0.802379
57 1 3 -0.0559 18.266 5.39949 13.5316
58 1 3 -0.0559 18.266 15.6923 1.38254
59 1 3 -0.055903 18.266 14.5575 0.580159
60 1 3 -0.055903 18.266 6.53422 14.334
61 1 3 -0.0559 26.1971 11.1132 7.85825
62 1 3 -0.0559 10.3349 9.9785 7.05587
63 1 3 -0.055903 10.3349 11.1132 7.85825
64 1 3 -0.055903 26.1971 9.9785 7.05587
65 1 3 -0.0559 14.7918 8.54005 0.580159
66 1 3 -0.0559 21.7402 12.5517 14.334
67 1 3 -0.055903 22.7229 13.1191 13.5316
68 1 3 -0.055903 13.8091 7.97268 1.38254
69 1 3 -0.0559 21.7402 3.39366 7.85825
70 1 3 -0.0559 14.7918 17.6981 7.05587
71 1 3 -0.055903 13.8091 17.1307 7.85825
72 1 3 -0.055903 22.7229 3.96103 7.05587
73 1 3 -0.055901 22.7229 17.1307 7.85825
74 1 3 -0.055901 13.8091 3.96103 7.05587
75 1 3 -0.055903 14.7918 3.39366 7.85825
76 1 3 -0.055903 21.7402 17.6981 7.05587
77 1 3 -0.0559 21.7402 8.54005 0.580159
78 1 3 -0.0559 14.7918 12.5517 14.334
79 1 3 -0.055903 13.8091 13.1191 13.5316
80 1 3 -0.055903 22.7229 7.97268 1.38254
81 1 4 -1.26215 27.399 15.8188 11.1856
82 1 4 -1.26215 9.13299 5.27293 3.72853
83 1 4 -0.60118 27.399 18.9383 11.9641
84 1 4 -0.60118 9.13299 2.15347 2.95001
85 1 4 -0.601179 27.399 17.5926 13.8671
86 1 4 -0.601179 9.13299 3.49912 1.04697
87 1 4 -0.601179 26.2336 13.3722 9.45555
88 1 4 -0.601179 10.2984 7.71958 5.45857
89 1 4 -0.60118 28.5643 13.3722 9.45555
90 1 4 -0.60118 7.96762 7.71958 5.45857
91 1 4 -0.60118 25.8628 14.9319 13.8671
92 1 4 -0.60118 10.6692 6.15984 1.04697
93 1 4 -0.601179 24.6974 14.2591 11.9641
94 1 4 -0.601179 11.8345 6.83267 2.95001
95 1 4 -0.60118 28.9351 18.0514 9.45555
96 1 4 -0.60118 7.59682 3.04037 5.45857
97 1 4 -0.601179 30.1005 16.0329 9.45555
98 1 4 -0.601179 6.43145 5.05885 5.45857
99 1 4 -0.601179 24.6974 16.0329 9.45555
100 1 4 -0.601179 11.8345 5.05885 5.45857
101 1 4 -0.60118 25.8628 18.0514 9.45555
102 1 4 -0.60118 10.6692 3.04037 5.45857
103 1 4 -0.60118 28.9351 14.9319 13.8671
104 1 4 -0.60118 7.59682 6.15984 1.04697
105 1 4 -0.60118 30.1005 14.2591 11.9641
106 1 4 -0.60118 6.43145 6.83267 2.95001
ITEM: TIMESTEP
31000
ITEM: NUMBER OF ATOMS
106
ITEM: BOX BOUNDS xy xz yz pp pp pp
0.0000000000000000e+00 3.6531964750000000e+01 9.1329911900000003e+00
0.0000000000000000e+00 2.1091739680000000e+01 9.1329911900000003e+00
0.0000000000000000e+00 1.4914112149999999e+01 5.2729349200000000e+00
ITEM: ATOMS id mol type q x y z
1 1 1 1.10383 27.399 17.6496 10.5383
2 1 1 1.10383 9.13299 3.44217 4.3758
3 1 1 1.10383 27.399 15.8188 13.1274
4 1 1 1.10383 9.13299 5.27293 1.78671
5 1 1 1.10383 25.8135 14.9034 10.5383
6 1 1 1.10383 10.7185 6.18832 4.3758
7 1 1 1.10383 28.9845 14.9034 10.5383
8 1 1 1.10383 7.5475 6.18832 4.3758
9 1 2 0.115889 18.266 5.48596 12.6084
10 1 2 0.115889 18.266 15.6058 2.30572
11 1 2 0.115888 18.266 13.716 0.969417
12 1 2 0.115888 18.266 7.37578 13.9447
13 1 2 0.11589 25.3934 11.4908 8.12521
14 1 2 0.11589 11.1386 9.60096 6.7889
15 1 2 0.115888 11.1386 11.4908 8.12521
16 1 2 0.115888 25.3934 9.60096 6.7889
17 1 2 0.115889 15.5206 8.96083 0.969417
18 1 2 0.115889 21.0114 12.1309 13.9447
19 1 2 0.115888 22.648 13.0758 12.6084
20 1 2 0.115888 13.884 8.01592 2.30572
21 1 2 0.115889 21.0114 3.90092 8.12521
22 1 2 0.115889 15.5206 17.1908 6.7889
23 1 2 0.115887 13.884 16.2459 8.12521
24 1 2 0.115887 22.648 4.84583 6.7889
25 1 2 0.115889 22.648 16.2459 8.12521
26 1 2 0.115889 13.884 4.84583 6.7889
27 1 2 0.115887 15.5206 3.90092 8.12521
28 1 2 0.115887 21.0114 17.1908 6.7889
29 1 2 0.115889 21.0114 8.96083 0.969417
30 1 2 0.115889 15.5206 12.1309 13.9447
31 1 2 0.115887 13.884 13.0758 12.6084
32 1 2 0.115887 22.648 8.01592 2.30572
33 1 3 0.671939 27.399 18.7442 13.2542
34 1 3 0.671939 9.13299 2.34751 1.65994
35 1 3 0.671939 27.399 12.8934 9.117
36 1 3 0.671939 9.13299 8.19836 5.79712
37 1 3 0.67194 24.8655 14.3561 13.2542
38 1 3 0.67194 11.6665 6.73565 1.65994
39 1 3 0.67194 29.9325 17.2815 9.117
40 1 3 0.67194 6.5995 3.81022 5.79712
41 1 3 0.67194 24.8655 17.2815 9.117
42 1 3 0.67194 11.6665 3.81022 5.79712
43 1 3 0.67194 29.9325 14.3561 13.2542
44 1 3 0.67194 6.5995 6.73565 1.65994
45 1 3 -0.11508 27.399 19.957 14.1117
46 1 3 -0.11508 9.13299 1.13474 0.802379
47 1 3 -0.11508 27.399 11.6806 8.25944
48 1 3 -0.11508 9.13299 9.41113 6.65468
49 1 3 -0.11508 23.8152 13.7497 14.1117
50 1 3 -0.11508 12.7168 7.34203 0.802379
51 1 3 -0.11508 30.9828 17.8879 8.25944
52 1 3 -0.11508 5.54921 3.20384 6.65468
53 1 3 -0.11508 23.8152 17.8879 8.25944
54 1 3 -0.11508 12.7168 3.20384 6.65468
55 1 3 -0.11508 30.9828 13.7497 14.1117
56 1 3 -0.11508 5.54921 7.34203 0.802379
57 1 3 -0.0559 18.266 5.39949 13.5316
58 1 3 -0.0559 18.266 15.6923 1.38254
59 1 3 -0.055903 18.266 14.5575 0.580159
60 1 3 -0.055903 18.266 6.53422 14.334
61 1 3 -0.0559 26.1971 11.1132 7.85825
62 1 3 -0.0559 10.3349 9.9785 7.05587
63 1 3 -0.055903 10.3349 11.1132 7.85825
64 1 3 -0.055903 26.1971 9.9785 7.05587
65 1 3 -0.0559 14.7918 8.54005 0.580159
66 1 3 -0.0559 21.7402 12.5517 14.334
67 1 3 -0.055903 22.7229 13.1191 13.5316
68 1 3 -0.055903 13.8091 7.97268 1.38254
69 1 3 -0.0559 21.7402 3.39366 7.85825
70 1 3 -0.0559 14.7918 17.6981 7.05587
71 1 3 -0.055903 13.8091 17.1307 7.85825
72 1 3 -0.055903 22.7229 3.96103 7.05587
73 1 3 -0.055901 22.7229 17.1307 7.85825
74 1 3 -0.055901 13.8091 3.96103 7.05587
75 1 3 -0.055903 14.7918 3.39366 7.85825
76 1 3 -0.055903 21.7402 17.6981 7.05587
77 1 3 -0.0559 21.7402 8.54005 0.580159
78 1 3 -0.0559 14.7918 12.5517 14.334
79 1 3 -0.055903 13.8091 13.1191 13.5316
80 1 3 -0.055903 22.7229 7.97268 1.38254
81 1 4 -1.26215 27.399 15.8188 11.1856
82 1 4 -1.26215 9.13299 5.27293 3.72853
83 1 4 -0.60118 27.399 18.9383 11.9641
84 1 4 -0.60118 9.13299 2.15347 2.95001
85 1 4 -0.601179 27.399 17.5926 13.8671
86 1 4 -0.601179 9.13299 3.49912 1.04697
87 1 4 -0.601179 26.2336 13.3722 9.45555
88 1 4 -0.601179 10.2984 7.71958 5.45857
89 1 4 -0.60118 28.5643 13.3722 9.45555
90 1 4 -0.60118 7.96762 7.71958 5.45857
91 1 4 -0.60118 25.8628 14.9319 13.8671
92 1 4 -0.60118 10.6692 6.15984 1.04697
93 1 4 -0.601179 24.6974 14.2591 11.9641
94 1 4 -0.601179 11.8345 6.83267 2.95001
95 1 4 -0.60118 28.9351 18.0514 9.45555
96 1 4 -0.60118 7.59682 3.04037 5.45857
97 1 4 -0.601179 30.1005 16.0329 9.45555
98 1 4 -0.601179 6.43145 5.05885 5.45857
99 1 4 -0.601179 24.6974 16.0329 9.45555
100 1 4 -0.601179 11.8345 5.05885 5.45857
101 1 4 -0.60118 25.8628 18.0514 9.45555
102 1 4 -0.60118 10.6692 3.04037 5.45857
103 1 4 -0.60118 28.9351 14.9319 13.8671
104 1 4 -0.60118 7.59682 6.15984 1.04697
105 1 4 -0.60118 30.1005 14.2591 11.9641
106 1 4 -0.60118 6.43145 6.83267 2.95001
ITEM: TIMESTEP
32000
ITEM: NUMBER OF ATOMS
106
ITEM: BOX BOUNDS xy xz yz pp pp pp
0.0000000000000000e+00 3.6531964750000000e+01 9.1329911900000003e+00
0.0000000000000000e+00 2.1091739680000000e+01 9.1329911900000003e+00
0.0000000000000000e+00 1.4914112149999999e+01 5.2729349200000000e+00
ITEM: ATOMS id mol type q x y z
1 1 1 1.10383 27.399 17.6496 10.5383
2 1 1 1.10383 9.13299 3.44217 4.3758
3 1 1 1.10383 27.399 15.8188 13.1274
4 1 1 1.10383 9.13299 5.27293 1.78671
5 1 1 1.10383 25.8135 14.9034 10.5383
6 1 1 1.10383 10.7185 6.18832 4.3758
7 1 1 1.10383 28.9845 14.9034 10.5383
8 1 1 1.10383 7.5475 6.18832 4.3758
9 1 2 0.115889 18.266 5.48596 12.6084
10 1 2 0.115889 18.266 15.6058 2.30572
11 1 2 0.115888 18.266 13.716 0.969417
12 1 2 0.115888 18.266 7.37578 13.9447
13 1 2 0.11589 25.3934 11.4908 8.12521
14 1 2 0.11589 11.1386 9.60096 6.7889
15 1 2 0.115888 11.1386 11.4908 8.12521
16 1 2 0.115888 25.3934 9.60096 6.7889
17 1 2 0.115889 15.5206 8.96083 0.969417
18 1 2 0.115889 21.0114 12.1309 13.9447
19 1 2 0.115888 22.648 13.0758 12.6084
20 1 2 0.115888 13.884 8.01592 2.30572
21 1 2 0.115889 21.0114 3.90092 8.12521
22 1 2 0.115889 15.5206 17.1908 6.7889
23 1 2 0.115887 13.884 16.2459 8.12521
24 1 2 0.115887 22.648 4.84583 6.7889
25 1 2 0.115889 22.648 16.2459 8.12521
26 1 2 0.115889 13.884 4.84583 6.7889
27 1 2 0.115887 15.5206 3.90092 8.12521
28 1 2 0.115887 21.0114 17.1908 6.7889
29 1 2 0.115889 21.0114 8.96083 0.969417
30 1 2 0.115889 15.5206 12.1309 13.9447
31 1 2 0.115887 13.884 13.0758 12.6084
32 1 2 0.115887 22.648 8.01592 2.30572
33 1 3 0.671939 27.399 18.7442 13.2542
34 1 3 0.671939 9.13299 2.34751 1.65994
35 1 3 0.671939 27.399 12.8934 9.117
36 1 3 0.671939 9.13299 8.19836 5.79712
37 1 3 0.67194 24.8655 14.3561 13.2542
38 1 3 0.67194 11.6665 6.73565 1.65994
39 1 3 0.67194 29.9325 17.2815 9.117
40 1 3 0.67194 6.5995 3.81022 5.79712
41 1 3 0.67194 24.8655 17.2815 9.117
42 1 3 0.67194 11.6665 3.81022 5.79712
43 1 3 0.67194 29.9325 14.3561 13.2542
44 1 3 0.67194 6.5995 6.73565 1.65994
45 1 3 -0.11508 27.399 19.957 14.1117
46 1 3 -0.11508 9.13299 1.13474 0.802379
47 1 3 -0.11508 27.399 11.6806 8.25944
48 1 3 -0.11508 9.13299 9.41113 6.65468
49 1 3 -0.11508 23.8152 13.7497 14.1117
50 1 3 -0.11508 12.7168 7.34203 0.802379
51 1 3 -0.11508 30.9828 17.8879 8.25944
52 1 3 -0.11508 5.54921 3.20384 6.65468
53 1 3 -0.11508 23.8152 17.8879 8.25944
54 1 3 -0.11508 12.7168 3.20384 6.65468
55 1 3 -0.11508 30.9828 13.7497 14.1117
56 1 3 -0.11508 5.54921 7.34203 0.802379
57 1 3 -0.0559 18.266 5.39949 13.5316
58 1 3 -0.0559 18.266 15.6923 1.38254
59 1 3 -0.055903 18.266 14.5575 0.580159
60 1 3 -0.055903 18.266 6.53422 14.334
61 1 3 -0.0559 26.1971 11.1132 7.85825
62 1 3 -0.0559 10.3349 9.9785 7.05587
63 1 3 -0.055903 10.3349 11.1132 7.85825
64 1 3 -0.055903 26.1971 9.9785 7.05587
65 1 3 -0.0559 14.7918 8.54005 0.580159
66 1 3 -0.0559 21.7402 12.5517 14.334
67 1 3 -0.055903 22.7229 13.1191 13.5316
68 1 3 -0.055903 13.8091 7.97268 1.38254
69 1 3 -0.0559 21.7402 3.39366 7.85825
70 1 3 -0.0559 14.7918 17.6981 7.05587
71 1 3 -0.055903 13.8091 17.1307 7.85825
72 1 3 -0.055903 22.7229 3.96103 7.05587
73 1 3 -0.055901 22.7229 17.1307 7.85825
74 1 3 -0.055901 13.8091 3.96103 7.05587
75 1 3 -0.055903 14.7918 3.39366 7.85825
76 1 3 -0.055903 21.7402 17.6981 7.05587
77 1 3 -0.0559 21.7402 8.54005 0.580159
78 1 3 -0.0559 14.7918 12.5517 14.334
79 1 3 -0.055903 13.8091 13.1191 13.5316
80 1 3 -0.055903 22.7229 7.97268 1.38254
81 1 4 -1.26215 27.399 15.8188 11.1856
82 1 4 -1.26215 9.13299 5.27293 3.72853
83 1 4 -0.60118 27.399 18.9383 11.9641
84 1 4 -0.60118 9.13299 2.15347 2.95001
85 1 4 -0.601179 27.399 17.5926 13.8671
86 1 4 -0.601179 9.13299 3.49912 1.04697
87 1 4 -0.601179 26.2336 13.3722 9.45555
88 1 4 -0.601179 10.2984 7.71958 5.45857
89 1 4 -0.60118 28.5643 13.3722 9.45555
90 1 4 -0.60118 7.96762 7.71958 5.45857
91 1 4 -0.60118 25.8628 14.9319 13.8671
92 1 4 -0.60118 10.6692 6.15984 1.04697
93 1 4 -0.601179 24.6974 14.2591 11.9641
94 1 4 -0.601179 11.8345 6.83267 2.95001
95 1 4 -0.60118 28.9351 18.0514 9.45555
96 1 4 -0.60118 7.59682 3.04037 5.45857
97 1 4 -0.601179 30.1005 16.0329 9.45555
98 1 4 -0.601179 6.43145 5.05885 5.45857
99 1 4 -0.601179 24.6974 16.0329 9.45555
100 1 4 -0.601179 11.8345 5.05885 5.45857
101 1 4 -0.60118 25.8628 18.0514 9.45555
102 1 4 -0.60118 10.6692 3.04037 5.45857
103 1 4 -0.60118 28.9351 14.9319 13.8671
104 1 4 -0.60118 7.59682 6.15984 1.04697
105 1 4 -0.60118 30.1005 14.2591 11.9641
106 1 4 -0.60118 6.43145 6.83267 2.95001
ITEM: TIMESTEP
33000
ITEM: NUMBER OF ATOMS
106
ITEM: BOX BOUNDS xy xz yz pp pp pp
0.0000000000000000e+00 3.6531964750000000e+01 9.1329911900000003e+00
0.0000000000000000e+00 2.1091739680000000e+01 9.1329911900000003e+00
0.0000000000000000e+00 1.4914112149999999e+01 5.2729349200000000e+00
ITEM: ATOMS id mol type q x y z
1 1 1 1.10383 27.399 17.6496 10.5383
2 1 1 1.10383 9.13299 3.44217 4.3758
3 1 1 1.10383 27.399 15.8188 13.1274
4 1 1 1.10383 9.13299 5.27293 1.78671
5 1 1 1.10383 25.8135 14.9034 10.5383
6 1 1 1.10383 10.7185 6.18832 4.3758
7 1 1 1.10383 28.9845 14.9034 10.5383
8 1 1 1.10383 7.5475 6.18832 4.3758
9 1 2 0.115889 18.266 5.48596 12.6084
10 1 2 0.115889 18.266 15.6058 2.30572
11 1 2 0.115888 18.266 13.716 0.969417
12 1 2 0.115888 18.266 7.37578 13.9447
13 1 2 0.11589 25.3934 11.4908 8.12521
14 1 2 0.11589 11.1386 9.60096 6.7889
15 1 2 0.115888 11.1386 11.4908 8.12521
16 1 2 0.115888 25.3934 9.60096 6.7889
17 1 2 0.115889 15.5206 8.96083 0.969417
18 1 2 0.115889 21.0114 12.1309 13.9447
19 1 2 0.115888 22.648 13.0758 12.6084
20 1 2 0.115888 13.884 8.01592 2.30572
21 1 2 0.115889 21.0114 3.90092 8.12521
22 1 2 0.115889 15.5206 17.1908 6.7889
23 1 2 0.115887 13.884 16.2459 8.12521
24 1 2 0.115887 22.648 4.84583 6.7889
25 1 2 0.115889 22.648 16.2459 8.12521
26 1 2 0.115889 13.884 4.84583 6.7889
27 1 2 0.115887 15.5206 3.90092 8.12521
28 1 2 0.115887 21.0114 17.1908 6.7889
29 1 2 0.115889 21.0114 8.96083 0.969417
30 1 2 0.115889 15.5206 12.1309 13.9447
31 1 2 0.115887 13.884 13.0758 12.6084
32 1 2 0.115887 22.648 8.01592 2.30572
33 1 3 0.671939 27.399 18.7442 13.2542
34 1 3 0.671939 9.13299 2.34751 1.65994
35 1 3 0.671939 27.399 12.8934 9.117
36 1 3 0.671939 9.13299 8.19836 5.79712
37 1 3 0.67194 24.8655 14.3561 13.2542
38 1 3 0.67194 11.6665 6.73565 1.65994
39 1 3 0.67194 29.9325 17.2815 9.117
40 1 3 0.67194 6.5995 3.81022 5.79712
41 1 3 0.67194 24.8655 17.2815 9.117
42 1 3 0.67194 11.6665 3.81022 5.79712
43 1 3 0.67194 29.9325 14.3561 13.2542
44 1 3 0.67194 6.5995 6.73565 1.65994
45 1 3 -0.11508 27.399 19.957 14.1117
46 1 3 -0.11508 9.13299 1.13474 0.802379
47 1 3 -0.11508 27.399 11.6806 8.25944
48 1 3 -0.11508 9.13299 9.41113 6.65468
49 1 3 -0.11508 23.8152 13.7497 14.1117
50 1 3 -0.11508 12.7168 7.34203 0.802379
51 1 3 -0.11508 30.9828 17.8879 8.25944
52 1 3 -0.11508 5.54921 3.20384 6.65468
53 1 3 -0.11508 23.8152 17.8879 8.25944
54 1 3 -0.11508 12.7168 3.20384 6.65468
55 1 3 -0.11508 30.9828 13.7497 14.1117
56 1 3 -0.11508 5.54921 7.34203 0.802379
57 1 3 -0.0559 18.266 5.39949 13.5316
58 1 3 -0.0559 18.266 15.6923 1.38254
59 1 3 -0.055903 18.266 14.5575 0.580159
60 1 3 -0.055903 18.266 6.53422 14.334
61 1 3 -0.0559 26.1971 11.1132 7.85825
62 1 3 -0.0559 10.3349 9.9785 7.05587
63 1 3 -0.055903 10.3349 11.1132 7.85825
64 1 3 -0.055903 26.1971 9.9785 7.05587
65 1 3 -0.0559 14.7918 8.54005 0.580159
66 1 3 -0.0559 21.7402 12.5517 14.334
67 1 3 -0.055903 22.7229 13.1191 13.5316
68 1 3 -0.055903 13.8091 7.97268 1.38254
69 1 3 -0.0559 21.7402 3.39366 7.85825
70 1 3 -0.0559 14.7918 17.6981 7.05587
71 1 3 -0.055903 13.8091 17.1307 7.85825
72 1 3 -0.055903 22.7229 3.96103 7.05587
73 1 3 -0.055901 22.7229 17.1307 7.85825
74 1 3 -0.055901 13.8091 3.96103 7.05587
75 1 3 -0.055903 14.7918 3.39366 7.85825
76 1 3 -0.055903 21.7402 17.6981 7.05587
77 1 3 -0.0559 21.7402 8.54005 0.580159
78 1 3 -0.0559 14.7918 12.5517 14.334
79 1 3 -0.055903 13.8091 13.1191 13.5316
80 1 3 -0.055903 22.7229 7.97268 1.38254
81 1 4 -1.26215 27.399 15.8188 11.1856
82 1 4 -1.26215 9.13299 5.27293 3.72853
83 1 4 -0.60118 27.399 18.9383 11.9641
84 1 4 -0.60118 9.13299 2.15347 2.95001
85 1 4 -0.601179 27.399 17.5926 13.8671
86 1 4 -0.601179 9.13299 3.49912 1.04697
87 1 4 -0.601179 26.2336 13.3722 9.45555
88 1 4 -0.601179 10.2984 7.71958 5.45857
89 1 4 -0.60118 28.5643 13.3722 9.45555
90 1 4 -0.60118 7.96762 7.71958 5.45857
91 1 4 -0.60118 25.8628 14.9319 13.8671
92 1 4 -0.60118 10.6692 6.15984 1.04697
93 1 4 -0.601179 24.6974 14.2591 11.9641
94 1 4 -0.601179 11.8345 6.83267 2.95001
95 1 4 -0.60118 28.9351 18.0514 9.45555
96 1 4 -0.60118 7.59682 3.04037 5.45857
97 1 4 -0.601179 30.1005 16.0329 9.45555
98 1 4 -0.601179 6.43145 5.05885 5.45857
99 1 4 -0.601179 24.6974 16.0329 9.45555
100 1 4 -0.601179 11.8345 5.05885 5.45857
101 1 4 -0.60118 25.8628 18.0514 9.45555
102 1 4 -0.60118 10.6692 3.04037 5.45857
103 1 4 -0.60118 28.9351 14.9319 13.8671
104 1 4 -0.60118 7.59682 6.15984 1.04697
105 1 4 -0.60118 30.1005 14.2591 11.9641
106 1 4 -0.60118 6.43145 6.83267 2.95001
ITEM: TIMESTEP
34000
ITEM: NUMBER OF ATOMS
106
ITEM: BOX BOUNDS xy xz yz pp pp pp
0.0000000000000000e+00 3.6531964750000000e+01 9.1329911900000003e+00
0.0000000000000000e+00 2.1091739680000000e+01 9.1329911900000003e+00
0.0000000000000000e+00 1.4914112149999999e+01 5.2729349200000000e+00
ITEM: ATOMS id mol type q x y z
1 1 1 1.10383 27.399 17.6496 10.5383
2 1 1 1.10383 9.13299 3.44217 4.3758
3 1 1 1.10383 27.399 15.8188 13.1274
4 1 1 1.10383 9.13299 5.27293 1.78671
5 1 1 1.10383 25.8135 14.9034 10.5383
6 1 1 1.10383 10.7185 6.18832 4.3758
7 1 1 1.10383 28.9845 14.9034 10.5383
8 1 1 1.10383 7.5475 6.18832 4.3758
9 1 2 0.115889 18.266 5.48596 12.6084
10 1 2 0.115889 18.266 15.6058 2.30572
11 1 2 0.115888 18.266 13.716 0.969417
12 1 2 0.115888 18.266 7.37578 13.9447
13 1 2 0.11589 25.3934 11.4908 8.12521
14 1 2 0.11589 11.1386 9.60096 6.7889
15 1 2 0.115888 11.1386 11.4908 8.12521
16 1 2 0.115888 25.3934 9.60096 6.7889
17 1 2 0.115889 15.5206 8.96083 0.969417
18 1 2 0.115889 21.0114 12.1309 13.9447
19 1 2 0.115888 22.648 13.0758 12.6084
20 1 2 0.115888 13.884 8.01592 2.30572
21 1 2 0.115889 21.0114 3.90092 8.12521
22 1 2 0.115889 15.5206 17.1908 6.7889
23 1 2 0.115887 13.884 16.2459 8.12521
24 1 2 0.115887 22.648 4.84583 6.7889
25 1 2 0.115889 22.648 16.2459 8.12521
26 1 2 0.115889 13.884 4.84583 6.7889
27 1 2 0.115887 15.5206 3.90092 8.12521
28 1 2 0.115887 21.0114 17.1908 6.7889
29 1 2 0.115889 21.0114 8.96083 0.969417
30 1 2 0.115889 15.5206 12.1309 13.9447
31 1 2 0.115887 13.884 13.0758 12.6084
32 1 2 0.115887 22.648 8.01592 2.30572
33 1 3 0.671939 27.399 18.7442 13.2542
34 1 3 0.671939 9.13299 2.34751 1.65994
35 1 3 0.671939 27.399 12.8934 9.117
36 1 3 0.671939 9.13299 8.19836 5.79712
37 1 3 0.67194 24.8655 14.3561 13.2542
38 1 3 0.67194 11.6665 6.73565 1.65994
39 1 3 0.67194 29.9325 17.2815 9.117
40 1 3 0.67194 6.5995 3.81022 5.79712
41 1 3 0.67194 24.8655 17.2815 9.117
42 1 3 0.67194 11.6665 3.81022 5.79712
43 1 3 0.67194 29.9325 14.3561 13.2542
44 1 3 0.67194 6.5995 6.73565 1.65994
45 1 3 -0.11508 27.399 19.957 14.1117
46 1 3 -0.11508 9.13299 1.13474 0.802379
47 1 3 -0.11508 27.399 11.6806 8.25944
48 1 3 -0.11508 9.13299 9.41113 6.65468
49 1 3 -0.11508 23.8152 13.7497 14.1117
50 1 3 -0.11508 12.7168 7.34203 0.802379
51 1 3 -0.11508 30.9828 17.8879 8.25944
52 1 3 -0.11508 5.54921 3.20384 6.65468
53 1 3 -0.11508 23.8152 17.8879 8.25944
54 1 3 -0.11508 12.7168 3.20384 6.65468
55 1 3 -0.11508 30.9828 13.7497 14.1117
56 1 3 -0.11508 5.54921 7.34203 0.802379
57 1 3 -0.0559 18.266 5.39949 13.5316
58 1 3 -0.0559 18.266 15.6923 1.38254
59 1 3 -0.055903 18.266 14.5575 0.580159
60 1 3 -0.055903 18.266 6.53422 14.334
61 1 3 -0.0559 26.1971 11.1132 7.85825
62 1 3 -0.0559 10.3349 9.9785 7.05587
63 1 3 -0.055903 10.3349 11.1132 7.85825
64 1 3 -0.055903 26.1971 9.9785 7.05587
65 1 3 -0.0559 14.7918 8.54005 0.580159
66 1 3 -0.0559 21.7402 12.5517 14.334
67 1 3 -0.055903 22.7229 13.1191 13.5316
68 1 3 -0.055903 13.8091 7.97268 1.38254
69 1 3 -0.0559 21.7402 3.39366 7.85825
70 1 3 -0.0559 14.7918 17.6981 7.05587
71 1 3 -0.055903 13.8091 17.1307 7.85825
72 1 3 -0.055903 22.7229 3.96103 7.05587
73 1 3 -0.055901 22.7229 17.1307 7.85825
74 1 3 -0.055901 13.8091 3.96103 7.05587
75 1 3 -0.055903 14.7918 3.39366 7.85825
76 1 3 -0.055903 21.7402 17.6981 7.05587
77 1 3 -0.0559 21.7402 8.54005 0.580159
78 1 3 -0.0559 14.7918 12.5517 14.334
79 1 3 -0.055903 13.8091 13.1191 13.5316
80 1 3 -0.055903 22.7229 7.97268 1.38254
81 1 4 -1.26215 27.399 15.8188 11.1856
82 1 4 -1.26215 9.13299 5.27293 3.72853
83 1 4 -0.60118 27.399 18.9383 11.9641
84 1 4 -0.60118 9.13299 2.15347 2.95001
85 1 4 -0.601179 27.399 17.5926 13.8671
86 1 4 -0.601179 9.13299 3.49912 1.04697
87 1 4 -0.601179 26.2336 13.3722 9.45555
88 1 4 -0.601179 10.2984 7.71958 5.45857
89 1 4 -0.60118 28.5643 13.3722 9.45555
90 1 4 -0.60118 7.96762 7.71958 5.45857
91 1 4 -0.60118 25.8628 14.9319 13.8671
92 1 4 -0.60118 10.6692 6.15984 1.04697
93 1 4 -0.601179 24.6974 14.2591 11.9641
94 1 4 -0.601179 11.8345 6.83267 2.95001
95 1 4 -0.60118 28.9351 18.0514 9.45555
96 1 4 -0.60118 7.59682 3.04037 5.45857
97 1 4 -0.601179 30.1005 16.0329 9.45555
98 1 4 -0.601179 6.43145 5.05885 5.45857
99 1 4 -0.601179 24.6974 16.0329 9.45555
100 1 4 -0.601179 11.8345 5.05885 5.45857
101 1 4 -0.60118 25.8628 18.0514 9.45555
102 1 4 -0.60118 10.6692 3.04037 5.45857
103 1 4 -0.60118 28.9351 14.9319 13.8671
104 1 4 -0.60118 7.59682 6.15984 1.04697
105 1 4 -0.60118 30.1005 14.2591 11.9641
106 1 4 -0.60118 6.43145 6.83267 2.95001
ITEM: TIMESTEP
35000
ITEM: NUMBER OF ATOMS
106
ITEM: BOX BOUNDS xy xz yz pp pp pp
0.0000000000000000e+00 3.6531964750000000e+01 9.1329911900000003e+00
0.0000000000000000e+00 2.1091739680000000e+01 9.1329911900000003e+00
0.0000000000000000e+00 1.4914112149999999e+01 5.2729349200000000e+00
ITEM: ATOMS id mol type q x y z
1 1 1 1.10383 27.399 17.6496 10.5383
2 1 1 1.10383 9.13299 3.44217 4.3758
3 1 1 1.10383 27.399 15.8188 13.1274
4 1 1 1.10383 9.13299 5.27293 1.78671
5 1 1 1.10383 25.8135 14.9034 10.5383
6 1 1 1.10383 10.7185 6.18832 4.3758
7 1 1 1.10383 28.9845 14.9034 10.5383
8 1 1 1.10383 7.5475 6.18832 4.3758
9 1 2 0.115889 18.266 5.48596 12.6084
10 1 2 0.115889 18.266 15.6058 2.30572
11 1 2 0.115888 18.266 13.716 0.969417
12 1 2 0.115888 18.266 7.37578 13.9447
13 1 2 0.11589 25.3934 11.4908 8.12521
14 1 2 0.11589 11.1386 9.60096 6.7889
15 1 2 0.115888 11.1386 11.4908 8.12521
16 1 2 0.115888 25.3934 9.60096 6.7889
17 1 2 0.115889 15.5206 8.96083 0.969417
18 1 2 0.115889 21.0114 12.1309 13.9447
19 1 2 0.115888 22.648 13.0758 12.6084
20 1 2 0.115888 13.884 8.01592 2.30572
21 1 2 0.115889 21.0114 3.90092 8.12521
22 1 2 0.115889 15.5206 17.1908 6.7889
23 1 2 0.115887 13.884 16.2459 8.12521
24 1 2 0.115887 22.648 4.84583 6.7889
25 1 2 0.115889 22.648 16.2459 8.12521
26 1 2 0.115889 13.884 4.84583 6.7889
27 1 2 0.115887 15.5206 3.90092 8.12521
28 1 2 0.115887 21.0114 17.1908 6.7889
29 1 2 0.115889 21.0114 8.96083 0.969417
30 1 2 0.115889 15.5206 12.1309 13.9447
31 1 2 0.115887 13.884 13.0758 12.6084
32 1 2 0.115887 22.648 8.01592 2.30572
33 1 3 0.671939 27.399 18.7442 13.2542
34 1 3 0.671939 9.13299 2.34751 1.65994
35 1 3 0.671939 27.399 12.8934 9.117
36 1 3 0.671939 9.13299 8.19836 5.79712
37 1 3 0.67194 24.8655 14.3561 13.2542
38 1 3 0.67194 11.6665 6.73565 1.65994
39 1 3 0.67194 29.9325 17.2815 9.117
40 1 3 0.67194 6.5995 3.81022 5.79712
41 1 3 0.67194 24.8655 17.2815 9.117
42 1 3 0.67194 11.6665 3.81022 5.79712
43 1 3 0.67194 29.9325 14.3561 13.2542
44 1 3 0.67194 6.5995 6.73565 1.65994
45 1 3 -0.11508 27.399 19.957 14.1117
46 1 3 -0.11508 9.13299 1.13474 0.802379
47 1 3 -0.11508 27.399 11.6806 8.25944
48 1 3 -0.11508 9.13299 9.41113 6.65468
49 1 3 -0.11508 23.8152 13.7497 14.1117
50 1 3 -0.11508 12.7168 7.34203 0.802379
51 1 3 -0.11508 30.9828 17.8879 8.25944
52 1 3 -0.11508 5.54921 3.20384 6.65468
53 1 3 -0.11508 23.8152 17.8879 8.25944
54 1 3 -0.11508 12.7168 3.20384 6.65468
55 1 3 -0.11508 30.9828 13.7497 14.1117
56 1 3 -0.11508 5.54921 7.34203 0.802379
57 1 3 -0.0559 18.266 5.39949 13.5316
58 1 3 -0.0559 18.266 15.6923 1.38254
59 1 3 -0.055903 18.266 14.5575 0.580159
60 1 3 -0.055903 18.266 6.53422 14.334
61 1 3 -0.0559 26.1971 11.1132 7.85825
62 1 3 -0.0559 10.3349 9.9785 7.05587
63 1 3 -0.055903 10.3349 11.1132 7.85825
64 1 3 -0.055903 26.1971 9.9785 7.05587
65 1 3 -0.0559 14.7918 8.54005 0.580159
66 1 3 -0.0559 21.7402 12.5517 14.334
67 1 3 -0.055903 22.7229 13.1191 13.5316
68 1 3 -0.055903 13.8091 7.97268 1.38254
69 1 3 -0.0559 21.7402 3.39366 7.85825
70 1 3 -0.0559 14.7918 17.6981 7.05587
71 1 3 -0.055903 13.8091 17.1307 7.85825
72 1 3 -0.055903 22.7229 3.96103 7.05587
73 1 3 -0.055901 22.7229 17.1307 7.85825
74 1 3 -0.055901 13.8091 3.96103 7.05587
75 1 3 -0.055903 14.7918 3.39366 7.85825
76 1 3 -0.055903 21.7402 17.6981 7.05587
77 1 3 -0.0559 21.7402 8.54005 0.580159
78 1 3 -0.0559 14.7918 12.5517 14.334
79 1 3 -0.055903 13.8091 13.1191 13.5316
80 1 3 -0.055903 22.7229 7.97268 1.38254
81 1 4 -1.26215 27.399 15.8188 11.1856
82 1 4 -1.26215 9.13299 5.27293 3.72853
83 1 4 -0.60118 27.399 18.9383 11.9641
84 1 4 -0.60118 9.13299 2.15347 2.95001
85 1 4 -0.601179 27.399 17.5926 13.8671
86 1 4 -0.601179 9.13299 3.49912 1.04697
87 1 4 -0.601179 26.2336 13.3722 9.45555
88 1 4 -0.601179 10.2984 7.71958 5.45857
89 1 4 -0.60118 28.5643 13.3722 9.45555
90 1 4 -0.60118 7.96762 7.71958 5.45857
91 1 4 -0.60118 25.8628 14.9319 13.8671
92 1 4 -0.60118 10.6692 6.15984 1.04697
93 1 4 -0.601179 24.6974 14.2591 11.9641
94 1 4 -0.601179 11.8345 6.83267 2.95001
95 1 4 -0.60118 28.9351 18.0514 9.45555
96 1 4 -0.60118 7.59682 3.04037 5.45857
97 1 4 -0.601179 30.1005 16.0329 9.45555
98 1 4 -0.601179 6.43145 5.05885 5.45857
99 1 4 -0.601179 24.6974 16.0329 9.45555
100 1 4 -0.601179 11.8345 5.05885 5.45857
101 1 4 -0.60118 25.8628 18.0514 9.45555
102 1 4 -0.60118 10.6692 3.04037 5.45857
103 1 4 -0.60118 28.9351 14.9319 13.8671
104 1 4 -0.60118 7.59682 6.15984 1.04697
105 1 4 -0.60118 30.1005 14.2591 11.9641
106 1 4 -0.60118 6.43145 6.83267 2.95001
ITEM: TIMESTEP
36000
ITEM: NUMBER OF ATOMS
106
ITEM: BOX BOUNDS xy xz yz pp pp pp
0.0000000000000000e+00 3.6531964750000000e+01 9.1329911900000003e+00
0.0000000000000000e+00 2.1091739680000000e+01 9.1329911900000003e+00
0.0000000000000000e+00 1.4914112149999999e+01 5.2729349200000000e+00
ITEM: ATOMS id mol type q x y z
1 1 1 1.10383 27.399 17.6496 10.5383
2 1 1 1.10383 9.13299 3.44217 4.3758
3 1 1 1.10383 27.399 15.8188 13.1274
4 1 1 1.10383 9.13299 5.27293 1.78671
5 1 1 1.10383 25.8135 14.9034 10.5383
6 1 1 1.10383 10.7185 6.18832 4.3758
7 1 1 1.10383 28.9845 14.9034 10.5383
8 1 1 1.10383 7.5475 6.18832 4.3758
9 1 2 0.115889 18.266 5.48596 12.6084
10 1 2 0.115889 18.266 15.6058 2.30572
11 1 2 0.115888 18.266 13.716 0.969417
12 1 2 0.115888 18.266 7.37578 13.9447
13 1 2 0.11589 25.3934 11.4908 8.12521
14 1 2 0.11589 11.1386 9.60096 6.7889
15 1 2 0.115888 11.1386 11.4908 8.12521
16 1 2 0.115888 25.3934 9.60096 6.7889
17 1 2 0.115889 15.5206 8.96083 0.969417
18 1 2 0.115889 21.0114 12.1309 13.9447
19 1 2 0.115888 22.648 13.0758 12.6084
20 1 2 0.115888 13.884 8.01592 2.30572
21 1 2 0.115889 21.0114 3.90092 8.12521
22 1 2 0.115889 15.5206 17.1908 6.7889
23 1 2 0.115887 13.884 16.2459 8.12521
24 1 2 0.115887 22.648 4.84583 6.7889
25 1 2 0.115889 22.648 16.2459 8.12521
26 1 2 0.115889 13.884 4.84583 6.7889
27 1 2 0.115887 15.5206 3.90092 8.12521
28 1 2 0.115887 21.0114 17.1908 6.7889
29 1 2 0.115889 21.0114 8.96083 0.969417
30 1 2 0.115889 15.5206 12.1309 13.9447
31 1 2 0.115887 13.884 13.0758 12.6084
32 1 2 0.115887 22.648 8.01592 2.30572
33 1 3 0.671939 27.399 18.7442 13.2542
34 1 3 0.671939 9.13299 2.34751 1.65994
35 1 3 0.671939 27.399 12.8934 9.117
36 1 3 0.671939 9.13299 8.19836 5.79712
37 1 3 0.67194 24.8655 14.3561 13.2542
38 1 3 0.67194 11.6665 6.73565 1.65994
39 1 3 0.67194 29.9325 17.2815 9.117
40 1 3 0.67194 6.5995 3.81022 5.79712
41 1 3 0.67194 24.8655 17.2815 9.117
42 1 3 0.67194 11.6665 3.81022 5.79712
43 1 3 0.67194 29.9325 14.3561 13.2542
44 1 3 0.67194 6.5995 6.73565 1.65994
45 1 3 -0.11508 27.399 19.957 14.1117
46 1 3 -0.11508 9.13299 1.13474 0.802379
47 1 3 -0.11508 27.399 11.6806 8.25944
48 1 3 -0.11508 9.13299 9.41113 6.65468
49 1 3 -0.11508 23.8152 13.7497 14.1117
50 1 3 -0.11508 12.7168 7.34203 0.802379
51 1 3 -0.11508 30.9828 17.8879 8.25944
52 1 3 -0.11508 5.54921 3.20384 6.65468
53 1 3 -0.11508 23.8152 17.8879 8.25944
54 1 3 -0.11508 12.7168 3.20384 6.65468
55 1 3 -0.11508 30.9828 13.7497 14.1117
56 1 3 -0.11508 5.54921 7.34203 0.802379
57 1 3 -0.0559 18.266 5.39949 13.5316
58 1 3 -0.0559 18.266 15.6923 1.38254
59 1 3 -0.055903 18.266 14.5575 0.580159
60 1 3 -0.055903 18.266 6.53422 14.334
61 1 3 -0.0559 26.1971 11.1132 7.85825
62 1 3 -0.0559 10.3349 9.9785 7.05587
63 1 3 -0.055903 10.3349 11.1132 7.85825
64 1 3 -0.055903 26.1971 9.9785 7.05587
65 1 3 -0.0559 14.7918 8.54005 0.580159
66 1 3 -0.0559 21.7402 12.5517 14.334
67 1 3 -0.055903 22.7229 13.1191 13.5316
68 1 3 -0.055903 13.8091 7.97268 1.38254
69 1 3 -0.0559 21.7402 3.39366 7.85825
70 1 3 -0.0559 14.7918 17.6981 7.05587
71 1 3 -0.055903 13.8091 17.1307 7.85825
72 1 3 -0.055903 22.7229 3.96103 7.05587
73 1 3 -0.055901 22.7229 17.1307 7.85825
74 1 3 -0.055901 13.8091 3.96103 7.05587
75 1 3 -0.055903 14.7918 3.39366 7.85825
76 1 3 -0.055903 21.7402 17.6981 7.05587
77 1 3 -0.0559 21.7402 8.54005 0.580159
78 1 3 -0.0559 14.7918 12.5517 14.334
79 1 3 -0.055903 13.8091 13.1191 13.5316
80 1 3 -0.055903 22.7229 7.97268 1.38254
81 1 4 -1.26215 27.399 15.8188 11.1856
82 1 4 -1.26215 9.13299 5.27293 3.72853
83 1 4 -0.60118 27.399 18.9383 11.9641
84 1 4 -0.60118 9.13299 2.15347 2.95001
85 1 4 -0.601179 27.399 17.5926 13.8671
86 1 4 -0.601179 9.13299 3.49912 1.04697
87 1 4 -0.601179 26.2336 13.3722 9.45555
88 1 4 -0.601179 10.2984 7.71958 5.45857
89 1 4 -0.60118 28.5643 13.3722 9.45555
90 1 4 -0.60118 7.96762 7.71958 5.45857
91 1 4 -0.60118 25.8628 14.9319 13.8671
92 1 4 -0.60118 10.6692 6.15984 1.04697
93 1 4 -0.601179 24.6974 14.2591 11.9641
94 1 4 -0.601179 11.8345 6.83267 2.95001
95 1 4 -0.60118 28.9351 18.0514 9.45555
96 1 4 -0.60118 7.59682 3.04037 5.45857
97 1 4 -0.601179 30.1005 16.0329 9.45555
98 1 4 -0.601179 6.43145 5.05885 5.45857
99 1 4 -0.601179 24.6974 16.0329 9.45555
100 1 4 -0.601179 11.8345 5.05885 5.45857
101 1 4 -0.60118 25.8628 18.0514 9.45555
102 1 4 -0.60118 10.6692 3.04037 5.45857
103 1 4 -0.60118 28.9351 14.9319 13.8671
104 1 4 -0.60118 7.59682 6.15984 1.04697
105 1 4 -0.60118 30.1005 14.2591 11.9641
106 1 4 -0.60118 6.43145 6.83267 2.95001
ITEM: TIMESTEP
37000
ITEM: NUMBER OF ATOMS
106
ITEM: BOX BOUNDS xy xz yz pp pp pp
0.0000000000000000e+00 3.6531964750000000e+01 9.1329911900000003e+00
0.0000000000000000e+00 2.1091739680000000e+01 9.1329911900000003e+00
0.0000000000000000e+00 1.4914112149999999e+01 5.2729349200000000e+00
ITEM: ATOMS id mol type q x y z
1 1 1 1.10383 27.399 17.6496 10.5383
2 1 1 1.10383 9.13299 3.44217 4.3758
3 1 1 1.10383 27.399 15.8188 13.1274
4 1 1 1.10383 9.13299 5.27293 1.78671
5 1 1 1.10383 25.8135 14.9034 10.5383
6 1 1 1.10383 10.7185 6.18832 4.3758
7 1 1 1.10383 28.9845 14.9034 10.5383
8 1 1 1.10383 7.5475 6.18832 4.3758
9 1 2 0.115889 18.266 5.48596 12.6084
10 1 2 0.115889 18.266 15.6058 2.30572
11 1 2 0.115888 18.266 13.716 0.969417
12 1 2 0.115888 18.266 7.37578 13.9447
13 1 2 0.11589 25.3934 11.4908 8.12521
14 1 2 0.11589 11.1386 9.60096 6.7889
15 1 2 0.115888 11.1386 11.4908 8.12521
16 1 2 0.115888 25.3934 9.60096 6.7889
17 1 2 0.115889 15.5206 8.96083 0.969417
18 1 2 0.115889 21.0114 12.1309 13.9447
19 1 2 0.115888 22.648 13.0758 12.6084
20 1 2 0.115888 13.884 8.01592 2.30572
21 1 2 0.115889 21.0114 3.90092 8.12521
22 1 2 0.115889 15.5206 17.1908 6.7889
23 1 2 0.115887 13.884 16.2459 8.12521
24 1 2 0.115887 22.648 4.84583 6.7889
25 1 2 0.115889 22.648 16.2459 8.12521
26 1 2 0.115889 13.884 4.84583 6.7889
27 1 2 0.115887 15.5206 3.90092 8.12521
28 1 2 0.115887 21.0114 17.1908 6.7889
29 1 2 0.115889 21.0114 8.96083 0.969417
30 1 2 0.115889 15.5206 12.1309 13.9447
31 1 2 0.115887 13.884 13.0758 12.6084
32 1 2 0.115887 22.648 8.01592 2.30572
33 1 3 0.671939 27.399 18.7442 13.2542
34 1 3 0.671939 9.13299 2.34751 1.65994
35 1 3 0.671939 27.399 12.8934 9.117
36 1 3 0.671939 9.13299 8.19836 5.79712
37 1 3 0.67194 24.8655 14.3561 13.2542
38 1 3 0.67194 11.6665 6.73565 1.65994
39 1 3 0.67194 29.9325 17.2815 9.117
40 1 3 0.67194 6.5995 3.81022 5.79712
41 1 3 0.67194 24.8655 17.2815 9.117
42 1 3 0.67194 11.6665 3.81022 5.79712
43 1 3 0.67194 29.9325 14.3561 13.2542
44 1 3 0.67194 6.5995 6.73565 1.65994
45 1 3 -0.11508 27.399 19.957 14.1117
46 1 3 -0.11508 9.13299 1.13474 0.802379
47 1 3 -0.11508 27.399 11.6806 8.25944
48 1 3 -0.11508 9.13299 9.41113 6.65468
49 1 3 -0.11508 23.8152 13.7497 14.1117
50 1 3 -0.11508 12.7168 7.34203 0.802379
51 1 3 -0.11508 30.9828 17.8879 8.25944
52 1 3 -0.11508 5.54921 3.20384 6.65468
53 1 3 -0.11508 23.8152 17.8879 8.25944
54 1 3 -0.11508 12.7168 3.20384 6.65468
55 1 3 -0.11508 30.9828 13.7497 14.1117
56 1 3 -0.11508 5.54921 7.34203 0.802379
57 1 3 -0.0559 18.266 5.39949 13.5316
58 1 3 -0.0559 18.266 15.6923 1.38254
59 1 3 -0.055903 18.266 14.5575 0.580159
60 1 3 -0.055903 18.266 6.53422 14.334
61 1 3 -0.0559 26.1971 11.1132 7.85825
62 1 3 -0.0559 10.3349 9.9785 7.05587
63 1 3 -0.055903 10.3349 11.1132 7.85825
64 1 3 -0.055903 26.1971 9.9785 7.05587
65 1 3 -0.0559 14.7918 8.54005 0.580159
66 1 3 -0.0559 21.7402 12.5517 14.334
67 1 3 -0.055903 22.7229 13.1191 13.5316
68 1 3 -0.055903 13.8091 7.97268 1.38254
69 1 3 -0.0559 21.7402 3.39366 7.85825
70 1 3 -0.0559 14.7918 17.6981 7.05587
71 1 3 -0.055903 13.8091 17.1307 7.85825
72 1 3 -0.055903 22.7229 3.96103 7.05587
73 1 3 -0.055901 22.7229 17.1307 7.85825
74 1 3 -0.055901 13.8091 3.96103 7.05587
75 1 3 -0.055903 14.7918 3.39366 7.85825
76 1 3 -0.055903 21.7402 17.6981 7.05587
77 1 3 -0.0559 21.7402 8.54005 0.580159
78 1 3 -0.0559 14.7918 12.5517 14.334
79 1 3 -0.055903 13.8091 13.1191 13.5316
80 1 3 -0.055903 22.7229 7.97268 1.38254
81 1 4 -1.26215 27.399 15.8188 11.1856
82 1 4 -1.26215 9.13299 5.27293 3.72853
83 1 4 -0.60118 27.399 18.9383 11.9641
84 1 4 -0.60118 9.13299 2.15347 2.95001
85 1 4 -0.601179 27.399 17.5926 13.8671
86 1 4 -0.601179 9.13299 3.49912 1.04697
87 1 4 -0.601179 26.2336 13.3722 9.45555
88 1 4 -0.601179 10.2984 7.71958 5.45857
89 1 4 -0.60118 28.5643 13.3722 9.45555
90 1 4 -0.60118 7.96762 7.71958 5.45857
91 1 4 -0.60118 25.8628 14.9319 13.8671
92 1 4 -0.60118 10.6692 6.15984 1.04697
93 1 4 -0.601179 24.6974 14.2591 11.9641
94 1 4 -0.601179 11.8345 6.83267 2.95001
95 1 4 -0.60118 28.9351 18.0514 9.45555
96 1 4 -0.60118 7.59682 3.04037 5.45857
97 1 4 -0.601179 30.1005 16.0329 9.45555
98 1 4 -0.601179 6.43145 5.05885 5.45857
99 1 4 -0.601179 24.6974 16.0329 9.45555
100 1 4 -0.601179 11.8345 5.05885 5.45857
101 1 4 -0.60118 25.8628 18.0514 9.45555
102 1 4 -0.60118 10.6692 3.04037 5.45857
103 1 4 -0.60118 28.9351 14.9319 13.8671
104 1 4 -0.60118 7.59682 6.15984 1.04697
105 1 4 -0.60118 30.1005 14.2591 11.9641
106 1 4 -0.60118 6.43145 6.83267 2.95001
ITEM: TIMESTEP
38000
ITEM: NUMBER OF ATOMS
106
ITEM: BOX BOUNDS xy xz yz pp pp pp
0.0000000000000000e+00 3.6531964750000000e+01 9.1329911900000003e+00
0.0000000000000000e+00 2.1091739680000000e+01 9.1329911900000003e+00
0.0000000000000000e+00 1.4914112149999999e+01 5.2729349200000000e+00
ITEM: ATOMS id mol type q x y z
1 1 1 1.10383 27.399 17.6496 10.5383
2 1 1 1.10383 9.13299 3.44217 4.3758
3 1 1 1.10383 27.399 15.8188 13.1274
4 1 1 1.10383 9.13299 5.27293 1.78671
5 1 1 1.10383 25.8135 14.9034 10.5383
6 1 1 1.10383 10.7185 6.18832 4.3758
7 1 1 1.10383 28.9845 14.9034 10.5383
8 1 1 1.10383 7.5475 6.18832 4.3758
9 1 2 0.115889 18.266 5.48596 12.6084
10 1 2 0.115889 18.266 15.6058 2.30572
11 1 2 0.115888 18.266 13.716 0.969417
12 1 2 0.115888 18.266 7.37578 13.9447
13 1 2 0.11589 25.3934 11.4908 8.12521
14 1 2 0.11589 11.1386 9.60096 6.7889
15 1 2 0.115888 11.1386 11.4908 8.12521
16 1 2 0.115888 25.3934 9.60096 6.7889
17 1 2 0.115889 15.5206 8.96083 0.969417
18 1 2 0.115889 21.0114 12.1309 13.9447
19 1 2 0.115888 22.648 13.0758 12.6084
20 1 2 0.115888 13.884 8.01592 2.30572
21 1 2 0.115889 21.0114 3.90092 8.12521
22 1 2 0.115889 15.5206 17.1908 6.7889
23 1 2 0.115887 13.884 16.2459 8.12521
24 1 2 0.115887 22.648 4.84583 6.7889
25 1 2 0.115889 22.648 16.2459 8.12521
26 1 2 0.115889 13.884 4.84583 6.7889
27 1 2 0.115887 15.5206 3.90092 8.12521
28 1 2 0.115887 21.0114 17.1908 6.7889
29 1 2 0.115889 21.0114 8.96083 0.969417
30 1 2 0.115889 15.5206 12.1309 13.9447
31 1 2 0.115887 13.884 13.0758 12.6084
32 1 2 0.115887 22.648 8.01592 2.30572
33 1 3 0.671939 27.399 18.7442 13.2542
34 1 3 0.671939 9.13299 2.34751 1.65994
35 1 3 0.671939 27.399 12.8934 9.117
36 1 3 0.671939 9.13299 8.19836 5.79712
37 1 3 0.67194 24.8655 14.3561 13.2542
38 1 3 0.67194 11.6665 6.73565 1.65994
39 1 3 0.67194 29.9325 17.2815 9.117
40 1 3 0.67194 6.5995 3.81022 5.79712
41 1 3 0.67194 24.8655 17.2815 9.117
42 1 3 0.67194 11.6665 3.81022 5.79712
43 1 3 0.67194 29.9325 14.3561 13.2542
44 1 3 0.67194 6.5995 6.73565 1.65994
45 1 3 -0.11508 27.399 19.957 14.1117
46 1 3 -0.11508 9.13299 1.13474 0.802379
47 1 3 -0.11508 27.399 11.6806 8.25944
48 1 3 -0.11508 9.13299 9.41113 6.65468
49 1 3 -0.11508 23.8152 13.7497 14.1117
50 1 3 -0.11508 12.7168 7.34203 0.802379
51 1 3 -0.11508 30.9828 17.8879 8.25944
52 1 3 -0.11508 5.54921 3.20384 6.65468
53 1 3 -0.11508 23.8152 17.8879 8.25944
54 1 3 -0.11508 12.7168 3.20384 6.65468
55 1 3 -0.11508 30.9828 13.7497 14.1117
56 1 3 -0.11508 5.54921 7.34203 0.802379
57 1 3 -0.0559 18.266 5.39949 13.5316
58 1 3 -0.0559 18.266 15.6923 1.38254
59 1 3 -0.055903 18.266 14.5575 0.580159
60 1 3 -0.055903 18.266 6.53422 14.334
61 1 3 -0.0559 26.1971 11.1132 7.85825
62 1 3 -0.0559 10.3349 9.9785 7.05587
63 1 3 -0.055903 10.3349 11.1132 7.85825
64 1 3 -0.055903 26.1971 9.9785 7.05587
65 1 3 -0.0559 14.7918 8.54005 0.580159
66 1 3 -0.0559 21.7402 12.5517 14.334
67 1 3 -0.055903 22.7229 13.1191 13.5316
68 1 3 -0.055903 13.8091 7.97268 1.38254
69 1 3 -0.0559 21.7402 3.39366 7.85825
70 1 3 -0.0559 14.7918 17.6981 7.05587
71 1 3 -0.055903 13.8091 17.1307 7.85825
72 1 3 -0.055903 22.7229 3.96103 7.05587
73 1 3 -0.055901 22.7229 17.1307 7.85825
74 1 3 -0.055901 13.8091 3.96103 7.05587
75 1 3 -0.055903 14.7918 3.39366 7.85825
76 1 3 -0.055903 21.7402 17.6981 7.05587
77 1 3 -0.0559 21.7402 8.54005 0.580159
78 1 3 -0.0559 14.7918 12.5517 14.334
79 1 3 -0.055903 13.8091 13.1191 13.5316
80 1 3 -0.055903 22.7229 7.97268 1.38254
81 1 4 -1.26215 27.399 15.8188 11.1856
82 1 4 -1.26215 9.13299 5.27293 3.72853
83 1 4 -0.60118 27.399 18.9383 11.9641
84 1 4 -0.60118 9.13299 2.15347 2.95001
85 1 4 -0.601179 27.399 17.5926 13.8671
86 1 4 -0.601179 9.13299 3.49912 1.04697
87 1 4 -0.601179 26.2336 13.3722 9.45555
88 1 4 -0.601179 10.2984 7.71958 5.45857
89 1 4 -0.60118 28.5643 13.3722 9.45555
90 1 4 -0.60118 7.96762 7.71958 5.45857
91 1 4 -0.60118 25.8628 14.9319 13.8671
92 1 4 -0.60118 10.6692 6.15984 1.04697
93 1 4 -0.601179 24.6974 14.2591 11.9641
94 1 4 -0.601179 11.8345 6.83267 2.95001
95 1 4 -0.60118 28.9351 18.0514 9.45555
96 1 4 -0.60118 7.59682 3.04037 5.45857
97 1 4 -0.601179 30.1005 16.0329 9.45555
98 1 4 -0.601179 6.43145 5.05885 5.45857
99 1 4 -0.601179 24.6974 16.0329 9.45555
100 1 4 -0.601179 11.8345 5.05885 5.45857
101 1 4 -0.60118 25.8628 18.0514 9.45555
102 1 4 -0.60118 10.6692 3.04037 5.45857
103 1 4 -0.60118 28.9351 14.9319 13.8671
104 1 4 -0.60118 7.59682 6.15984 1.04697
105 1 4 -0.60118 30.1005 14.2591 11.9641
106 1 4 -0.60118 6.43145 6.83267 2.95001
ITEM: TIMESTEP
39000
ITEM: NUMBER OF ATOMS
106
ITEM: BOX BOUNDS xy xz yz pp pp pp
0.0000000000000000e+00 3.6531964750000000e+01 9.1329911900000003e+00
0.0000000000000000e+00 2.1091739680000000e+01 9.1329911900000003e+00
0.0000000000000000e+00 1.4914112149999999e+01 5.2729349200000000e+00
ITEM: ATOMS id mol type q x y z
1 1 1 1.10383 27.399 17.6496 10.5383
2 1 1 1.10383 9.13299 3.44217 4.3758
3 1 1 1.10383 27.399 15.8188 13.1274
4 1 1 1.10383 9.13299 5.27293 1.78671
5 1 1 1.10383 25.8135 14.9034 10.5383
6 1 1 1.10383 10.7185 6.18832 4.3758
7 1 1 1.10383 28.9845 14.9034 10.5383
8 1 1 1.10383 7.5475 6.18832 4.3758
9 1 2 0.115889 18.266 5.48596 12.6084
10 1 2 0.115889 18.266 15.6058 2.30572
11 1 2 0.115888 18.266 13.716 0.969417
12 1 2 0.115888 18.266 7.37578 13.9447
13 1 2 0.11589 25.3934 11.4908 8.12521
14 1 2 0.11589 11.1386 9.60096 6.7889
15 1 2 0.115888 11.1386 11.4908 8.12521
16 1 2 0.115888 25.3934 9.60096 6.7889
17 1 2 0.115889 15.5206 8.96083 0.969417
18 1 2 0.115889 21.0114 12.1309 13.9447
19 1 2 0.115888 22.648 13.0758 12.6084
20 1 2 0.115888 13.884 8.01592 2.30572
21 1 2 0.115889 21.0114 3.90092 8.12521
22 1 2 0.115889 15.5206 17.1908 6.7889
23 1 2 0.115887 13.884 16.2459 8.12521
24 1 2 0.115887 22.648 4.84583 6.7889
25 1 2 0.115889 22.648 16.2459 8.12521
26 1 2 0.115889 13.884 4.84583 6.7889
27 1 2 0.115887 15.5206 3.90092 8.12521
28 1 2 0.115887 21.0114 17.1908 6.7889
29 1 2 0.115889 21.0114 8.96083 0.969417
30 1 2 0.115889 15.5206 12.1309 13.9447
31 1 2 0.115887 13.884 13.0758 12.6084
32 1 2 0.115887 22.648 8.01592 2.30572
33 1 3 0.671939 27.399 18.7442 13.2542
34 1 3 0.671939 9.13299 2.34751 1.65994
35 1 3 0.671939 27.399 12.8934 9.117
36 1 3 0.671939 9.13299 8.19836 5.79712
37 1 3 0.67194 24.8655 14.3561 13.2542
38 1 3 0.67194 11.6665 6.73565 1.65994
39 1 3 0.67194 29.9325 17.2815 9.117
40 1 3 0.67194 6.5995 3.81022 5.79712
41 1 3 0.67194 24.8655 17.2815 9.117
42 1 3 0.67194 11.6665 3.81022 5.79712
43 1 3 0.67194 29.9325 14.3561 13.2542
44 1 3 0.67194 6.5995 6.73565 1.65994
45 1 3 -0.11508 27.399 19.957 14.1117
46 1 3 -0.11508 9.13299 1.13474 0.802379
47 1 3 -0.11508 27.399 11.6806 8.25944
48 1 3 -0.11508 9.13299 9.41113 6.65468
49 1 3 -0.11508 23.8152 13.7497 14.1117
50 1 3 -0.11508 12.7168 7.34203 0.802379
51 1 3 -0.11508 30.9828 17.8879 8.25944
52 1 3 -0.11508 5.54921 3.20384 6.65468
53 1 3 -0.11508 23.8152 17.8879 8.25944
54 1 3 -0.11508 12.7168 3.20384 6.65468
55 1 3 -0.11508 30.9828 13.7497 14.1117
56 1 3 -0.11508 5.54921 7.34203 0.802379
57 1 3 -0.0559 18.266 5.39949 13.5316
58 1 3 -0.0559 18.266 15.6923 1.38254
59 1 3 -0.055903 18.266 14.5575 0.580159
60 1 3 -0.055903 18.266 6.53422 14.334
61 1 3 -0.0559 26.1971 11.1132 7.85825
62 1 3 -0.0559 10.3349 9.9785 7.05587
63 1 3 -0.055903 10.3349 11.1132 7.85825
64 1 3 -0.055903 26.1971 9.9785 7.05587
65 1 3 -0.0559 14.7918 8.54005 0.580159
66 1 3 -0.0559 21.7402 12.5517 14.334
67 1 3 -0.055903 22.7229 13.1191 13.5316
68 1 3 -0.055903 13.8091 7.97268 1.38254
69 1 3 -0.0559 21.7402 3.39366 7.85825
70 1 3 -0.0559 14.7918 17.6981 7.05587
71 1 3 -0.055903 13.8091 17.1307 7.85825
72 1 3 -0.055903 22.7229 3.96103 7.05587
73 1 3 -0.055901 22.7229 17.1307 7.85825
74 1 3 -0.055901 13.8091 3.96103 7.05587
75 1 3 -0.055903 14.7918 3.39366 7.85825
76 1 3 -0.055903 21.7402 17.6981 7.05587
77 1 3 -0.0559 21.7402 8.54005 0.580159
78 1 3 -0.0559 14.7918 12.5517 14.334
79 1 3 -0.055903 13.8091 13.1191 13.5316
80 1 3 -0.055903 22.7229 7.97268 1.38254
81 1 4 -1.26215 27.399 15.8188 11.1856
82 1 4 -1.26215 9.13299 5.27293 3.72853
83 1 4 -0.60118 27.399 18.9383 11.9641
84 1 4 -0.60118 9.13299 2.15347 2.95001
85 1 4 -0.601179 27.399 17.5926 13.8671
86 1 4 -0.601179 9.13299 3.49912 1.04697
87 1 4 -0.601179 26.2336 13.3722 9.45555
88 1 4 -0.601179 10.2984 7.71958 5.45857
89 1 4 -0.60118 28.5643 13.3722 9.45555
90 1 4 -0.60118 7.96762 7.71958 5.45857
91 1 4 -0.60118 25.8628 14.9319 13.8671
92 1 4 -0.60118 10.6692 6.15984 1.04697
93 1 4 -0.601179 24.6974 14.2591 11.9641
94 1 4 -0.601179 11.8345 6.83267 2.95001
95 1 4 -0.60118 28.9351 18.0514 9.45555
96 1 4 -0.60118 7.59682 3.04037 5.45857
97 1 4 -0.601179 30.1005 16.0329 9.45555
98 1 4 -0.601179 6.43145 5.05885 5.45857
99 1 4 -0.601179 24.6974 16.0329 9.45555
100 1 4 -0.601179 11.8345 5.05885 5.45857
101 1 4 -0.60118 25.8628 18.0514 9.45555
102 1 4 -0.60118 10.6692 3.04037 5.45857
103 1 4 -0.60118 28.9351 14.9319 13.8671
104 1 4 -0.60118 7.59682 6.15984 1.04697
105 1 4 -0.60118 30.1005 14.2591 11.9641
106 1 4 -0.60118 6.43145 6.83267 2.95001
ITEM: TIMESTEP
40000
ITEM: NUMBER OF ATOMS
106
ITEM: BOX BOUNDS xy xz yz pp pp pp
0.0000000000000000e+00 3.6531964750000000e+01 9.1329911900000003e+00
0.0000000000000000e+00 2.1091739680000000e+01 9.1329911900000003e+00
0.0000000000000000e+00 1.4914112149999999e+01 5.2729349200000000e+00
ITEM: ATOMS id mol type q x y z
1 1 1 1.10383 27.399 17.6496 10.5383
2 1 1 1.10383 9.13299 3.44217 4.3758
3 1 1 1.10383 27.399 15.8188 13.1274
4 1 1 1.10383 9.13299 5.27293 1.78671
5 1 1 1.10383 25.8135 14.9034 10.5383
6 1 1 1.10383 10.7185 6.18832 4.3758
7 1 1 1.10383 28.9845 14.9034 10.5383
8 1 1 1.10383 7.5475 6.18832 4.3758
9 1 2 0.115889 18.266 5.48596 12.6084
10 1 2 0.115889 18.266 15.6058 2.30572
11 1 2 0.115888 18.266 13.716 0.969417
12 1 2 0.115888 18.266 7.37578 13.9447
13 1 2 0.11589 25.3934 11.4908 8.12521
14 1 2 0.11589 11.1386 9.60096 6.7889
15 1 2 0.115888 11.1386 11.4908 8.12521
16 1 2 0.115888 25.3934 9.60096 6.7889
17 1 2 0.115889 15.5206 8.96083 0.969417
18 1 2 0.115889 21.0114 12.1309 13.9447
19 1 2 0.115888 22.648 13.0758 12.6084
20 1 2 0.115888 13.884 8.01592 2.30572
21 1 2 0.115889 21.0114 3.90092 8.12521
22 1 2 0.115889 15.5206 17.1908 6.7889
23 1 2 0.115887 13.884 16.2459 8.12521
24 1 2 0.115887 22.648 4.84583 6.7889
25 1 2 0.115889 22.648 16.2459 8.12521
26 1 2 0.115889 13.884 4.84583 6.7889
27 1 2 0.115887 15.5206 3.90092 8.12521
28 1 2 0.115887 21.0114 17.1908 6.7889
29 1 2 0.115889 21.0114 8.96083 0.969417
30 1 2 0.115889 15.5206 12.1309 13.9447
31 1 2 0.115887 13.884 13.0758 12.6084
32 1 2 0.115887 22.648 8.01592 2.30572
33 1 3 0.671939 27.399 18.7442 13.2542
34 1 3 0.671939 9.13299 2.34751 1.65994
35 1 3 0.671939 27.399 12.8934 9.117
36 1 3 0.671939 9.13299 8.19836 5.79712
37 1 3 0.67194 24.8655 14.3561 13.2542
38 1 3 0.67194 11.6665 6.73565 1.65994
39 1 3 0.67194 29.9325 17.2815 9.117
40 1 3 0.67194 6.5995 3.81022 5.79712
41 1 3 0.67194 24.8655 17.2815 9.117
42 1 3 0.67194 11.6665 3.81022 5.79712
43 1 3 0.67194 29.9325 14.3561 13.2542
44 1 3 0.67194 6.5995 6.73565 1.65994
45 1 3 -0.11508 27.399 19.957 14.1117
46 1 3 -0.11508 9.13299 1.13474 0.802379
47 1 3 -0.11508 27.399 11.6806 8.25944
48 1 3 -0.11508 9.13299 9.41113 6.65468
49 1 3 -0.11508 23.8152 13.7497 14.1117
50 1 3 -0.11508 12.7168 7.34203 0.802379
51 1 3 -0.11508 30.9828 17.8879 8.25944
52 1 3 -0.11508 5.54921 3.20384 6.65468
53 1 3 -0.11508 23.8152 17.8879 8.25944
54 1 3 -0.11508 12.7168 3.20384 6.65468
55 1 3 -0.11508 30.9828 13.7497 14.1117
56 1 3 -0.11508 5.54921 7.34203 0.802379
57 1 3 -0.0559 18.266 5.39949 13.5316
58 1 3 -0.0559 18.266 15.6923 1.38254
59 1 3 -0.055903 18.266 14.5575 0.580159
60 1 3 -0.055903 18.266 6.53422 14.334
61 1 3 -0.0559 26.1971 11.1132 7.85825
62 1 3 -0.0559 10.3349 9.9785 7.05587
63 1 3 -0.055903 10.3349 11.1132 7.85825
64 1 3 -0.055903 26.1971 9.9785 7.05587
65 1 3 -0.0559 14.7918 8.54005 0.580159
66 1 3 -0.0559 21.7402 12.5517 14.334
67 1 3 -0.055903 22.7229 13.1191 13.5316
68 1 3 -0.055903 13.8091 7.97268 1.38254
69 1 3 -0.0559 21.7402 3.39366 7.85825
70 1 3 -0.0559 14.7918 17.6981 7.05587
71 1 3 -0.055903 13.8091 17.1307 7.85825
72 1 3 -0.055903 22.7229 3.96103 7.05587
73 1 3 -0.055901 22.7229 17.1307 7.85825
74 1 3 -0.055901 13.8091 3.96103 7.05587
75 1 3 -0.055903 14.7918 3.39366 7.85825
76 1 3 -0.055903 21.7402 17.6981 7.05587
77 1 3 -0.0559 21.7402 8.54005 0.580159
78 1 3 -0.0559 14.7918 12.5517 14.334
79 1 3 -0.055903 13.8091 13.1191 13.5316
80 1 3 -0.055903 22.7229 7.97268 1.38254
81 1 4 -1.26215 27.399 15.8188 11.1856
82 1 4 -1.26215 9.13299 5.27293 3.72853
83 1 4 -0.60118 27.399 18.9383 11.9641
84 1 4 -0.60118 9.13299 2.15347 2.95001
85 1 4 -0.601179 27.399 17.5926 13.8671
86 1 4 -0.601179 9.13299 3.49912 1.04697
87 1 4 -0.601179 26.2336 13.3722 9.45555
88 1 4 -0.601179 10.2984 7.71958 5.45857
89 1 4 -0.60118 28.5643 13.3722 9.45555
90 1 4 -0.60118 7.96762 7.71958 5.45857
91 1 4 -0.60118 25.8628 14.9319 13.8671
92 1 4 -0.60118 10.6692 6.15984 1.04697
93 1 4 -0.601179 24.6974 14.2591 11.9641
94 1 4 -0.601179 11.8345 6.83267 2.95001
95 1 4 -0.60118 28.9351 18.0514 9.45555
96 1 4 -0.60118 7.59682 3.04037 5.45857
97 1 4 -0.601179 30.1005 16.0329 9.45555
98 1 4 -0.601179 6.43145 5.05885 5.45857
99 1 4 -0.601179 24.6974 16.0329 9.45555
100 1 4 -0.601179 11.8345 5.05885 5.45857
101 1 4 -0.60118 25.8628 18.0514 9.45555
102 1 4 -0.60118 10.6692 3.04037 5.45857
103 1 4 -0.60118 28.9351 14.9319 13.8671
104 1 4 -0.60118 7.59682 6.15984 1.04697
105 1 4 -0.60118 30.1005 14.2591 11.9641
106 1 4 -0.60118 6.43145 6.83267 2.95001
ITEM: TIMESTEP
41000
ITEM: NUMBER OF ATOMS
106
ITEM: BOX BOUNDS xy xz yz pp pp pp
0.0000000000000000e+00 3.6531964750000000e+01 9.1329911900000003e+00
0.0000000000000000e+00 2.1091739680000000e+01 9.1329911900000003e+00
0.0000000000000000e+00 1.4914112149999999e+01 5.2729349200000000e+00
ITEM: ATOMS id mol type q x y z
1 1 1 1.10383 27.399 17.6496 10.5383
2 1 1 1.10383 9.13299 3.44217 4.3758
3 1 1 1.10383 27.399 15.8188 13.1274
4 1 1 1.10383 9.13299 5.27293 1.78671
5 1 1 1.10383 25.8135 14.9034 10.5383
6 1 1 1.10383 10.7185 6.18832 4.3758
7 1 1 1.10383 28.9845 14.9034 10.5383
8 1 1 1.10383 7.5475 6.18832 4.3758
9 1 2 0.115889 18.266 5.48596 12.6084
10 1 2 0.115889 18.266 15.6058 2.30572
11 1 2 0.115888 18.266 13.716 0.969417
12 1 2 0.115888 18.266 7.37578 13.9447
13 1 2 0.11589 25.3934 11.4908 8.12521
14 1 2 0.11589 11.1386 9.60096 6.7889
15 1 2 0.115888 11.1386 11.4908 8.12521
16 1 2 0.115888 25.3934 9.60096 6.7889
17 1 2 0.115889 15.5206 8.96083 0.969417
18 1 2 0.115889 21.0114 12.1309 13.9447
19 1 2 0.115888 22.648 13.0758 12.6084
20 1 2 0.115888 13.884 8.01592 2.30572
21 1 2 0.115889 21.0114 3.90092 8.12521
22 1 2 0.115889 15.5206 17.1908 6.7889
23 1 2 0.115887 13.884 16.2459 8.12521
24 1 2 0.115887 22.648 4.84583 6.7889
25 1 2 0.115889 22.648 16.2459 8.12521
26 1 2 0.115889 13.884 4.84583 6.7889
27 1 2 0.115887 15.5206 3.90092 8.12521
28 1 2 0.115887 21.0114 17.1908 6.7889
29 1 2 0.115889 21.0114 8.96083 0.969417
30 1 2 0.115889 15.5206 12.1309 13.9447
31 1 2 0.115887 13.884 13.0758 12.6084
32 1 2 0.115887 22.648 8.01592 2.30572
33 1 3 0.671939 27.399 18.7442 13.2542
34 1 3 0.671939 9.13299 2.34751 1.65994
35 1 3 0.671939 27.399 12.8934 9.117
36 1 3 0.671939 9.13299 8.19836 5.79712
37 1 3 0.67194 24.8655 14.3561 13.2542
38 1 3 0.67194 11.6665 6.73565 1.65994
39 1 3 0.67194 29.9325 17.2815 9.117
40 1 3 0.67194 6.5995 3.81022 5.79712
41 1 3 0.67194 24.8655 17.2815 9.117
42 1 3 0.67194 11.6665 3.81022 5.79712
43 1 3 0.67194 29.9325 14.3561 13.2542
44 1 3 0.67194 6.5995 6.73565 1.65994
45 1 3 -0.11508 27.399 19.957 14.1117
46 1 3 -0.11508 9.13299 1.13474 0.802379
47 1 3 -0.11508 27.399 11.6806 8.25944
48 1 3 -0.11508 9.13299 9.41113 6.65468
49 1 3 -0.11508 23.8152 13.7497 14.1117
50 1 3 -0.11508 12.7168 7.34203 0.802379
51 1 3 -0.11508 30.9828 17.8879 8.25944
52 1 3 -0.11508 5.54921 3.20384 6.65468
53 1 3 -0.11508 23.8152 17.8879 8.25944
54 1 3 -0.11508 12.7168 3.20384 6.65468
55 1 3 -0.11508 30.9828 13.7497 14.1117
56 1 3 -0.11508 5.54921 7.34203 0.802379
57 1 3 -0.0559 18.266 5.39949 13.5316
58 1 3 -0.0559 18.266 15.6923 1.38254
59 1 3 -0.055903 18.266 14.5575 0.580159
60 1 3 -0.055903 18.266 6.53422 14.334
61 1 3 -0.0559 26.1971 11.1132 7.85825
62 1 3 -0.0559 10.3349 9.9785 7.05587
63 1 3 -0.055903 10.3349 11.1132 7.85825
64 1 3 -0.055903 26.1971 9.9785 7.05587
65 1 3 -0.0559 14.7918 8.54005 0.580159
66 1 3 -0.0559 21.7402 12.5517 14.334
67 1 3 -0.055903 22.7229 13.1191 13.5316
68 1 3 -0.055903 13.8091 7.97268 1.38254
69 1 3 -0.0559 21.7402 3.39366 7.85825
70 1 3 -0.0559 14.7918 17.6981 7.05587
71 1 3 -0.055903 13.8091 17.1307 7.85825
72 1 3 -0.055903 22.7229 3.96103 7.05587
73 1 3 -0.055901 22.7229 17.1307 7.85825
74 1 3 -0.055901 13.8091 3.96103 7.05587
75 1 3 -0.055903 14.7918 3.39366 7.85825
76 1 3 -0.055903 21.7402 17.6981 7.05587
77 1 3 -0.0559 21.7402 8.54005 0.580159
78 1 3 -0.0559 14.7918 12.5517 14.334
79 1 3 -0.055903 13.8091 13.1191 13.5316
80 1 3 -0.055903 22.7229 7.97268 1.38254
81 1 4 -1.26215 27.399 15.8188 11.1856
82 1 4 -1.26215 9.13299 5.27293 3.72853
83 1 4 -0.60118 27.399 18.9383 11.9641
84 1 4 -0.60118 9.13299 2.15347 2.95001
85 1 4 -0.601179 27.399 17.5926 13.8671
86 1 4 -0.601179 9.13299 3.49912 1.04697
87 1 4 -0.601179 26.2336 13.3722 9.45555
88 1 4 -0.601179 10.2984 7.71958 5.45857
89 1 4 -0.60118 28.5643 13.3722 9.45555
90 1 4 -0.60118 7.96762 7.71958 5.45857
91 1 4 -0.60118 25.8628 14.9319 13.8671
92 1 4 -0.60118 10.6692 6.15984 1.04697
93 1 4 -0.601179 24.6974 14.2591 11.9641
94 1 4 -0.601179 11.8345 6.83267 2.95001
95 1 4 -0.60118 28.9351 18.0514 9.45555
96 1 4 -0.60118 7.59682 3.04037 5.45857
97 1 4 -0.601179 30.1005 16.0329 9.45555
98 1 4 -0.601179 6.43145 5.05885 5.45857
99 1 4 -0.601179 24.6974 16.0329 9.45555
100 1 4 -0.601179 11.8345 5.05885 5.45857
101 1 4 -0.60118 25.8628 18.0514 9.45555
102 1 4 -0.60118 10.6692 3.04037 5.45857
103 1 4 -0.60118 28.9351 14.9319 13.8671
104 1 4 -0.60118 7.59682 6.15984 1.04697
105 1 4 -0.60118 30.1005 14.2591 11.9641
106 1 4 -0.60118 6.43145 6.83267 2.95001
ITEM: TIMESTEP
42000
ITEM: NUMBER OF ATOMS
106
ITEM: BOX BOUNDS xy xz yz pp pp pp
0.0000000000000000e+00 3.6531964750000000e+01 9.1329911900000003e+00
0.0000000000000000e+00 2.1091739680000000e+01 9.1329911900000003e+00
0.0000000000000000e+00 1.4914112149999999e+01 5.2729349200000000e+00
ITEM: ATOMS id mol type q x y z
1 1 1 1.10383 27.399 17.6496 10.5383
2 1 1 1.10383 9.13299 3.44217 4.3758
3 1 1 1.10383 27.399 15.8188 13.1274
4 1 1 1.10383 9.13299 5.27293 1.78671
5 1 1 1.10383 25.8135 14.9034 10.5383
6 1 1 1.10383 10.7185 6.18832 4.3758
7 1 1 1.10383 28.9845 14.9034 10.5383
8 1 1 1.10383 7.5475 6.18832 4.3758
9 1 2 0.115889 18.266 5.48596 12.6084
10 1 2 0.115889 18.266 15.6058 2.30572
11 1 2 0.115888 18.266 13.716 0.969417
12 1 2 0.115888 18.266 7.37578 13.9447
13 1 2 0.11589 25.3934 11.4908 8.12521
14 1 2 0.11589 11.1386 9.60096 6.7889
15 1 2 0.115888 11.1386 11.4908 8.12521
16 1 2 0.115888 25.3934 9.60096 6.7889
17 1 2 0.115889 15.5206 8.96083 0.969417
18 1 2 0.115889 21.0114 12.1309 13.9447
19 1 2 0.115888 22.648 13.0758 12.6084
20 1 2 0.115888 13.884 8.01592 2.30572
21 1 2 0.115889 21.0114 3.90092 8.12521
22 1 2 0.115889 15.5206 17.1908 6.7889
23 1 2 0.115887 13.884 16.2459 8.12521
24 1 2 0.115887 22.648 4.84583 6.7889
25 1 2 0.115889 22.648 16.2459 8.12521
26 1 2 0.115889 13.884 4.84583 6.7889
27 1 2 0.115887 15.5206 3.90092 8.12521
28 1 2 0.115887 21.0114 17.1908 6.7889
29 1 2 0.115889 21.0114 8.96083 0.969417
30 1 2 0.115889 15.5206 12.1309 13.9447
31 1 2 0.115887 13.884 13.0758 12.6084
32 1 2 0.115887 22.648 8.01592 2.30572
33 1 3 0.671939 27.399 18.7442 13.2542
34 1 3 0.671939 9.13299 2.34751 1.65994
35 1 3 0.671939 27.399 12.8934 9.117
36 1 3 0.671939 9.13299 8.19836 5.79712
37 1 3 0.67194 24.8655 14.3561 13.2542
38 1 3 0.67194 11.6665 6.73565 1.65994
39 1 3 0.67194 29.9325 17.2815 9.117
40 1 3 0.67194 6.5995 3.81022 5.79712
41 1 3 0.67194 24.8655 17.2815 9.117
42 1 3 0.67194 11.6665 3.81022 5.79712
43 1 3 0.67194 29.9325 14.3561 13.2542
44 1 3 0.67194 6.5995 6.73565 1.65994
45 1 3 -0.11508 27.399 19.957 14.1117
46 1 3 -0.11508 9.13299 1.13474 0.802379
47 1 3 -0.11508 27.399 11.6806 8.25944
48 1 3 -0.11508 9.13299 9.41113 6.65468
49 1 3 -0.11508 23.8152 13.7497 14.1117
50 1 3 -0.11508 12.7168 7.34203 0.802379
51 1 3 -0.11508 30.9828 17.8879 8.25944
52 1 3 -0.11508 5.54921 3.20384 6.65468
53 1 3 -0.11508 23.8152 17.8879 8.25944
54 1 3 -0.11508 12.7168 3.20384 6.65468
55 1 3 -0.11508 30.9828 13.7497 14.1117
56 1 3 -0.11508 5.54921 7.34203 0.802379
57 1 3 -0.0559 18.266 5.39949 13.5316
58 1 3 -0.0559 18.266 15.6923 1.38254
59 1 3 -0.055903 18.266 14.5575 0.580159
60 1 3 -0.055903 18.266 6.53422 14.334
61 1 3 -0.0559 26.1971 11.1132 7.85825
62 1 3 -0.0559 10.3349 9.9785 7.05587
63 1 3 -0.055903 10.3349 11.1132 7.85825
64 1 3 -0.055903 26.1971 9.9785 7.05587
65 1 3 -0.0559 14.7918 8.54005 0.580159
66 1 3 -0.0559 21.7402 12.5517 14.334
67 1 3 -0.055903 22.7229 13.1191 13.5316
68 1 3 -0.055903 13.8091 7.97268 1.38254
69 1 3 -0.0559 21.7402 3.39366 7.85825
70 1 3 -0.0559 14.7918 17.6981 7.05587
71 1 3 -0.055903 13.8091 17.1307 7.85825
72 1 3 -0.055903 22.7229 3.96103 7.05587
73 1 3 -0.055901 22.7229 17.1307 7.85825
74 1 3 -0.055901 13.8091 3.96103 7.05587
75 1 3 -0.055903 14.7918 3.39366 7.85825
76 1 3 -0.055903 21.7402 17.6981 7.05587
77 1 3 -0.0559 21.7402 8.54005 0.580159
78 1 3 -0.0559 14.7918 12.5517 14.334
79 1 3 -0.055903 13.8091 13.1191 13.5316
80 1 3 -0.055903 22.7229 7.97268 1.38254
81 1 4 -1.26215 27.399 15.8188 11.1856
82 1 4 -1.26215 9.13299 5.27293 3.72853
83 1 4 -0.60118 27.399 18.9383 11.9641
84 1 4 -0.60118 9.13299 2.15347 2.95001
85 1 4 -0.601179 27.399 17.5926 13.8671
86 1 4 -0.601179 9.13299 3.49912 1.04697
87 1 4 -0.601179 26.2336 13.3722 9.45555
88 1 4 -0.601179 10.2984 7.71958 5.45857
89 1 4 -0.60118 28.5643 13.3722 9.45555
90 1 4 -0.60118 7.96762 7.71958 5.45857
91 1 4 -0.60118 25.8628 14.9319 13.8671
92 1 4 -0.60118 10.6692 6.15984 1.04697
93 1 4 -0.601179 24.6974 14.2591 11.9641
94 1 4 -0.601179 11.8345 6.83267 2.95001
95 1 4 -0.60118 28.9351 18.0514 9.45555
96 1 4 -0.60118 7.59682 3.04037 5.45857
97 1 4 -0.601179 30.1005 16.0329 9.45555
98 1 4 -0.601179 6.43145 5.05885 5.45857
99 1 4 -0.601179 24.6974 16.0329 9.45555
100 1 4 -0.601179 11.8345 5.05885 5.45857
101 1 4 -0.60118 25.8628 18.0514 9.45555
102 1 4 -0.60118 10.6692 3.04037 5.45857
103 1 4 -0.60118 28.9351 14.9319 13.8671
104 1 4 -0.60118 7.59682 6.15984 1.04697
105 1 4 -0.60118 30.1005 14.2591 11.9641
106 1 4 -0.60118 6.43145 6.83267 2.95001
ITEM: TIMESTEP
43000
ITEM: NUMBER OF ATOMS
109
ITEM: BOX BOUNDS xy xz yz pp pp pp
0.0000000000000000e+00 3.6531964750000000e+01 9.1329911900000003e+00
0.0000000000000000e+00 2.1091739680000000e+01 9.1329911900000003e+00
0.0000000000000000e+00 1.4914112149999999e+01 5.2729349200000000e+00
ITEM: ATOMS id mol type q x y z
1 1 1 1.10383 27.399 17.6496 10.5383
2 1 1 1.10383 9.13299 3.44217 4.3758
3 1 1 1.10383 27.399 15.8188 13.1274
4 1 1 1.10383 9.13299 5.27293 1.78671
5 1 1 1.10383 25.8135 14.9034 10.5383
6 1 1 1.10383 10.7185 6.18832 4.3758
7 1 1 1.10383 28.9845 14.9034 10.5383
8 1 1 1.10383 7.5475 6.18832 4.3758
9 1 2 0.115889 18.266 5.48596 12.6084
10 1 2 0.115889 18.266 15.6058 2.30572
11 1 2 0.115888 18.266 13.716 0.969417
12 1 2 0.115888 18.266 7.37578 13.9447
13 1 2 0.11589 25.3934 11.4908 8.12521
14 1 2 0.11589 11.1386 9.60096 6.7889
15 1 2 0.115888 11.1386 11.4908 8.12521
16 1 2 0.115888 25.3934 9.60096 6.7889
17 1 2 0.115889 15.5206 8.96083 0.969417
18 1 2 0.115889 21.0114 12.1309 13.9447
19 1 2 0.115888 22.648 13.0758 12.6084
20 1 2 0.115888 13.884 8.01592 2.30572
21 1 2 0.115889 21.0114 3.90092 8.12521
22 1 2 0.115889 15.5206 17.1908 6.7889
23 1 2 0.115887 13.884 16.2459 8.12521
24 1 2 0.115887 22.648 4.84583 6.7889
25 1 2 0.115889 22.648 16.2459 8.12521
26 1 2 0.115889 13.884 4.84583 6.7889
27 1 2 0.115887 15.5206 3.90092 8.12521
28 1 2 0.115887 21.0114 17.1908 6.7889
29 1 2 0.115889 21.0114 8.96083 0.969417
30 1 2 0.115889 15.5206 12.1309 13.9447
31 1 2 0.115887 13.884 13.0758 12.6084
32 1 2 0.115887 22.648 8.01592 2.30572
33 1 3 0.671939 27.399 18.7442 13.2542
34 1 3 0.671939 9.13299 2.34751 1.65994
35 1 3 0.671939 27.399 12.8934 9.117
36 1 3 0.671939 9.13299 8.19836 5.79712
37 1 3 0.67194 24.8655 14.3561 13.2542
38 1 3 0.67194 11.6665 6.73565 1.65994
39 1 3 0.67194 29.9325 17.2815 9.117
40 1 3 0.67194 6.5995 3.81022 5.79712
41 1 3 0.67194 24.8655 17.2815 9.117
42 1 3 0.67194 11.6665 3.81022 5.79712
43 1 3 0.67194 29.9325 14.3561 13.2542
44 1 3 0.67194 6.5995 6.73565 1.65994
45 1 3 -0.11508 27.399 19.957 14.1117
46 1 3 -0.11508 9.13299 1.13474 0.802379
47 1 3 -0.11508 27.399 11.6806 8.25944
48 1 3 -0.11508 9.13299 9.41113 6.65468
49 1 3 -0.11508 23.8152 13.7497 14.1117
50 1 3 -0.11508 12.7168 7.34203 0.802379
51 1 3 -0.11508 30.9828 17.8879 8.25944
52 1 3 -0.11508 5.54921 3.20384 6.65468
53 1 3 -0.11508 23.8152 17.8879 8.25944
54 1 3 -0.11508 12.7168 3.20384 6.65468
55 1 3 -0.11508 30.9828 13.7497 14.1117
56 1 3 -0.11508 5.54921 7.34203 0.802379
57 1 3 -0.0559 18.266 5.39949 13.5316
58 1 3 -0.0559 18.266 15.6923 1.38254
59 1 3 -0.055903 18.266 14.5575 0.580159
60 1 3 -0.055903 18.266 6.53422 14.334
61 1 3 -0.0559 26.1971 11.1132 7.85825
62 1 3 -0.0559 10.3349 9.9785 7.05587
63 1 3 -0.055903 10.3349 11.1132 7.85825
64 1 3 -0.055903 26.1971 9.9785 7.05587
65 1 3 -0.0559 14.7918 8.54005 0.580159
66 1 3 -0.0559 21.7402 12.5517 14.334
67 1 3 -0.055903 22.7229 13.1191 13.5316
68 1 3 -0.055903 13.8091 7.97268 1.38254
69 1 3 -0.0559 21.7402 3.39366 7.85825
70 1 3 -0.0559 14.7918 17.6981 7.05587
71 1 3 -0.055903 13.8091 17.1307 7.85825
72 1 3 -0.055903 22.7229 3.96103 7.05587
73 1 3 -0.055901 22.7229 17.1307 7.85825
74 1 3 -0.055901 13.8091 3.96103 7.05587
75 1 3 -0.055903 14.7918 3.39366 7.85825
76 1 3 -0.055903 21.7402 17.6981 7.05587
77 1 3 -0.0559 21.7402 8.54005 0.580159
78 1 3 -0.0559 14.7918 12.5517 14.334
79 1 3 -0.055903 13.8091 13.1191 13.5316
80 1 3 -0.055903 22.7229 7.97268 1.38254
81 1 4 -1.26215 27.399 15.8188 11.1856
82 1 4 -1.26215 9.13299 5.27293 3.72853
83 1 4 -0.60118 27.399 18.9383 11.9641
84 1 4 -0.60118 9.13299 2.15347 2.95001
85 1 4 -0.601179 27.399 17.5926 13.8671
86 1 4 -0.601179 9.13299 3.49912 1.04697
87 1 4 -0.601179 26.2336 13.3722 9.45555
88 1 4 -0.601179 10.2984 7.71958 5.45857
89 1 4 -0.60118 28.5643 13.3722 9.45555
90 1 4 -0.60118 7.96762 7.71958 5.45857
91 1 4 -0.60118 25.8628 14.9319 13.8671
92 1 4 -0.60118 10.6692 6.15984 1.04697
93 1 4 -0.601179 24.6974 14.2591 11.9641
94 1 4 -0.601179 11.8345 6.83267 2.95001
95 1 4 -0.60118 28.9351 18.0514 9.45555
96 1 4 -0.60118 7.59682 3.04037 5.45857
97 1 4 -0.601179 30.1005 16.0329 9.45555
98 1 4 -0.601179 6.43145 5.05885 5.45857
99 1 4 -0.601179 24.6974 16.0329 9.45555
100 1 4 -0.601179 11.8345 5.05885 5.45857
101 1 4 -0.60118 25.8628 18.0514 9.45555
102 1 4 -0.60118 10.6692 3.04037 5.45857
103 1 4 -0.60118 28.9351 14.9319 13.8671
104 1 4 -0.60118 7.59682 6.15984 1.04697
105 1 4 -0.60118 30.1005 14.2591 11.9641
106 1 4 -0.60118 6.43145 6.83267 2.95001
107 2 5 -0.35 31.7077 17.6253 13.01
108 2 6 0.7 32.1899 18.0295 12.0354
109 2 5 -0.35 32.6721 18.4337 11.0609
ITEM: TIMESTEP
44000
ITEM: NUMBER OF ATOMS
106
ITEM: BOX BOUNDS xy xz yz pp pp pp
0.0000000000000000e+00 3.6531964750000000e+01 9.1329911900000003e+00
0.0000000000000000e+00 2.1091739680000000e+01 9.1329911900000003e+00
0.0000000000000000e+00 1.4914112149999999e+01 5.2729349200000000e+00
ITEM: ATOMS id mol type q x y z
1 1 1 1.10383 27.399 17.6496 10.5383
2 1 1 1.10383 9.13299 3.44217 4.3758
3 1 1 1.10383 27.399 15.8188 13.1274
4 1 1 1.10383 9.13299 5.27293 1.78671
5 1 1 1.10383 25.8135 14.9034 10.5383
6 1 1 1.10383 10.7185 6.18832 4.3758
7 1 1 1.10383 28.9845 14.9034 10.5383
8 1 1 1.10383 7.5475 6.18832 4.3758
9 1 2 0.115889 18.266 5.48596 12.6084
10 1 2 0.115889 18.266 15.6058 2.30572
11 1 2 0.115888 18.266 13.716 0.969417
12 1 2 0.115888 18.266 7.37578 13.9447
13 1 2 0.11589 25.3934 11.4908 8.12521
14 1 2 0.11589 11.1386 9.60096 6.7889
15 1 2 0.115888 11.1386 11.4908 8.12521
16 1 2 0.115888 25.3934 9.60096 6.7889
17 1 2 0.115889 15.5206 8.96083 0.969417
18 1 2 0.115889 21.0114 12.1309 13.9447
19 1 2 0.115888 22.648 13.0758 12.6084
20 1 2 0.115888 13.884 8.01592 2.30572
21 1 2 0.115889 21.0114 3.90092 8.12521
22 1 2 0.115889 15.5206 17.1908 6.7889
23 1 2 0.115887 13.884 16.2459 8.12521
24 1 2 0.115887 22.648 4.84583 6.7889
25 1 2 0.115889 22.648 16.2459 8.12521
26 1 2 0.115889 13.884 4.84583 6.7889
27 1 2 0.115887 15.5206 3.90092 8.12521
28 1 2 0.115887 21.0114 17.1908 6.7889
29 1 2 0.115889 21.0114 8.96083 0.969417
30 1 2 0.115889 15.5206 12.1309 13.9447
31 1 2 0.115887 13.884 13.0758 12.6084
32 1 2 0.115887 22.648 8.01592 2.30572
33 1 3 0.671939 27.399 18.7442 13.2542
34 1 3 0.671939 9.13299 2.34751 1.65994
35 1 3 0.671939 27.399 12.8934 9.117
36 1 3 0.671939 9.13299 8.19836 5.79712
37 1 3 0.67194 24.8655 14.3561 13.2542
38 1 3 0.67194 11.6665 6.73565 1.65994
39 1 3 0.67194 29.9325 17.2815 9.117
40 1 3 0.67194 6.5995 3.81022 5.79712
41 1 3 0.67194 24.8655 17.2815 9.117
42 1 3 0.67194 11.6665 3.81022 5.79712
43 1 3 0.67194 29.9325 14.3561 13.2542
44 1 3 0.67194 6.5995 6.73565 1.65994
45 1 3 -0.11508 27.399 19.957 14.1117
46 1 3 -0.11508 9.13299 1.13474 0.802379
47 1 3 -0.11508 27.399 11.6806 8.25944
48 1 3 -0.11508 9.13299 9.41113 6.65468
49 1 3 -0.11508 23.8152 13.7497 14.1117
50 1 3 -0.11508 12.7168 7.34203 0.802379
51 1 3 -0.11508 30.9828 17.8879 8.25944
52 1 3 -0.11508 5.54921 3.20384 6.65468
53 1 3 -0.11508 23.8152 17.8879 8.25944
54 1 3 -0.11508 12.7168 3.20384 6.65468
55 1 3 -0.11508 30.9828 13.7497 14.1117
56 1 3 -0.11508 5.54921 7.34203 0.802379
57 1 3 -0.0559 18.266 5.39949 13.5316
58 1 3 -0.0559 18.266 15.6923 1.38254
59 1 3 -0.055903 18.266 14.5575 0.580159
60 1 3 -0.055903 18.266 6.53422 14.334
61 1 3 -0.0559 26.1971 11.1132 7.85825
62 1 3 -0.0559 10.3349 9.9785 7.05587
63 1 3 -0.055903 10.3349 11.1132 7.85825
64 1 3 -0.055903 26.1971 9.9785 7.05587
65 1 3 -0.0559 14.7918 8.54005 0.580159
66 1 3 -0.0559 21.7402 12.5517 14.334
67 1 3 -0.055903 22.7229 13.1191 13.5316
68 1 3 -0.055903 13.8091 7.97268 1.38254
69 1 3 -0.0559 21.7402 3.39366 7.85825
70 1 3 -0.0559 14.7918 17.6981 7.05587
71 1 3 -0.055903 13.8091 17.1307 7.85825
72 1 3 -0.055903 22.7229 3.96103 7.05587
73 1 3 -0.055901 22.7229 17.1307 7.85825
74 1 3 -0.055901 13.8091 3.96103 7.05587
75 1 3 -0.055903 14.7918 3.39366 7.85825
76 1 3 -0.055903 21.7402 17.6981 7.05587
77 1 3 -0.0559 21.7402 8.54005 0.580159
78 1 3 -0.0559 14.7918 12.5517 14.334
79 1 3 -0.055903 13.8091 13.1191 13.5316
80 1 3 -0.055903 22.7229 7.97268 1.38254
81 1 4 -1.26215 27.399 15.8188 11.1856
82 1 4 -1.26215 9.13299 5.27293 3.72853
83 1 4 -0.60118 27.399 18.9383 11.9641
84 1 4 -0.60118 9.13299 2.15347 2.95001
85 1 4 -0.601179 27.399 17.5926 13.8671
86 1 4 -0.601179 9.13299 3.49912 1.04697
87 1 4 -0.601179 26.2336 13.3722 9.45555
88 1 4 -0.601179 10.2984 7.71958 5.45857
89 1 4 -0.60118 28.5643 13.3722 9.45555
90 1 4 -0.60118 7.96762 7.71958 5.45857
91 1 4 -0.60118 25.8628 14.9319 13.8671
92 1 4 -0.60118 10.6692 6.15984 1.04697
93 1 4 -0.601179 24.6974 14.2591 11.9641
94 1 4 -0.601179 11.8345 6.83267 2.95001
95 1 4 -0.60118 28.9351 18.0514 9.45555
96 1 4 -0.60118 7.59682 3.04037 5.45857
97 1 4 -0.601179 30.1005 16.0329 9.45555
98 1 4 -0.601179 6.43145 5.05885 5.45857
99 1 4 -0.601179 24.6974 16.0329 9.45555
100 1 4 -0.601179 11.8345 5.05885 5.45857
101 1 4 -0.60118 25.8628 18.0514 9.45555
102 1 4 -0.60118 10.6692 3.04037 5.45857
103 1 4 -0.60118 28.9351 14.9319 13.8671
104 1 4 -0.60118 7.59682 6.15984 1.04697
105 1 4 -0.60118 30.1005 14.2591 11.9641
106 1 4 -0.60118 6.43145 6.83267 2.95001
ITEM: TIMESTEP
45000
ITEM: NUMBER OF ATOMS
106
ITEM: BOX BOUNDS xy xz yz pp pp pp
0.0000000000000000e+00 3.6531964750000000e+01 9.1329911900000003e+00
0.0000000000000000e+00 2.1091739680000000e+01 9.1329911900000003e+00
0.0000000000000000e+00 1.4914112149999999e+01 5.2729349200000000e+00
ITEM: ATOMS id mol type q x y z
1 1 1 1.10383 27.399 17.6496 10.5383
2 1 1 1.10383 9.13299 3.44217 4.3758
3 1 1 1.10383 27.399 15.8188 13.1274
4 1 1 1.10383 9.13299 5.27293 1.78671
5 1 1 1.10383 25.8135 14.9034 10.5383
6 1 1 1.10383 10.7185 6.18832 4.3758
7 1 1 1.10383 28.9845 14.9034 10.5383
8 1 1 1.10383 7.5475 6.18832 4.3758
9 1 2 0.115889 18.266 5.48596 12.6084
10 1 2 0.115889 18.266 15.6058 2.30572
11 1 2 0.115888 18.266 13.716 0.969417
12 1 2 0.115888 18.266 7.37578 13.9447
13 1 2 0.11589 25.3934 11.4908 8.12521
14 1 2 0.11589 11.1386 9.60096 6.7889
15 1 2 0.115888 11.1386 11.4908 8.12521
16 1 2 0.115888 25.3934 9.60096 6.7889
17 1 2 0.115889 15.5206 8.96083 0.969417
18 1 2 0.115889 21.0114 12.1309 13.9447
19 1 2 0.115888 22.648 13.0758 12.6084
20 1 2 0.115888 13.884 8.01592 2.30572
21 1 2 0.115889 21.0114 3.90092 8.12521
22 1 2 0.115889 15.5206 17.1908 6.7889
23 1 2 0.115887 13.884 16.2459 8.12521
24 1 2 0.115887 22.648 4.84583 6.7889
25 1 2 0.115889 22.648 16.2459 8.12521
26 1 2 0.115889 13.884 4.84583 6.7889
27 1 2 0.115887 15.5206 3.90092 8.12521
28 1 2 0.115887 21.0114 17.1908 6.7889
29 1 2 0.115889 21.0114 8.96083 0.969417
30 1 2 0.115889 15.5206 12.1309 13.9447
31 1 2 0.115887 13.884 13.0758 12.6084
32 1 2 0.115887 22.648 8.01592 2.30572
33 1 3 0.671939 27.399 18.7442 13.2542
34 1 3 0.671939 9.13299 2.34751 1.65994
35 1 3 0.671939 27.399 12.8934 9.117
36 1 3 0.671939 9.13299 8.19836 5.79712
37 1 3 0.67194 24.8655 14.3561 13.2542
38 1 3 0.67194 11.6665 6.73565 1.65994
39 1 3 0.67194 29.9325 17.2815 9.117
40 1 3 0.67194 6.5995 3.81022 5.79712
41 1 3 0.67194 24.8655 17.2815 9.117
42 1 3 0.67194 11.6665 3.81022 5.79712
43 1 3 0.67194 29.9325 14.3561 13.2542
44 1 3 0.67194 6.5995 6.73565 1.65994
45 1 3 -0.11508 27.399 19.957 14.1117
46 1 3 -0.11508 9.13299 1.13474 0.802379
47 1 3 -0.11508 27.399 11.6806 8.25944
48 1 3 -0.11508 9.13299 9.41113 6.65468
49 1 3 -0.11508 23.8152 13.7497 14.1117
50 1 3 -0.11508 12.7168 7.34203 0.802379
51 1 3 -0.11508 30.9828 17.8879 8.25944
52 1 3 -0.11508 5.54921 3.20384 6.65468
53 1 3 -0.11508 23.8152 17.8879 8.25944
54 1 3 -0.11508 12.7168 3.20384 6.65468
55 1 3 -0.11508 30.9828 13.7497 14.1117
56 1 3 -0.11508 5.54921 7.34203 0.802379
57 1 3 -0.0559 18.266 5.39949 13.5316
58 1 3 -0.0559 18.266 15.6923 1.38254
59 1 3 -0.055903 18.266 14.5575 0.580159
60 1 3 -0.055903 18.266 6.53422 14.334
61 1 3 -0.0559 26.1971 11.1132 7.85825
62 1 3 -0.0559 10.3349 9.9785 7.05587
63 1 3 -0.055903 10.3349 11.1132 7.85825
64 1 3 -0.055903 26.1971 9.9785 7.05587
65 1 3 -0.0559 14.7918 8.54005 0.580159
66 1 3 -0.0559 21.7402 12.5517 14.334
67 1 3 -0.055903 22.7229 13.1191 13.5316
68 1 3 -0.055903 13.8091 7.97268 1.38254
69 1 3 -0.0559 21.7402 3.39366 7.85825
70 1 3 -0.0559 14.7918 17.6981 7.05587
71 1 3 -0.055903 13.8091 17.1307 7.85825
72 1 3 -0.055903 22.7229 3.96103 7.05587
73 1 3 -0.055901 22.7229 17.1307 7.85825
74 1 3 -0.055901 13.8091 3.96103 7.05587
75 1 3 -0.055903 14.7918 3.39366 7.85825
76 1 3 -0.055903 21.7402 17.6981 7.05587
77 1 3 -0.0559 21.7402 8.54005 0.580159
78 1 3 -0.0559 14.7918 12.5517 14.334
79 1 3 -0.055903 13.8091 13.1191 13.5316
80 1 3 -0.055903 22.7229 7.97268 1.38254
81 1 4 -1.26215 27.399 15.8188 11.1856
82 1 4 -1.26215 9.13299 5.27293 3.72853
83 1 4 -0.60118 27.399 18.9383 11.9641
84 1 4 -0.60118 9.13299 2.15347 2.95001
85 1 4 -0.601179 27.399 17.5926 13.8671
86 1 4 -0.601179 9.13299 3.49912 1.04697
87 1 4 -0.601179 26.2336 13.3722 9.45555
88 1 4 -0.601179 10.2984 7.71958 5.45857
89 1 4 -0.60118 28.5643 13.3722 9.45555
90 1 4 -0.60118 7.96762 7.71958 5.45857
91 1 4 -0.60118 25.8628 14.9319 13.8671
92 1 4 -0.60118 10.6692 6.15984 1.04697
93 1 4 -0.601179 24.6974 14.2591 11.9641
94 1 4 -0.601179 11.8345 6.83267 2.95001
95 1 4 -0.60118 28.9351 18.0514 9.45555
96 1 4 -0.60118 7.59682 3.04037 5.45857
97 1 4 -0.601179 30.1005 16.0329 9.45555
98 1 4 -0.601179 6.43145 5.05885 5.45857
99 1 4 -0.601179 24.6974 16.0329 9.45555
100 1 4 -0.601179 11.8345 5.05885 5.45857
101 1 4 -0.60118 25.8628 18.0514 9.45555
102 1 4 -0.60118 10.6692 3.04037 5.45857
103 1 4 -0.60118 28.9351 14.9319 13.8671
104 1 4 -0.60118 7.59682 6.15984 1.04697
105 1 4 -0.60118 30.1005 14.2591 11.9641
106 1 4 -0.60118 6.43145 6.83267 2.95001
ITEM: TIMESTEP
46000
ITEM: NUMBER OF ATOMS
106
ITEM: BOX BOUNDS xy xz yz pp pp pp
0.0000000000000000e+00 3.6531964750000000e+01 9.1329911900000003e+00
0.0000000000000000e+00 2.1091739680000000e+01 9.1329911900000003e+00
0.0000000000000000e+00 1.4914112149999999e+01 5.2729349200000000e+00
ITEM: ATOMS id mol type q x y z
1 1 1 1.10383 27.399 17.6496 10.5383
2 1 1 1.10383 9.13299 3.44217 4.3758
3 1 1 1.10383 27.399 15.8188 13.1274
4 1 1 1.10383 9.13299 5.27293 1.78671
5 1 1 1.10383 25.8135 14.9034 10.5383
6 1 1 1.10383 10.7185 6.18832 4.3758
7 1 1 1.10383 28.9845 14.9034 10.5383
8 1 1 1.10383 7.5475 6.18832 4.3758
9 1 2 0.115889 18.266 5.48596 12.6084
10 1 2 0.115889 18.266 15.6058 2.30572
11 1 2 0.115888 18.266 13.716 0.969417
12 1 2 0.115888 18.266 7.37578 13.9447
13 1 2 0.11589 25.3934 11.4908 8.12521
14 1 2 0.11589 11.1386 9.60096 6.7889
15 1 2 0.115888 11.1386 11.4908 8.12521
16 1 2 0.115888 25.3934 9.60096 6.7889
17 1 2 0.115889 15.5206 8.96083 0.969417
18 1 2 0.115889 21.0114 12.1309 13.9447
19 1 2 0.115888 22.648 13.0758 12.6084
20 1 2 0.115888 13.884 8.01592 2.30572
21 1 2 0.115889 21.0114 3.90092 8.12521
22 1 2 0.115889 15.5206 17.1908 6.7889
23 1 2 0.115887 13.884 16.2459 8.12521
24 1 2 0.115887 22.648 4.84583 6.7889
25 1 2 0.115889 22.648 16.2459 8.12521
26 1 2 0.115889 13.884 4.84583 6.7889
27 1 2 0.115887 15.5206 3.90092 8.12521
28 1 2 0.115887 21.0114 17.1908 6.7889
29 1 2 0.115889 21.0114 8.96083 0.969417
30 1 2 0.115889 15.5206 12.1309 13.9447
31 1 2 0.115887 13.884 13.0758 12.6084
32 1 2 0.115887 22.648 8.01592 2.30572
33 1 3 0.671939 27.399 18.7442 13.2542
34 1 3 0.671939 9.13299 2.34751 1.65994
35 1 3 0.671939 27.399 12.8934 9.117
36 1 3 0.671939 9.13299 8.19836 5.79712
37 1 3 0.67194 24.8655 14.3561 13.2542
38 1 3 0.67194 11.6665 6.73565 1.65994
39 1 3 0.67194 29.9325 17.2815 9.117
40 1 3 0.67194 6.5995 3.81022 5.79712
41 1 3 0.67194 24.8655 17.2815 9.117
42 1 3 0.67194 11.6665 3.81022 5.79712
43 1 3 0.67194 29.9325 14.3561 13.2542
44 1 3 0.67194 6.5995 6.73565 1.65994
45 1 3 -0.11508 27.399 19.957 14.1117
46 1 3 -0.11508 9.13299 1.13474 0.802379
47 1 3 -0.11508 27.399 11.6806 8.25944
48 1 3 -0.11508 9.13299 9.41113 6.65468
49 1 3 -0.11508 23.8152 13.7497 14.1117
50 1 3 -0.11508 12.7168 7.34203 0.802379
51 1 3 -0.11508 30.9828 17.8879 8.25944
52 1 3 -0.11508 5.54921 3.20384 6.65468
53 1 3 -0.11508 23.8152 17.8879 8.25944
54 1 3 -0.11508 12.7168 3.20384 6.65468
55 1 3 -0.11508 30.9828 13.7497 14.1117
56 1 3 -0.11508 5.54921 7.34203 0.802379
57 1 3 -0.0559 18.266 5.39949 13.5316
58 1 3 -0.0559 18.266 15.6923 1.38254
59 1 3 -0.055903 18.266 14.5575 0.580159
60 1 3 -0.055903 18.266 6.53422 14.334
61 1 3 -0.0559 26.1971 11.1132 7.85825
62 1 3 -0.0559 10.3349 9.9785 7.05587
63 1 3 -0.055903 10.3349 11.1132 7.85825
64 1 3 -0.055903 26.1971 9.9785 7.05587
65 1 3 -0.0559 14.7918 8.54005 0.580159
66 1 3 -0.0559 21.7402 12.5517 14.334
67 1 3 -0.055903 22.7229 13.1191 13.5316
68 1 3 -0.055903 13.8091 7.97268 1.38254
69 1 3 -0.0559 21.7402 3.39366 7.85825
70 1 3 -0.0559 14.7918 17.6981 7.05587
71 1 3 -0.055903 13.8091 17.1307 7.85825
72 1 3 -0.055903 22.7229 3.96103 7.05587
73 1 3 -0.055901 22.7229 17.1307 7.85825
74 1 3 -0.055901 13.8091 3.96103 7.05587
75 1 3 -0.055903 14.7918 3.39366 7.85825
76 1 3 -0.055903 21.7402 17.6981 7.05587
77 1 3 -0.0559 21.7402 8.54005 0.580159
78 1 3 -0.0559 14.7918 12.5517 14.334
79 1 3 -0.055903 13.8091 13.1191 13.5316
80 1 3 -0.055903 22.7229 7.97268 1.38254
81 1 4 -1.26215 27.399 15.8188 11.1856
82 1 4 -1.26215 9.13299 5.27293 3.72853
83 1 4 -0.60118 27.399 18.9383 11.9641
84 1 4 -0.60118 9.13299 2.15347 2.95001
85 1 4 -0.601179 27.399 17.5926 13.8671
86 1 4 -0.601179 9.13299 3.49912 1.04697
87 1 4 -0.601179 26.2336 13.3722 9.45555
88 1 4 -0.601179 10.2984 7.71958 5.45857
89 1 4 -0.60118 28.5643 13.3722 9.45555
90 1 4 -0.60118 7.96762 7.71958 5.45857
91 1 4 -0.60118 25.8628 14.9319 13.8671
92 1 4 -0.60118 10.6692 6.15984 1.04697
93 1 4 -0.601179 24.6974 14.2591 11.9641
94 1 4 -0.601179 11.8345 6.83267 2.95001
95 1 4 -0.60118 28.9351 18.0514 9.45555
96 1 4 -0.60118 7.59682 3.04037 5.45857
97 1 4 -0.601179 30.1005 16.0329 9.45555
98 1 4 -0.601179 6.43145 5.05885 5.45857
99 1 4 -0.601179 24.6974 16.0329 9.45555
100 1 4 -0.601179 11.8345 5.05885 5.45857
101 1 4 -0.60118 25.8628 18.0514 9.45555
102 1 4 -0.60118 10.6692 3.04037 5.45857
103 1 4 -0.60118 28.9351 14.9319 13.8671
104 1 4 -0.60118 7.59682 6.15984 1.04697
105 1 4 -0.60118 30.1005 14.2591 11.9641
106 1 4 -0.60118 6.43145 6.83267 2.95001
ITEM: TIMESTEP
47000
ITEM: NUMBER OF ATOMS
106
ITEM: BOX BOUNDS xy xz yz pp pp pp
0.0000000000000000e+00 3.6531964750000000e+01 9.1329911900000003e+00
0.0000000000000000e+00 2.1091739680000000e+01 9.1329911900000003e+00
0.0000000000000000e+00 1.4914112149999999e+01 5.2729349200000000e+00
ITEM: ATOMS id mol type q x y z
1 1 1 1.10383 27.399 17.6496 10.5383
2 1 1 1.10383 9.13299 3.44217 4.3758
3 1 1 1.10383 27.399 15.8188 13.1274
4 1 1 1.10383 9.13299 5.27293 1.78671
5 1 1 1.10383 25.8135 14.9034 10.5383
6 1 1 1.10383 10.7185 6.18832 4.3758
7 1 1 1.10383 28.9845 14.9034 10.5383
8 1 1 1.10383 7.5475 6.18832 4.3758
9 1 2 0.115889 18.266 5.48596 12.6084
10 1 2 0.115889 18.266 15.6058 2.30572
11 1 2 0.115888 18.266 13.716 0.969417
12 1 2 0.115888 18.266 7.37578 13.9447
13 1 2 0.11589 25.3934 11.4908 8.12521
14 1 2 0.11589 11.1386 9.60096 6.7889
15 1 2 0.115888 11.1386 11.4908 8.12521
16 1 2 0.115888 25.3934 9.60096 6.7889
17 1 2 0.115889 15.5206 8.96083 0.969417
18 1 2 0.115889 21.0114 12.1309 13.9447
19 1 2 0.115888 22.648 13.0758 12.6084
20 1 2 0.115888 13.884 8.01592 2.30572
21 1 2 0.115889 21.0114 3.90092 8.12521
22 1 2 0.115889 15.5206 17.1908 6.7889
23 1 2 0.115887 13.884 16.2459 8.12521
24 1 2 0.115887 22.648 4.84583 6.7889
25 1 2 0.115889 22.648 16.2459 8.12521
26 1 2 0.115889 13.884 4.84583 6.7889
27 1 2 0.115887 15.5206 3.90092 8.12521
28 1 2 0.115887 21.0114 17.1908 6.7889
29 1 2 0.115889 21.0114 8.96083 0.969417
30 1 2 0.115889 15.5206 12.1309 13.9447
31 1 2 0.115887 13.884 13.0758 12.6084
32 1 2 0.115887 22.648 8.01592 2.30572
33 1 3 0.671939 27.399 18.7442 13.2542
34 1 3 0.671939 9.13299 2.34751 1.65994
35 1 3 0.671939 27.399 12.8934 9.117
36 1 3 0.671939 9.13299 8.19836 5.79712
37 1 3 0.67194 24.8655 14.3561 13.2542
38 1 3 0.67194 11.6665 6.73565 1.65994
39 1 3 0.67194 29.9325 17.2815 9.117
40 1 3 0.67194 6.5995 3.81022 5.79712
41 1 3 0.67194 24.8655 17.2815 9.117
42 1 3 0.67194 11.6665 3.81022 5.79712
43 1 3 0.67194 29.9325 14.3561 13.2542
44 1 3 0.67194 6.5995 6.73565 1.65994
45 1 3 -0.11508 27.399 19.957 14.1117
46 1 3 -0.11508 9.13299 1.13474 0.802379
47 1 3 -0.11508 27.399 11.6806 8.25944
48 1 3 -0.11508 9.13299 9.41113 6.65468
49 1 3 -0.11508 23.8152 13.7497 14.1117
50 1 3 -0.11508 12.7168 7.34203 0.802379
51 1 3 -0.11508 30.9828 17.8879 8.25944
52 1 3 -0.11508 5.54921 3.20384 6.65468
53 1 3 -0.11508 23.8152 17.8879 8.25944
54 1 3 -0.11508 12.7168 3.20384 6.65468
55 1 3 -0.11508 30.9828 13.7497 14.1117
56 1 3 -0.11508 5.54921 7.34203 0.802379
57 1 3 -0.0559 18.266 5.39949 13.5316
58 1 3 -0.0559 18.266 15.6923 1.38254
59 1 3 -0.055903 18.266 14.5575 0.580159
60 1 3 -0.055903 18.266 6.53422 14.334
61 1 3 -0.0559 26.1971 11.1132 7.85825
62 1 3 -0.0559 10.3349 9.9785 7.05587
63 1 3 -0.055903 10.3349 11.1132 7.85825
64 1 3 -0.055903 26.1971 9.9785 7.05587
65 1 3 -0.0559 14.7918 8.54005 0.580159
66 1 3 -0.0559 21.7402 12.5517 14.334
67 1 3 -0.055903 22.7229 13.1191 13.5316
68 1 3 -0.055903 13.8091 7.97268 1.38254
69 1 3 -0.0559 21.7402 3.39366 7.85825
70 1 3 -0.0559 14.7918 17.6981 7.05587
71 1 3 -0.055903 13.8091 17.1307 7.85825
72 1 3 -0.055903 22.7229 3.96103 7.05587
73 1 3 -0.055901 22.7229 17.1307 7.85825
74 1 3 -0.055901 13.8091 3.96103 7.05587
75 1 3 -0.055903 14.7918 3.39366 7.85825
76 1 3 -0.055903 21.7402 17.6981 7.05587
77 1 3 -0.0559 21.7402 8.54005 0.580159
78 1 3 -0.0559 14.7918 12.5517 14.334
79 1 3 -0.055903 13.8091 13.1191 13.5316
80 1 3 -0.055903 22.7229 7.97268 1.38254
81 1 4 -1.26215 27.399 15.8188 11.1856
82 1 4 -1.26215 9.13299 5.27293 3.72853
83 1 4 -0.60118 27.399 18.9383 11.9641
84 1 4 -0.60118 9.13299 2.15347 2.95001
85 1 4 -0.601179 27.399 17.5926 13.8671
86 1 4 -0.601179 9.13299 3.49912 1.04697
87 1 4 -0.601179 26.2336 13.3722 9.45555
88 1 4 -0.601179 10.2984 7.71958 5.45857
89 1 4 -0.60118 28.5643 13.3722 9.45555
90 1 4 -0.60118 7.96762 7.71958 5.45857
91 1 4 -0.60118 25.8628 14.9319 13.8671
92 1 4 -0.60118 10.6692 6.15984 1.04697
93 1 4 -0.601179 24.6974 14.2591 11.9641
94 1 4 -0.601179 11.8345 6.83267 2.95001
95 1 4 -0.60118 28.9351 18.0514 9.45555
96 1 4 -0.60118 7.59682 3.04037 5.45857
97 1 4 -0.601179 30.1005 16.0329 9.45555
98 1 4 -0.601179 6.43145 5.05885 5.45857
99 1 4 -0.601179 24.6974 16.0329 9.45555
100 1 4 -0.601179 11.8345 5.05885 5.45857
101 1 4 -0.60118 25.8628 18.0514 9.45555
102 1 4 -0.60118 10.6692 3.04037 5.45857
103 1 4 -0.60118 28.9351 14.9319 13.8671
104 1 4 -0.60118 7.59682 6.15984 1.04697
105 1 4 -0.60118 30.1005 14.2591 11.9641
106 1 4 -0.60118 6.43145 6.83267 2.95001
ITEM: TIMESTEP
48000
ITEM: NUMBER OF ATOMS
106
ITEM: BOX BOUNDS xy xz yz pp pp pp
0.0000000000000000e+00 3.6531964750000000e+01 9.1329911900000003e+00
0.0000000000000000e+00 2.1091739680000000e+01 9.1329911900000003e+00
0.0000000000000000e+00 1.4914112149999999e+01 5.2729349200000000e+00
ITEM: ATOMS id mol type q x y z
1 1 1 1.10383 27.399 17.6496 10.5383
2 1 1 1.10383 9.13299 3.44217 4.3758
3 1 1 1.10383 27.399 15.8188 13.1274
4 1 1 1.10383 9.13299 5.27293 1.78671
5 1 1 1.10383 25.8135 14.9034 10.5383
6 1 1 1.10383 10.7185 6.18832 4.3758
7 1 1 1.10383 28.9845 14.9034 10.5383
8 1 1 1.10383 7.5475 6.18832 4.3758
9 1 2 0.115889 18.266 5.48596 12.6084
10 1 2 0.115889 18.266 15.6058 2.30572
11 1 2 0.115888 18.266 13.716 0.969417
12 1 2 0.115888 18.266 7.37578 13.9447
13 1 2 0.11589 25.3934 11.4908 8.12521
14 1 2 0.11589 11.1386 9.60096 6.7889
15 1 2 0.115888 11.1386 11.4908 8.12521
16 1 2 0.115888 25.3934 9.60096 6.7889
17 1 2 0.115889 15.5206 8.96083 0.969417
18 1 2 0.115889 21.0114 12.1309 13.9447
19 1 2 0.115888 22.648 13.0758 12.6084
20 1 2 0.115888 13.884 8.01592 2.30572
21 1 2 0.115889 21.0114 3.90092 8.12521
22 1 2 0.115889 15.5206 17.1908 6.7889
23 1 2 0.115887 13.884 16.2459 8.12521
24 1 2 0.115887 22.648 4.84583 6.7889
25 1 2 0.115889 22.648 16.2459 8.12521
26 1 2 0.115889 13.884 4.84583 6.7889
27 1 2 0.115887 15.5206 3.90092 8.12521
28 1 2 0.115887 21.0114 17.1908 6.7889
29 1 2 0.115889 21.0114 8.96083 0.969417
30 1 2 0.115889 15.5206 12.1309 13.9447
31 1 2 0.115887 13.884 13.0758 12.6084
32 1 2 0.115887 22.648 8.01592 2.30572
33 1 3 0.671939 27.399 18.7442 13.2542
34 1 3 0.671939 9.13299 2.34751 1.65994
35 1 3 0.671939 27.399 12.8934 9.117
36 1 3 0.671939 9.13299 8.19836 5.79712
37 1 3 0.67194 24.8655 14.3561 13.2542
38 1 3 0.67194 11.6665 6.73565 1.65994
39 1 3 0.67194 29.9325 17.2815 9.117
40 1 3 0.67194 6.5995 3.81022 5.79712
41 1 3 0.67194 24.8655 17.2815 9.117
42 1 3 0.67194 11.6665 3.81022 5.79712
43 1 3 0.67194 29.9325 14.3561 13.2542
44 1 3 0.67194 6.5995 6.73565 1.65994
45 1 3 -0.11508 27.399 19.957 14.1117
46 1 3 -0.11508 9.13299 1.13474 0.802379
47 1 3 -0.11508 27.399 11.6806 8.25944
48 1 3 -0.11508 9.13299 9.41113 6.65468
49 1 3 -0.11508 23.8152 13.7497 14.1117
50 1 3 -0.11508 12.7168 7.34203 0.802379
51 1 3 -0.11508 30.9828 17.8879 8.25944
52 1 3 -0.11508 5.54921 3.20384 6.65468
53 1 3 -0.11508 23.8152 17.8879 8.25944
54 1 3 -0.11508 12.7168 3.20384 6.65468
55 1 3 -0.11508 30.9828 13.7497 14.1117
56 1 3 -0.11508 5.54921 7.34203 0.802379
57 1 3 -0.0559 18.266 5.39949 13.5316
58 1 3 -0.0559 18.266 15.6923 1.38254
59 1 3 -0.055903 18.266 14.5575 0.580159
60 1 3 -0.055903 18.266 6.53422 14.334
61 1 3 -0.0559 26.1971 11.1132 7.85825
62 1 3 -0.0559 10.3349 9.9785 7.05587
63 1 3 -0.055903 10.3349 11.1132 7.85825
64 1 3 -0.055903 26.1971 9.9785 7.05587
65 1 3 -0.0559 14.7918 8.54005 0.580159
66 1 3 -0.0559 21.7402 12.5517 14.334
67 1 3 -0.055903 22.7229 13.1191 13.5316
68 1 3 -0.055903 13.8091 7.97268 1.38254
69 1 3 -0.0559 21.7402 3.39366 7.85825
70 1 3 -0.0559 14.7918 17.6981 7.05587
71 1 3 -0.055903 13.8091 17.1307 7.85825
72 1 3 -0.055903 22.7229 3.96103 7.05587
73 1 3 -0.055901 22.7229 17.1307 7.85825
74 1 3 -0.055901 13.8091 3.96103 7.05587
75 1 3 -0.055903 14.7918 3.39366 7.85825
76 1 3 -0.055903 21.7402 17.6981 7.05587
77 1 3 -0.0559 21.7402 8.54005 0.580159
78 1 3 -0.0559 14.7918 12.5517 14.334
79 1 3 -0.055903 13.8091 13.1191 13.5316
80 1 3 -0.055903 22.7229 7.97268 1.38254
81 1 4 -1.26215 27.399 15.8188 11.1856
82 1 4 -1.26215 9.13299 5.27293 3.72853
83 1 4 -0.60118 27.399 18.9383 11.9641
84 1 4 -0.60118 9.13299 2.15347 2.95001
85 1 4 -0.601179 27.399 17.5926 13.8671
86 1 4 -0.601179 9.13299 3.49912 1.04697
87 1 4 -0.601179 26.2336 13.3722 9.45555
88 1 4 -0.601179 10.2984 7.71958 5.45857
89 1 4 -0.60118 28.5643 13.3722 9.45555
90 1 4 -0.60118 7.96762 7.71958 5.45857
91 1 4 -0.60118 25.8628 14.9319 13.8671
92 1 4 -0.60118 10.6692 6.15984 1.04697
93 1 4 -0.601179 24.6974 14.2591 11.9641
94 1 4 -0.601179 11.8345 6.83267 2.95001
95 1 4 -0.60118 28.9351 18.0514 9.45555
96 1 4 -0.60118 7.59682 3.04037 5.45857
97 1 4 -0.601179 30.1005 16.0329 9.45555
98 1 4 -0.601179 6.43145 5.05885 5.45857
99 1 4 -0.601179 24.6974 16.0329 9.45555
100 1 4 -0.601179 11.8345 5.05885 5.45857
101 1 4 -0.60118 25.8628 18.0514 9.45555
102 1 4 -0.60118 10.6692 3.04037 5.45857
103 1 4 -0.60118 28.9351 14.9319 13.8671
104 1 4 -0.60118 7.59682 6.15984 1.04697
105 1 4 -0.60118 30.1005 14.2591 11.9641
106 1 4 -0.60118 6.43145 6.83267 2.95001
ITEM: TIMESTEP
49000
ITEM: NUMBER OF ATOMS
106
ITEM: BOX BOUNDS xy xz yz pp pp pp
0.0000000000000000e+00 3.6531964750000000e+01 9.1329911900000003e+00
0.0000000000000000e+00 2.1091739680000000e+01 9.1329911900000003e+00
0.0000000000000000e+00 1.4914112149999999e+01 5.2729349200000000e+00
ITEM: ATOMS id mol type q x y z
1 1 1 1.10383 27.399 17.6496 10.5383
2 1 1 1.10383 9.13299 3.44217 4.3758
3 1 1 1.10383 27.399 15.8188 13.1274
4 1 1 1.10383 9.13299 5.27293 1.78671
5 1 1 1.10383 25.8135 14.9034 10.5383
6 1 1 1.10383 10.7185 6.18832 4.3758
7 1 1 1.10383 28.9845 14.9034 10.5383
8 1 1 1.10383 7.5475 6.18832 4.3758
9 1 2 0.115889 18.266 5.48596 12.6084
10 1 2 0.115889 18.266 15.6058 2.30572
11 1 2 0.115888 18.266 13.716 0.969417
12 1 2 0.115888 18.266 7.37578 13.9447
13 1 2 0.11589 25.3934 11.4908 8.12521
14 1 2 0.11589 11.1386 9.60096 6.7889
15 1 2 0.115888 11.1386 11.4908 8.12521
16 1 2 0.115888 25.3934 9.60096 6.7889
17 1 2 0.115889 15.5206 8.96083 0.969417
18 1 2 0.115889 21.0114 12.1309 13.9447
19 1 2 0.115888 22.648 13.0758 12.6084
20 1 2 0.115888 13.884 8.01592 2.30572
21 1 2 0.115889 21.0114 3.90092 8.12521
22 1 2 0.115889 15.5206 17.1908 6.7889
23 1 2 0.115887 13.884 16.2459 8.12521
24 1 2 0.115887 22.648 4.84583 6.7889
25 1 2 0.115889 22.648 16.2459 8.12521
26 1 2 0.115889 13.884 4.84583 6.7889
27 1 2 0.115887 15.5206 3.90092 8.12521
28 1 2 0.115887 21.0114 17.1908 6.7889
29 1 2 0.115889 21.0114 8.96083 0.969417
30 1 2 0.115889 15.5206 12.1309 13.9447
31 1 2 0.115887 13.884 13.0758 12.6084
32 1 2 0.115887 22.648 8.01592 2.30572
33 1 3 0.671939 27.399 18.7442 13.2542
34 1 3 0.671939 9.13299 2.34751 1.65994
35 1 3 0.671939 27.399 12.8934 9.117
36 1 3 0.671939 9.13299 8.19836 5.79712
37 1 3 0.67194 24.8655 14.3561 13.2542
38 1 3 0.67194 11.6665 6.73565 1.65994
39 1 3 0.67194 29.9325 17.2815 9.117
40 1 3 0.67194 6.5995 3.81022 5.79712
41 1 3 0.67194 24.8655 17.2815 9.117
42 1 3 0.67194 11.6665 3.81022 5.79712
43 1 3 0.67194 29.9325 14.3561 13.2542
44 1 3 0.67194 6.5995 6.73565 1.65994
45 1 3 -0.11508 27.399 19.957 14.1117
46 1 3 -0.11508 9.13299 1.13474 0.802379
47 1 3 -0.11508 27.399 11.6806 8.25944
48 1 3 -0.11508 9.13299 9.41113 6.65468
49 1 3 -0.11508 23.8152 13.7497 14.1117
50 1 3 -0.11508 12.7168 7.34203 0.802379
51 1 3 -0.11508 30.9828 17.8879 8.25944
52 1 3 -0.11508 5.54921 3.20384 6.65468
53 1 3 -0.11508 23.8152 17.8879 8.25944
54 1 3 -0.11508 12.7168 3.20384 6.65468
55 1 3 -0.11508 30.9828 13.7497 14.1117
56 1 3 -0.11508 5.54921 7.34203 0.802379
57 1 3 -0.0559 18.266 5.39949 13.5316
58 1 3 -0.0559 18.266 15.6923 1.38254
59 1 3 -0.055903 18.266 14.5575 0.580159
60 1 3 -0.055903 18.266 6.53422 14.334
61 1 3 -0.0559 26.1971 11.1132 7.85825
62 1 3 -0.0559 10.3349 9.9785 7.05587
63 1 3 -0.055903 10.3349 11.1132 7.85825
64 1 3 -0.055903 26.1971 9.9785 7.05587
65 1 3 -0.0559 14.7918 8.54005 0.580159
66 1 3 -0.0559 21.7402 12.5517 14.334
67 1 3 -0.055903 22.7229 13.1191 13.5316
68 1 3 -0.055903 13.8091 7.97268 1.38254
69 1 3 -0.0559 21.7402 3.39366 7.85825
70 1 3 -0.0559 14.7918 17.6981 7.05587
71 1 3 -0.055903 13.8091 17.1307 7.85825
72 1 3 -0.055903 22.7229 3.96103 7.05587
73 1 3 -0.055901 22.7229 17.1307 7.85825
74 1 3 -0.055901 13.8091 3.96103 7.05587
75 1 3 -0.055903 14.7918 3.39366 7.85825
76 1 3 -0.055903 21.7402 17.6981 7.05587
77 1 3 -0.0559 21.7402 8.54005 0.580159
78 1 3 -0.0559 14.7918 12.5517 14.334
79 1 3 -0.055903 13.8091 13.1191 13.5316
80 1 3 -0.055903 22.7229 7.97268 1.38254
81 1 4 -1.26215 27.399 15.8188 11.1856
82 1 4 -1.26215 9.13299 5.27293 3.72853
83 1 4 -0.60118 27.399 18.9383 11.9641
84 1 4 -0.60118 9.13299 2.15347 2.95001
85 1 4 -0.601179 27.399 17.5926 13.8671
86 1 4 -0.601179 9.13299 3.49912 1.04697
87 1 4 -0.601179 26.2336 13.3722 9.45555
88 1 4 -0.601179 10.2984 7.71958 5.45857
89 1 4 -0.60118 28.5643 13.3722 9.45555
90 1 4 -0.60118 7.96762 7.71958 5.45857
91 1 4 -0.60118 25.8628 14.9319 13.8671
92 1 4 -0.60118 10.6692 6.15984 1.04697
93 1 4 -0.601179 24.6974 14.2591 11.9641
94 1 4 -0.601179 11.8345 6.83267 2.95001
95 1 4 -0.60118 28.9351 18.0514 9.45555
96 1 4 -0.60118 7.59682 3.04037 5.45857
97 1 4 -0.601179 30.1005 16.0329 9.45555
98 1 4 -0.601179 6.43145 5.05885 5.45857
99 1 4 -0.601179 24.6974 16.0329 9.45555
100 1 4 -0.601179 11.8345 5.05885 5.45857
101 1 4 -0.60118 25.8628 18.0514 9.45555
102 1 4 -0.60118 10.6692 3.04037 5.45857
103 1 4 -0.60118 28.9351 14.9319 13.8671
104 1 4 -0.60118 7.59682 6.15984 1.04697
105 1 4 -0.60118 30.1005 14.2591 11.9641
106 1 4 -0.60118 6.43145 6.83267 2.95001
ITEM: TIMESTEP
50000
ITEM: NUMBER OF ATOMS
106
ITEM: BOX BOUNDS xy xz yz pp pp pp
0.0000000000000000e+00 3.6531964750000000e+01 9.1329911900000003e+00
0.0000000000000000e+00 2.1091739680000000e+01 9.1329911900000003e+00
0.0000000000000000e+00 1.4914112149999999e+01 5.2729349200000000e+00
ITEM: ATOMS id mol type q x y z
1 1 1 1.10383 27.399 17.6496 10.5383
2 1 1 1.10383 9.13299 3.44217 4.3758
3 1 1 1.10383 27.399 15.8188 13.1274
4 1 1 1.10383 9.13299 5.27293 1.78671
5 1 1 1.10383 25.8135 14.9034 10.5383
6 1 1 1.10383 10.7185 6.18832 4.3758
7 1 1 1.10383 28.9845 14.9034 10.5383
8 1 1 1.10383 7.5475 6.18832 4.3758
9 1 2 0.115889 18.266 5.48596 12.6084
10 1 2 0.115889 18.266 15.6058 2.30572
11 1 2 0.115888 18.266 13.716 0.969417
12 1 2 0.115888 18.266 7.37578 13.9447
13 1 2 0.11589 25.3934 11.4908 8.12521
14 1 2 0.11589 11.1386 9.60096 6.7889
15 1 2 0.115888 11.1386 11.4908 8.12521
16 1 2 0.115888 25.3934 9.60096 6.7889
17 1 2 0.115889 15.5206 8.96083 0.969417
18 1 2 0.115889 21.0114 12.1309 13.9447
19 1 2 0.115888 22.648 13.0758 12.6084
20 1 2 0.115888 13.884 8.01592 2.30572
21 1 2 0.115889 21.0114 3.90092 8.12521
22 1 2 0.115889 15.5206 17.1908 6.7889
23 1 2 0.115887 13.884 16.2459 8.12521
24 1 2 0.115887 22.648 4.84583 6.7889
25 1 2 0.115889 22.648 16.2459 8.12521
26 1 2 0.115889 13.884 4.84583 6.7889
27 1 2 0.115887 15.5206 3.90092 8.12521
28 1 2 0.115887 21.0114 17.1908 6.7889
29 1 2 0.115889 21.0114 8.96083 0.969417
30 1 2 0.115889 15.5206 12.1309 13.9447
31 1 2 0.115887 13.884 13.0758 12.6084
32 1 2 0.115887 22.648 8.01592 2.30572
33 1 3 0.671939 27.399 18.7442 13.2542
34 1 3 0.671939 9.13299 2.34751 1.65994
35 1 3 0.671939 27.399 12.8934 9.117
36 1 3 0.671939 9.13299 8.19836 5.79712
37 1 3 0.67194 24.8655 14.3561 13.2542
38 1 3 0.67194 11.6665 6.73565 1.65994
39 1 3 0.67194 29.9325 17.2815 9.117
40 1 3 0.67194 6.5995 3.81022 5.79712
41 1 3 0.67194 24.8655 17.2815 9.117
42 1 3 0.67194 11.6665 3.81022 5.79712
43 1 3 0.67194 29.9325 14.3561 13.2542
44 1 3 0.67194 6.5995 6.73565 1.65994
45 1 3 -0.11508 27.399 19.957 14.1117
46 1 3 -0.11508 9.13299 1.13474 0.802379
47 1 3 -0.11508 27.399 11.6806 8.25944
48 1 3 -0.11508 9.13299 9.41113 6.65468
49 1 3 -0.11508 23.8152 13.7497 14.1117
50 1 3 -0.11508 12.7168 7.34203 0.802379
51 1 3 -0.11508 30.9828 17.8879 8.25944
52 1 3 -0.11508 5.54921 3.20384 6.65468
53 1 3 -0.11508 23.8152 17.8879 8.25944
54 1 3 -0.11508 12.7168 3.20384 6.65468
55 1 3 -0.11508 30.9828 13.7497 14.1117
56 1 3 -0.11508 5.54921 7.34203 0.802379
57 1 3 -0.0559 18.266 5.39949 13.5316
58 1 3 -0.0559 18.266 15.6923 1.38254
59 1 3 -0.055903 18.266 14.5575 0.580159
60 1 3 -0.055903 18.266 6.53422 14.334
61 1 3 -0.0559 26.1971 11.1132 7.85825
62 1 3 -0.0559 10.3349 9.9785 7.05587
63 1 3 -0.055903 10.3349 11.1132 7.85825
64 1 3 -0.055903 26.1971 9.9785 7.05587
65 1 3 -0.0559 14.7918 8.54005 0.580159
66 1 3 -0.0559 21.7402 12.5517 14.334
67 1 3 -0.055903 22.7229 13.1191 13.5316
68 1 3 -0.055903 13.8091 7.97268 1.38254
69 1 3 -0.0559 21.7402 3.39366 7.85825
70 1 3 -0.0559 14.7918 17.6981 7.05587
71 1 3 -0.055903 13.8091 17.1307 7.85825
72 1 3 -0.055903 22.7229 3.96103 7.05587
73 1 3 -0.055901 22.7229 17.1307 7.85825
74 1 3 -0.055901 13.8091 3.96103 7.05587
75 1 3 -0.055903 14.7918 3.39366 7.85825
76 1 3 -0.055903 21.7402 17.6981 7.05587
77 1 3 -0.0559 21.7402 8.54005 0.580159
78 1 3 -0.0559 14.7918 12.5517 14.334
79 1 3 -0.055903 13.8091 13.1191 13.5316
80 1 3 -0.055903 22.7229 7.97268 1.38254
81 1 4 -1.26215 27.399 15.8188 11.1856
82 1 4 -1.26215 9.13299 5.27293 3.72853
83 1 4 -0.60118 27.399 18.9383 11.9641
84 1 4 -0.60118 9.13299 2.15347 2.95001
85 1 4 -0.601179 27.399 17.5926 13.8671
86 1 4 -0.601179 9.13299 3.49912 1.04697
87 1 4 -0.601179 26.2336 13.3722 9.45555
88 1 4 -0.601179 10.2984 7.71958 5.45857
89 1 4 -0.60118 28.5643 13.3722 9.45555
90 1 4 -0.60118 7.96762 7.71958 5.45857
91 1 4 -0.60118 25.8628 14.9319 13.8671
92 1 4 -0.60118 10.6692 6.15984 1.04697
93 1 4 -0.601179 24.6974 14.2591 11.9641
94 1 4 -0.601179 11.8345 6.83267 2.95001
95 1 4 -0.60118 28.9351 18.0514 9.45555
96 1 4 -0.60118 7.59682 3.04037 5.45857
97 1 4 -0.601179 30.1005 16.0329 9.45555
98 1 4 -0.601179 6.43145 5.05885 5.45857
99 1 4 -0.601179 24.6974 16.0329 9.45555
100 1 4 -0.601179 11.8345 5.05885 5.45857
101 1 4 -0.60118 25.8628 18.0514 9.45555
102 1 4 -0.60118 10.6692 3.04037 5.45857
103 1 4 -0.60118 28.9351 14.9319 13.8671
104 1 4 -0.60118 7.59682 6.15984 1.04697
105 1 4 -0.60118 30.1005 14.2591 11.9641
106 1 4 -0.60118 6.43145 6.83267 2.95001
ITEM: TIMESTEP
51000
ITEM: NUMBER OF ATOMS
106
ITEM: BOX BOUNDS xy xz yz pp pp pp
0.0000000000000000e+00 3.6531964750000000e+01 9.1329911900000003e+00
0.0000000000000000e+00 2.1091739680000000e+01 9.1329911900000003e+00
0.0000000000000000e+00 1.4914112149999999e+01 5.2729349200000000e+00
ITEM: ATOMS id mol type q x y z
1 1 1 1.10383 27.399 17.6496 10.5383
2 1 1 1.10383 9.13299 3.44217 4.3758
3 1 1 1.10383 27.399 15.8188 13.1274
4 1 1 1.10383 9.13299 5.27293 1.78671
5 1 1 1.10383 25.8135 14.9034 10.5383
6 1 1 1.10383 10.7185 6.18832 4.3758
7 1 1 1.10383 28.9845 14.9034 10.5383
8 1 1 1.10383 7.5475 6.18832 4.3758
9 1 2 0.115889 18.266 5.48596 12.6084
10 1 2 0.115889 18.266 15.6058 2.30572
11 1 2 0.115888 18.266 13.716 0.969417
12 1 2 0.115888 18.266 7.37578 13.9447
13 1 2 0.11589 25.3934 11.4908 8.12521
14 1 2 0.11589 11.1386 9.60096 6.7889
15 1 2 0.115888 11.1386 11.4908 8.12521
16 1 2 0.115888 25.3934 9.60096 6.7889
17 1 2 0.115889 15.5206 8.96083 0.969417
18 1 2 0.115889 21.0114 12.1309 13.9447
19 1 2 0.115888 22.648 13.0758 12.6084
20 1 2 0.115888 13.884 8.01592 2.30572
21 1 2 0.115889 21.0114 3.90092 8.12521
22 1 2 0.115889 15.5206 17.1908 6.7889
23 1 2 0.115887 13.884 16.2459 8.12521
24 1 2 0.115887 22.648 4.84583 6.7889
25 1 2 0.115889 22.648 16.2459 8.12521
26 1 2 0.115889 13.884 4.84583 6.7889
27 1 2 0.115887 15.5206 3.90092 8.12521
28 1 2 0.115887 21.0114 17.1908 6.7889
29 1 2 0.115889 21.0114 8.96083 0.969417
30 1 2 0.115889 15.5206 12.1309 13.9447
31 1 2 0.115887 13.884 13.0758 12.6084
32 1 2 0.115887 22.648 8.01592 2.30572
33 1 3 0.671939 27.399 18.7442 13.2542
34 1 3 0.671939 9.13299 2.34751 1.65994
35 1 3 0.671939 27.399 12.8934 9.117
36 1 3 0.671939 9.13299 8.19836 5.79712
37 1 3 0.67194 24.8655 14.3561 13.2542
38 1 3 0.67194 11.6665 6.73565 1.65994
39 1 3 0.67194 29.9325 17.2815 9.117
40 1 3 0.67194 6.5995 3.81022 5.79712
41 1 3 0.67194 24.8655 17.2815 9.117
42 1 3 0.67194 11.6665 3.81022 5.79712
43 1 3 0.67194 29.9325 14.3561 13.2542
44 1 3 0.67194 6.5995 6.73565 1.65994
45 1 3 -0.11508 27.399 19.957 14.1117
46 1 3 -0.11508 9.13299 1.13474 0.802379
47 1 3 -0.11508 27.399 11.6806 8.25944
48 1 3 -0.11508 9.13299 9.41113 6.65468
49 1 3 -0.11508 23.8152 13.7497 14.1117
50 1 3 -0.11508 12.7168 7.34203 0.802379
51 1 3 -0.11508 30.9828 17.8879 8.25944
52 1 3 -0.11508 5.54921 3.20384 6.65468
53 1 3 -0.11508 23.8152 17.8879 8.25944
54 1 3 -0.11508 12.7168 3.20384 6.65468
55 1 3 -0.11508 30.9828 13.7497 14.1117
56 1 3 -0.11508 5.54921 7.34203 0.802379
57 1 3 -0.0559 18.266 5.39949 13.5316
58 1 3 -0.0559 18.266 15.6923 1.38254
59 1 3 -0.055903 18.266 14.5575 0.580159
60 1 3 -0.055903 18.266 6.53422 14.334
61 1 3 -0.0559 26.1971 11.1132 7.85825
62 1 3 -0.0559 10.3349 9.9785 7.05587
63 1 3 -0.055903 10.3349 11.1132 7.85825
64 1 3 -0.055903 26.1971 9.9785 7.05587
65 1 3 -0.0559 14.7918 8.54005 0.580159
66 1 3 -0.0559 21.7402 12.5517 14.334
67 1 3 -0.055903 22.7229 13.1191 13.5316
68 1 3 -0.055903 13.8091 7.97268 1.38254
69 1 3 -0.0559 21.7402 3.39366 7.85825
70 1 3 -0.0559 14.7918 17.6981 7.05587
71 1 3 -0.055903 13.8091 17.1307 7.85825
72 1 3 -0.055903 22.7229 3.96103 7.05587
73 1 3 -0.055901 22.7229 17.1307 7.85825
74 1 3 -0.055901 13.8091 3.96103 7.05587
75 1 3 -0.055903 14.7918 3.39366 7.85825
76 1 3 -0.055903 21.7402 17.6981 7.05587
77 1 3 -0.0559 21.7402 8.54005 0.580159
78 1 3 -0.0559 14.7918 12.5517 14.334
79 1 3 -0.055903 13.8091 13.1191 13.5316
80 1 3 -0.055903 22.7229 7.97268 1.38254
81 1 4 -1.26215 27.399 15.8188 11.1856
82 1 4 -1.26215 9.13299 5.27293 3.72853
83 1 4 -0.60118 27.399 18.9383 11.9641
84 1 4 -0.60118 9.13299 2.15347 2.95001
85 1 4 -0.601179 27.399 17.5926 13.8671
86 1 4 -0.601179 9.13299 3.49912 1.04697
87 1 4 -0.601179 26.2336 13.3722 9.45555
88 1 4 -0.601179 10.2984 7.71958 5.45857
89 1 4 -0.60118 28.5643 13.3722 9.45555
90 1 4 -0.60118 7.96762 7.71958 5.45857
91 1 4 -0.60118 25.8628 14.9319 13.8671
92 1 4 -0.60118 10.6692 6.15984 1.04697
93 1 4 -0.601179 24.6974 14.2591 11.9641
94 1 4 -0.601179 11.8345 6.83267 2.95001
95 1 4 -0.60118 28.9351 18.0514 9.45555
96 1 4 -0.60118 7.59682 3.04037 5.45857
97 1 4 -0.601179 30.1005 16.0329 9.45555
98 1 4 -0.601179 6.43145 5.05885 5.45857
99 1 4 -0.601179 24.6974 16.0329 9.45555
100 1 4 -0.601179 11.8345 5.05885 5.45857
101 1 4 -0.60118 25.8628 18.0514 9.45555
102 1 4 -0.60118 10.6692 3.04037 5.45857
103 1 4 -0.60118 28.9351 14.9319 13.8671
104 1 4 -0.60118 7.59682 6.15984 1.04697
105 1 4 -0.60118 30.1005 14.2591 11.9641
106 1 4 -0.60118 6.43145 6.83267 2.95001
ITEM: TIMESTEP
52000
ITEM: NUMBER OF ATOMS
106
ITEM: BOX BOUNDS xy xz yz pp pp pp
0.0000000000000000e+00 3.6531964750000000e+01 9.1329911900000003e+00
0.0000000000000000e+00 2.1091739680000000e+01 9.1329911900000003e+00
0.0000000000000000e+00 1.4914112149999999e+01 5.2729349200000000e+00
ITEM: ATOMS id mol type q x y z
1 1 1 1.10383 27.399 17.6496 10.5383
2 1 1 1.10383 9.13299 3.44217 4.3758
3 1 1 1.10383 27.399 15.8188 13.1274
4 1 1 1.10383 9.13299 5.27293 1.78671
5 1 1 1.10383 25.8135 14.9034 10.5383
6 1 1 1.10383 10.7185 6.18832 4.3758
7 1 1 1.10383 28.9845 14.9034 10.5383
8 1 1 1.10383 7.5475 6.18832 4.3758
9 1 2 0.115889 18.266 5.48596 12.6084
10 1 2 0.115889 18.266 15.6058 2.30572
11 1 2 0.115888 18.266 13.716 0.969417
12 1 2 0.115888 18.266 7.37578 13.9447
13 1 2 0.11589 25.3934 11.4908 8.12521
14 1 2 0.11589 11.1386 9.60096 6.7889
15 1 2 0.115888 11.1386 11.4908 8.12521
16 1 2 0.115888 25.3934 9.60096 6.7889
17 1 2 0.115889 15.5206 8.96083 0.969417
18 1 2 0.115889 21.0114 12.1309 13.9447
19 1 2 0.115888 22.648 13.0758 12.6084
20 1 2 0.115888 13.884 8.01592 2.30572
21 1 2 0.115889 21.0114 3.90092 8.12521
22 1 2 0.115889 15.5206 17.1908 6.7889
23 1 2 0.115887 13.884 16.2459 8.12521
24 1 2 0.115887 22.648 4.84583 6.7889
25 1 2 0.115889 22.648 16.2459 8.12521
26 1 2 0.115889 13.884 4.84583 6.7889
27 1 2 0.115887 15.5206 3.90092 8.12521
28 1 2 0.115887 21.0114 17.1908 6.7889
29 1 2 0.115889 21.0114 8.96083 0.969417
30 1 2 0.115889 15.5206 12.1309 13.9447
31 1 2 0.115887 13.884 13.0758 12.6084
32 1 2 0.115887 22.648 8.01592 2.30572
33 1 3 0.671939 27.399 18.7442 13.2542
34 1 3 0.671939 9.13299 2.34751 1.65994
35 1 3 0.671939 27.399 12.8934 9.117
36 1 3 0.671939 9.13299 8.19836 5.79712
37 1 3 0.67194 24.8655 14.3561 13.2542
38 1 3 0.67194 11.6665 6.73565 1.65994
39 1 3 0.67194 29.9325 17.2815 9.117
40 1 3 0.67194 6.5995 3.81022 5.79712
41 1 3 0.67194 24.8655 17.2815 9.117
42 1 3 0.67194 11.6665 3.81022 5.79712
43 1 3 0.67194 29.9325 14.3561 13.2542
44 1 3 0.67194 6.5995 6.73565 1.65994
45 1 3 -0.11508 27.399 19.957 14.1117
46 1 3 -0.11508 9.13299 1.13474 0.802379
47 1 3 -0.11508 27.399 11.6806 8.25944
48 1 3 -0.11508 9.13299 9.41113 6.65468
49 1 3 -0.11508 23.8152 13.7497 14.1117
50 1 3 -0.11508 12.7168 7.34203 0.802379
51 1 3 -0.11508 30.9828 17.8879 8.25944
52 1 3 -0.11508 5.54921 3.20384 6.65468
53 1 3 -0.11508 23.8152 17.8879 8.25944
54 1 3 -0.11508 12.7168 3.20384 6.65468
55 1 3 -0.11508 30.9828 13.7497 14.1117
56 1 3 -0.11508 5.54921 7.34203 0.802379
57 1 3 -0.0559 18.266 5.39949 13.5316
58 1 3 -0.0559 18.266 15.6923 1.38254
59 1 3 -0.055903 18.266 14.5575 0.580159
60 1 3 -0.055903 18.266 6.53422 14.334
61 1 3 -0.0559 26.1971 11.1132 7.85825
62 1 3 -0.0559 10.3349 9.9785 7.05587
63 1 3 -0.055903 10.3349 11.1132 7.85825
64 1 3 -0.055903 26.1971 9.9785 7.05587
65 1 3 -0.0559 14.7918 8.54005 0.580159
66 1 3 -0.0559 21.7402 12.5517 14.334
67 1 3 -0.055903 22.7229 13.1191 13.5316
68 1 3 -0.055903 13.8091 7.97268 1.38254
69 1 3 -0.0559 21.7402 3.39366 7.85825
70 1 3 -0.0559 14.7918 17.6981 7.05587
71 1 3 -0.055903 13.8091 17.1307 7.85825
72 1 3 -0.055903 22.7229 3.96103 7.05587
73 1 3 -0.055901 22.7229 17.1307 7.85825
74 1 3 -0.055901 13.8091 3.96103 7.05587
75 1 3 -0.055903 14.7918 3.39366 7.85825
76 1 3 -0.055903 21.7402 17.6981 7.05587
77 1 3 -0.0559 21.7402 8.54005 0.580159
78 1 3 -0.0559 14.7918 12.5517 14.334
79 1 3 -0.055903 13.8091 13.1191 13.5316
80 1 3 -0.055903 22.7229 7.97268 1.38254
81 1 4 -1.26215 27.399 15.8188 11.1856
82 1 4 -1.26215 9.13299 5.27293 3.72853
83 1 4 -0.60118 27.399 18.9383 11.9641
84 1 4 -0.60118 9.13299 2.15347 2.95001
85 1 4 -0.601179 27.399 17.5926 13.8671
86 1 4 -0.601179 9.13299 3.49912 1.04697
87 1 4 -0.601179 26.2336 13.3722 9.45555
88 1 4 -0.601179 10.2984 7.71958 5.45857
89 1 4 -0.60118 28.5643 13.3722 9.45555
90 1 4 -0.60118 7.96762 7.71958 5.45857
91 1 4 -0.60118 25.8628 14.9319 13.8671
92 1 4 -0.60118 10.6692 6.15984 1.04697
93 1 4 -0.601179 24.6974 14.2591 11.9641
94 1 4 -0.601179 11.8345 6.83267 2.95001
95 1 4 -0.60118 28.9351 18.0514 9.45555
96 1 4 -0.60118 7.59682 3.04037 5.45857
97 1 4 -0.601179 30.1005 16.0329 9.45555
98 1 4 -0.601179 6.43145 5.05885 5.45857
99 1 4 -0.601179 24.6974 16.0329 9.45555
100 1 4 -0.601179 11.8345 5.05885 5.45857
101 1 4 -0.60118 25.8628 18.0514 9.45555
102 1 4 -0.60118 10.6692 3.04037 5.45857
103 1 4 -0.60118 28.9351 14.9319 13.8671
104 1 4 -0.60118 7.59682 6.15984 1.04697
105 1 4 -0.60118 30.1005 14.2591 11.9641
106 1 4 -0.60118 6.43145 6.83267 2.95001
ITEM: TIMESTEP
53000
ITEM: NUMBER OF ATOMS
112
ITEM: BOX BOUNDS xy xz yz pp pp pp
0.0000000000000000e+00 3.6531964750000000e+01 9.1329911900000003e+00
0.0000000000000000e+00 2.1091739680000000e+01 9.1329911900000003e+00
0.0000000000000000e+00 1.4914112149999999e+01 5.2729349200000000e+00
ITEM: ATOMS id mol type q x y z
1 1 1 1.10383 27.399 17.6496 10.5383
2 1 1 1.10383 9.13299 3.44217 4.3758
3 1 1 1.10383 27.399 15.8188 13.1274
4 1 1 1.10383 9.13299 5.27293 1.78671
5 1 1 1.10383 25.8135 14.9034 10.5383
6 1 1 1.10383 10.7185 6.18832 4.3758
7 1 1 1.10383 28.9845 14.9034 10.5383
8 1 1 1.10383 7.5475 6.18832 4.3758
9 1 2 0.115889 18.266 5.48596 12.6084
10 1 2 0.115889 18.266 15.6058 2.30572
11 1 2 0.115888 18.266 13.716 0.969417
12 1 2 0.115888 18.266 7.37578 13.9447
13 1 2 0.11589 25.3934 11.4908 8.12521
14 1 2 0.11589 11.1386 9.60096 6.7889
15 1 2 0.115888 11.1386 11.4908 8.12521
16 1 2 0.115888 25.3934 9.60096 6.7889
17 1 2 0.115889 15.5206 8.96083 0.969417
18 1 2 0.115889 21.0114 12.1309 13.9447
19 1 2 0.115888 22.648 13.0758 12.6084
20 1 2 0.115888 13.884 8.01592 2.30572
21 1 2 0.115889 21.0114 3.90092 8.12521
22 1 2 0.115889 15.5206 17.1908 6.7889
23 1 2 0.115887 13.884 16.2459 8.12521
24 1 2 0.115887 22.648 4.84583 6.7889
25 1 2 0.115889 22.648 16.2459 8.12521
26 1 2 0.115889 13.884 4.84583 6.7889
27 1 2 0.115887 15.5206 3.90092 8.12521
28 1 2 0.115887 21.0114 17.1908 6.7889
29 1 2 0.115889 21.0114 8.96083 0.969417
30 1 2 0.115889 15.5206 12.1309 13.9447
31 1 2 0.115887 13.884 13.0758 12.6084
32 1 2 0.115887 22.648 8.01592 2.30572
33 1 3 0.671939 27.399 18.7442 13.2542
34 1 3 0.671939 9.13299 2.34751 1.65994
35 1 3 0.671939 27.399 12.8934 9.117
36 1 3 0.671939 9.13299 8.19836 5.79712
37 1 3 0.67194 24.8655 14.3561 13.2542
38 1 3 0.67194 11.6665 6.73565 1.65994
39 1 3 0.67194 29.9325 17.2815 9.117
40 1 3 0.67194 6.5995 3.81022 5.79712
41 1 3 0.67194 24.8655 17.2815 9.117
42 1 3 0.67194 11.6665 3.81022 5.79712
43 1 3 0.67194 29.9325 14.3561 13.2542
44 1 3 0.67194 6.5995 6.73565 1.65994
45 1 3 -0.11508 27.399 19.957 14.1117
46 1 3 -0.11508 9.13299 1.13474 0.802379
47 1 3 -0.11508 27.399 11.6806 8.25944
48 1 3 -0.11508 9.13299 9.41113 6.65468
49 1 3 -0.11508 23.8152 13.7497 14.1117
50 1 3 -0.11508 12.7168 7.34203 0.802379
51 1 3 -0.11508 30.9828 17.8879 8.25944
52 1 3 -0.11508 5.54921 3.20384 6.65468
53 1 3 -0.11508 23.8152 17.8879 8.25944
54 1 3 -0.11508 12.7168 3.20384 6.65468
55 1 3 -0.11508 30.9828 13.7497 14.1117
56 1 3 -0.11508 5.54921 7.34203 0.802379
57 1 3 -0.0559 18.266 5.39949 13.5316
58 1 3 -0.0559 18.266 15.6923 1.38254
59 1 3 -0.055903 18.266 14.5575 0.580159
60 1 3 -0.055903 18.266 6.53422 14.334
61 1 3 -0.0559 26.1971 11.1132 7.85825
62 1 3 -0.0559 10.3349 9.9785 7.05587
63 1 3 -0.055903 10.3349 11.1132 7.85825
64 1 3 -0.055903 26.1971 9.9785 7.05587
65 1 3 -0.0559 14.7918 8.54005 0.580159
66 1 3 -0.0559 21.7402 12.5517 14.334
67 1 3 -0.055903 22.7229 13.1191 13.5316
68 1 3 -0.055903 13.8091 7.97268 1.38254
69 1 3 -0.0559 21.7402 3.39366 7.85825
70 1 3 -0.0559 14.7918 17.6981 7.05587
71 1 3 -0.055903 13.8091 17.1307 7.85825
72 1 3 -0.055903 22.7229 3.96103 7.05587
73 1 3 -0.055901 22.7229 17.1307 7.85825
74 1 3 -0.055901 13.8091 3.96103 7.05587
75 1 3 -0.055903 14.7918 3.39366 7.85825
76 1 3 -0.055903 21.7402 17.6981 7.05587
77 1 3 -0.0559 21.7402 8.54005 0.580159
78 1 3 -0.0559 14.7918 12.5517 14.334
79 1 3 -0.055903 13.8091 13.1191 13.5316
80 1 3 -0.055903 22.7229 7.97268 1.38254
81 1 4 -1.26215 27.399 15.8188 11.1856
82 1 4 -1.26215 9.13299 5.27293 3.72853
83 1 4 -0.60118 27.399 18.9383 11.9641
84 1 4 -0.60118 9.13299 2.15347 2.95001
85 1 4 -0.601179 27.399 17.5926 13.8671
86 1 4 -0.601179 9.13299 3.49912 1.04697
87 1 4 -0.601179 26.2336 13.3722 9.45555
88 1 4 -0.601179 10.2984 7.71958 5.45857
89 1 4 -0.60118 28.5643 13.3722 9.45555
90 1 4 -0.60118 7.96762 7.71958 5.45857
91 1 4 -0.60118 25.8628 14.9319 13.8671
92 1 4 -0.60118 10.6692 6.15984 1.04697
93 1 4 -0.601179 24.6974 14.2591 11.9641
94 1 4 -0.601179 11.8345 6.83267 2.95001
95 1 4 -0.60118 28.9351 18.0514 9.45555
96 1 4 -0.60118 7.59682 3.04037 5.45857
97 1 4 -0.601179 30.1005 16.0329 9.45555
98 1 4 -0.601179 6.43145 5.05885 5.45857
99 1 4 -0.601179 24.6974 16.0329 9.45555
100 1 4 -0.601179 11.8345 5.05885 5.45857
101 1 4 -0.60118 25.8628 18.0514 9.45555
102 1 4 -0.60118 10.6692 3.04037 5.45857
103 1 4 -0.60118 28.9351 14.9319 13.8671
104 1 4 -0.60118 7.59682 6.15984 1.04697
105 1 4 -0.60118 30.1005 14.2591 11.9641
106 1 4 -0.60118 6.43145 6.83267 2.95001
107 2 5 -0.35 19.5596 10.5675 4.65943
108 2 6 0.7 19.5543 9.44208 4.94036
109 2 5 -0.35 19.5489 8.31663 5.2213
110 3 5 -0.35 20.9822 18.0776 10.4655
111 3 6 0.7 21.557 17.3395 11.1514
112 3 5 -0.35 22.1317 16.6014 11.8374
ITEM: TIMESTEP
54000
ITEM: NUMBER OF ATOMS
106
ITEM: BOX BOUNDS xy xz yz pp pp pp
0.0000000000000000e+00 3.6531964750000000e+01 9.1329911900000003e+00
0.0000000000000000e+00 2.1091739680000000e+01 9.1329911900000003e+00
0.0000000000000000e+00 1.4914112149999999e+01 5.2729349200000000e+00
ITEM: ATOMS id mol type q x y z
1 1 1 1.10383 27.399 17.6496 10.5383
2 1 1 1.10383 9.13299 3.44217 4.3758
3 1 1 1.10383 27.399 15.8188 13.1274
4 1 1 1.10383 9.13299 5.27293 1.78671
5 1 1 1.10383 25.8135 14.9034 10.5383
6 1 1 1.10383 10.7185 6.18832 4.3758
7 1 1 1.10383 28.9845 14.9034 10.5383
8 1 1 1.10383 7.5475 6.18832 4.3758
9 1 2 0.115889 18.266 5.48596 12.6084
10 1 2 0.115889 18.266 15.6058 2.30572
11 1 2 0.115888 18.266 13.716 0.969417
12 1 2 0.115888 18.266 7.37578 13.9447
13 1 2 0.11589 25.3934 11.4908 8.12521
14 1 2 0.11589 11.1386 9.60096 6.7889
15 1 2 0.115888 11.1386 11.4908 8.12521
16 1 2 0.115888 25.3934 9.60096 6.7889
17 1 2 0.115889 15.5206 8.96083 0.969417
18 1 2 0.115889 21.0114 12.1309 13.9447
19 1 2 0.115888 22.648 13.0758 12.6084
20 1 2 0.115888 13.884 8.01592 2.30572
21 1 2 0.115889 21.0114 3.90092 8.12521
22 1 2 0.115889 15.5206 17.1908 6.7889
23 1 2 0.115887 13.884 16.2459 8.12521
24 1 2 0.115887 22.648 4.84583 6.7889
25 1 2 0.115889 22.648 16.2459 8.12521
26 1 2 0.115889 13.884 4.84583 6.7889
27 1 2 0.115887 15.5206 3.90092 8.12521
28 1 2 0.115887 21.0114 17.1908 6.7889
29 1 2 0.115889 21.0114 8.96083 0.969417
30 1 2 0.115889 15.5206 12.1309 13.9447
31 1 2 0.115887 13.884 13.0758 12.6084
32 1 2 0.115887 22.648 8.01592 2.30572
33 1 3 0.671939 27.399 18.7442 13.2542
34 1 3 0.671939 9.13299 2.34751 1.65994
35 1 3 0.671939 27.399 12.8934 9.117
36 1 3 0.671939 9.13299 8.19836 5.79712
37 1 3 0.67194 24.8655 14.3561 13.2542
38 1 3 0.67194 11.6665 6.73565 1.65994
39 1 3 0.67194 29.9325 17.2815 9.117
40 1 3 0.67194 6.5995 3.81022 5.79712
41 1 3 0.67194 24.8655 17.2815 9.117
42 1 3 0.67194 11.6665 3.81022 5.79712
43 1 3 0.67194 29.9325 14.3561 13.2542
44 1 3 0.67194 6.5995 6.73565 1.65994
45 1 3 -0.11508 27.399 19.957 14.1117
46 1 3 -0.11508 9.13299 1.13474 0.802379
47 1 3 -0.11508 27.399 11.6806 8.25944
48 1 3 -0.11508 9.13299 9.41113 6.65468
49 1 3 -0.11508 23.8152 13.7497 14.1117
50 1 3 -0.11508 12.7168 7.34203 0.802379
51 1 3 -0.11508 30.9828 17.8879 8.25944
52 1 3 -0.11508 5.54921 3.20384 6.65468
53 1 3 -0.11508 23.8152 17.8879 8.25944
54 1 3 -0.11508 12.7168 3.20384 6.65468
55 1 3 -0.11508 30.9828 13.7497 14.1117
56 1 3 -0.11508 5.54921 7.34203 0.802379
57 1 3 -0.0559 18.266 5.39949 13.5316
58 1 3 -0.0559 18.266 15.6923 1.38254
59 1 3 -0.055903 18.266 14.5575 0.580159
60 1 3 -0.055903 18.266 6.53422 14.334
61 1 3 -0.0559 26.1971 11.1132 7.85825
62 1 3 -0.0559 10.3349 9.9785 7.05587
63 1 3 -0.055903 10.3349 11.1132 7.85825
64 1 3 -0.055903 26.1971 9.9785 7.05587
65 1 3 -0.0559 14.7918 8.54005 0.580159
66 1 3 -0.0559 21.7402 12.5517 14.334
67 1 3 -0.055903 22.7229 13.1191 13.5316
68 1 3 -0.055903 13.8091 7.97268 1.38254
69 1 3 -0.0559 21.7402 3.39366 7.85825
70 1 3 -0.0559 14.7918 17.6981 7.05587
71 1 3 -0.055903 13.8091 17.1307 7.85825
72 1 3 -0.055903 22.7229 3.96103 7.05587
73 1 3 -0.055901 22.7229 17.1307 7.85825
74 1 3 -0.055901 13.8091 3.96103 7.05587
75 1 3 -0.055903 14.7918 3.39366 7.85825
76 1 3 -0.055903 21.7402 17.6981 7.05587
77 1 3 -0.0559 21.7402 8.54005 0.580159
78 1 3 -0.0559 14.7918 12.5517 14.334
79 1 3 -0.055903 13.8091 13.1191 13.5316
80 1 3 -0.055903 22.7229 7.97268 1.38254
81 1 4 -1.26215 27.399 15.8188 11.1856
82 1 4 -1.26215 9.13299 5.27293 3.72853
83 1 4 -0.60118 27.399 18.9383 11.9641
84 1 4 -0.60118 9.13299 2.15347 2.95001
85 1 4 -0.601179 27.399 17.5926 13.8671
86 1 4 -0.601179 9.13299 3.49912 1.04697
87 1 4 -0.601179 26.2336 13.3722 9.45555
88 1 4 -0.601179 10.2984 7.71958 5.45857
89 1 4 -0.60118 28.5643 13.3722 9.45555
90 1 4 -0.60118 7.96762 7.71958 5.45857
91 1 4 -0.60118 25.8628 14.9319 13.8671
92 1 4 -0.60118 10.6692 6.15984 1.04697
93 1 4 -0.601179 24.6974 14.2591 11.9641
94 1 4 -0.601179 11.8345 6.83267 2.95001
95 1 4 -0.60118 28.9351 18.0514 9.45555
96 1 4 -0.60118 7.59682 3.04037 5.45857
97 1 4 -0.601179 30.1005 16.0329 9.45555
98 1 4 -0.601179 6.43145 5.05885 5.45857
99 1 4 -0.601179 24.6974 16.0329 9.45555
100 1 4 -0.601179 11.8345 5.05885 5.45857
101 1 4 -0.60118 25.8628 18.0514 9.45555
102 1 4 -0.60118 10.6692 3.04037 5.45857
103 1 4 -0.60118 28.9351 14.9319 13.8671
104 1 4 -0.60118 7.59682 6.15984 1.04697
105 1 4 -0.60118 30.1005 14.2591 11.9641
106 1 4 -0.60118 6.43145 6.83267 2.95001
ITEM: TIMESTEP
55000
ITEM: NUMBER OF ATOMS
106
ITEM: BOX BOUNDS xy xz yz pp pp pp
0.0000000000000000e+00 3.6531964750000000e+01 9.1329911900000003e+00
0.0000000000000000e+00 2.1091739680000000e+01 9.1329911900000003e+00
0.0000000000000000e+00 1.4914112149999999e+01 5.2729349200000000e+00
ITEM: ATOMS id mol type q x y z
1 1 1 1.10383 27.399 17.6496 10.5383
2 1 1 1.10383 9.13299 3.44217 4.3758
3 1 1 1.10383 27.399 15.8188 13.1274
4 1 1 1.10383 9.13299 5.27293 1.78671
5 1 1 1.10383 25.8135 14.9034 10.5383
6 1 1 1.10383 10.7185 6.18832 4.3758
7 1 1 1.10383 28.9845 14.9034 10.5383
8 1 1 1.10383 7.5475 6.18832 4.3758
9 1 2 0.115889 18.266 5.48596 12.6084
10 1 2 0.115889 18.266 15.6058 2.30572
11 1 2 0.115888 18.266 13.716 0.969417
12 1 2 0.115888 18.266 7.37578 13.9447
13 1 2 0.11589 25.3934 11.4908 8.12521
14 1 2 0.11589 11.1386 9.60096 6.7889
15 1 2 0.115888 11.1386 11.4908 8.12521
16 1 2 0.115888 25.3934 9.60096 6.7889
17 1 2 0.115889 15.5206 8.96083 0.969417
18 1 2 0.115889 21.0114 12.1309 13.9447
19 1 2 0.115888 22.648 13.0758 12.6084
20 1 2 0.115888 13.884 8.01592 2.30572
21 1 2 0.115889 21.0114 3.90092 8.12521
22 1 2 0.115889 15.5206 17.1908 6.7889
23 1 2 0.115887 13.884 16.2459 8.12521
24 1 2 0.115887 22.648 4.84583 6.7889
25 1 2 0.115889 22.648 16.2459 8.12521
26 1 2 0.115889 13.884 4.84583 6.7889
27 1 2 0.115887 15.5206 3.90092 8.12521
28 1 2 0.115887 21.0114 17.1908 6.7889
29 1 2 0.115889 21.0114 8.96083 0.969417
30 1 2 0.115889 15.5206 12.1309 13.9447
31 1 2 0.115887 13.884 13.0758 12.6084
32 1 2 0.115887 22.648 8.01592 2.30572
33 1 3 0.671939 27.399 18.7442 13.2542
34 1 3 0.671939 9.13299 2.34751 1.65994
35 1 3 0.671939 27.399 12.8934 9.117
36 1 3 0.671939 9.13299 8.19836 5.79712
37 1 3 0.67194 24.8655 14.3561 13.2542
38 1 3 0.67194 11.6665 6.73565 1.65994
39 1 3 0.67194 29.9325 17.2815 9.117
40 1 3 0.67194 6.5995 3.81022 5.79712
41 1 3 0.67194 24.8655 17.2815 9.117
42 1 3 0.67194 11.6665 3.81022 5.79712
43 1 3 0.67194 29.9325 14.3561 13.2542
44 1 3 0.67194 6.5995 6.73565 1.65994
45 1 3 -0.11508 27.399 19.957 14.1117
46 1 3 -0.11508 9.13299 1.13474 0.802379
47 1 3 -0.11508 27.399 11.6806 8.25944
48 1 3 -0.11508 9.13299 9.41113 6.65468
49 1 3 -0.11508 23.8152 13.7497 14.1117
50 1 3 -0.11508 12.7168 7.34203 0.802379
51 1 3 -0.11508 30.9828 17.8879 8.25944
52 1 3 -0.11508 5.54921 3.20384 6.65468
53 1 3 -0.11508 23.8152 17.8879 8.25944
54 1 3 -0.11508 12.7168 3.20384 6.65468
55 1 3 -0.11508 30.9828 13.7497 14.1117
56 1 3 -0.11508 5.54921 7.34203 0.802379
57 1 3 -0.0559 18.266 5.39949 13.5316
58 1 3 -0.0559 18.266 15.6923 1.38254
59 1 3 -0.055903 18.266 14.5575 0.580159
60 1 3 -0.055903 18.266 6.53422 14.334
61 1 3 -0.0559 26.1971 11.1132 7.85825
62 1 3 -0.0559 10.3349 9.9785 7.05587
63 1 3 -0.055903 10.3349 11.1132 7.85825
64 1 3 -0.055903 26.1971 9.9785 7.05587
65 1 3 -0.0559 14.7918 8.54005 0.580159
66 1 3 -0.0559 21.7402 12.5517 14.334
67 1 3 -0.055903 22.7229 13.1191 13.5316
68 1 3 -0.055903 13.8091 7.97268 1.38254
69 1 3 -0.0559 21.7402 3.39366 7.85825
70 1 3 -0.0559 14.7918 17.6981 7.05587
71 1 3 -0.055903 13.8091 17.1307 7.85825
72 1 3 -0.055903 22.7229 3.96103 7.05587
73 1 3 -0.055901 22.7229 17.1307 7.85825
74 1 3 -0.055901 13.8091 3.96103 7.05587
75 1 3 -0.055903 14.7918 3.39366 7.85825
76 1 3 -0.055903 21.7402 17.6981 7.05587
77 1 3 -0.0559 21.7402 8.54005 0.580159
78 1 3 -0.0559 14.7918 12.5517 14.334
79 1 3 -0.055903 13.8091 13.1191 13.5316
80 1 3 -0.055903 22.7229 7.97268 1.38254
81 1 4 -1.26215 27.399 15.8188 11.1856
82 1 4 -1.26215 9.13299 5.27293 3.72853
83 1 4 -0.60118 27.399 18.9383 11.9641
84 1 4 -0.60118 9.13299 2.15347 2.95001
85 1 4 -0.601179 27.399 17.5926 13.8671
86 1 4 -0.601179 9.13299 3.49912 1.04697
87 1 4 -0.601179 26.2336 13.3722 9.45555
88 1 4 -0.601179 10.2984 7.71958 5.45857
89 1 4 -0.60118 28.5643 13.3722 9.45555
90 1 4 -0.60118 7.96762 7.71958 5.45857
91 1 4 -0.60118 25.8628 14.9319 13.8671
92 1 4 -0.60118 10.6692 6.15984 1.04697
93 1 4 -0.601179 24.6974 14.2591 11.9641
94 1 4 -0.601179 11.8345 6.83267 2.95001
95 1 4 -0.60118 28.9351 18.0514 9.45555
96 1 4 -0.60118 7.59682 3.04037 5.45857
97 1 4 -0.601179 30.1005 16.0329 9.45555
98 1 4 -0.601179 6.43145 5.05885 5.45857
99 1 4 -0.601179 24.6974 16.0329 9.45555
100 1 4 -0.601179 11.8345 5.05885 5.45857
101 1 4 -0.60118 25.8628 18.0514 9.45555
102 1 4 -0.60118 10.6692 3.04037 5.45857
103 1 4 -0.60118 28.9351 14.9319 13.8671
104 1 4 -0.60118 7.59682 6.15984 1.04697
105 1 4 -0.60118 30.1005 14.2591 11.9641
106 1 4 -0.60118 6.43145 6.83267 2.95001
ITEM: TIMESTEP
56000
ITEM: NUMBER OF ATOMS
106
ITEM: BOX BOUNDS xy xz yz pp pp pp
0.0000000000000000e+00 3.6531964750000000e+01 9.1329911900000003e+00
0.0000000000000000e+00 2.1091739680000000e+01 9.1329911900000003e+00
0.0000000000000000e+00 1.4914112149999999e+01 5.2729349200000000e+00
ITEM: ATOMS id mol type q x y z
1 1 1 1.10383 27.399 17.6496 10.5383
2 1 1 1.10383 9.13299 3.44217 4.3758
3 1 1 1.10383 27.399 15.8188 13.1274
4 1 1 1.10383 9.13299 5.27293 1.78671
5 1 1 1.10383 25.8135 14.9034 10.5383
6 1 1 1.10383 10.7185 6.18832 4.3758
7 1 1 1.10383 28.9845 14.9034 10.5383
8 1 1 1.10383 7.5475 6.18832 4.3758
9 1 2 0.115889 18.266 5.48596 12.6084
10 1 2 0.115889 18.266 15.6058 2.30572
11 1 2 0.115888 18.266 13.716 0.969417
12 1 2 0.115888 18.266 7.37578 13.9447
13 1 2 0.11589 25.3934 11.4908 8.12521
14 1 2 0.11589 11.1386 9.60096 6.7889
15 1 2 0.115888 11.1386 11.4908 8.12521
16 1 2 0.115888 25.3934 9.60096 6.7889
17 1 2 0.115889 15.5206 8.96083 0.969417
18 1 2 0.115889 21.0114 12.1309 13.9447
19 1 2 0.115888 22.648 13.0758 12.6084
20 1 2 0.115888 13.884 8.01592 2.30572
21 1 2 0.115889 21.0114 3.90092 8.12521
22 1 2 0.115889 15.5206 17.1908 6.7889
23 1 2 0.115887 13.884 16.2459 8.12521
24 1 2 0.115887 22.648 4.84583 6.7889
25 1 2 0.115889 22.648 16.2459 8.12521
26 1 2 0.115889 13.884 4.84583 6.7889
27 1 2 0.115887 15.5206 3.90092 8.12521
28 1 2 0.115887 21.0114 17.1908 6.7889
29 1 2 0.115889 21.0114 8.96083 0.969417
30 1 2 0.115889 15.5206 12.1309 13.9447
31 1 2 0.115887 13.884 13.0758 12.6084
32 1 2 0.115887 22.648 8.01592 2.30572
33 1 3 0.671939 27.399 18.7442 13.2542
34 1 3 0.671939 9.13299 2.34751 1.65994
35 1 3 0.671939 27.399 12.8934 9.117
36 1 3 0.671939 9.13299 8.19836 5.79712
37 1 3 0.67194 24.8655 14.3561 13.2542
38 1 3 0.67194 11.6665 6.73565 1.65994
39 1 3 0.67194 29.9325 17.2815 9.117
40 1 3 0.67194 6.5995 3.81022 5.79712
41 1 3 0.67194 24.8655 17.2815 9.117
42 1 3 0.67194 11.6665 3.81022 5.79712
43 1 3 0.67194 29.9325 14.3561 13.2542
44 1 3 0.67194 6.5995 6.73565 1.65994
45 1 3 -0.11508 27.399 19.957 14.1117
46 1 3 -0.11508 9.13299 1.13474 0.802379
47 1 3 -0.11508 27.399 11.6806 8.25944
48 1 3 -0.11508 9.13299 9.41113 6.65468
49 1 3 -0.11508 23.8152 13.7497 14.1117
50 1 3 -0.11508 12.7168 7.34203 0.802379
51 1 3 -0.11508 30.9828 17.8879 8.25944
52 1 3 -0.11508 5.54921 3.20384 6.65468
53 1 3 -0.11508 23.8152 17.8879 8.25944
54 1 3 -0.11508 12.7168 3.20384 6.65468
55 1 3 -0.11508 30.9828 13.7497 14.1117
56 1 3 -0.11508 5.54921 7.34203 0.802379
57 1 3 -0.0559 18.266 5.39949 13.5316
58 1 3 -0.0559 18.266 15.6923 1.38254
59 1 3 -0.055903 18.266 14.5575 0.580159
60 1 3 -0.055903 18.266 6.53422 14.334
61 1 3 -0.0559 26.1971 11.1132 7.85825
62 1 3 -0.0559 10.3349 9.9785 7.05587
63 1 3 -0.055903 10.3349 11.1132 7.85825
64 1 3 -0.055903 26.1971 9.9785 7.05587
65 1 3 -0.0559 14.7918 8.54005 0.580159
66 1 3 -0.0559 21.7402 12.5517 14.334
67 1 3 -0.055903 22.7229 13.1191 13.5316
68 1 3 -0.055903 13.8091 7.97268 1.38254
69 1 3 -0.0559 21.7402 3.39366 7.85825
70 1 3 -0.0559 14.7918 17.6981 7.05587
71 1 3 -0.055903 13.8091 17.1307 7.85825
72 1 3 -0.055903 22.7229 3.96103 7.05587
73 1 3 -0.055901 22.7229 17.1307 7.85825
74 1 3 -0.055901 13.8091 3.96103 7.05587
75 1 3 -0.055903 14.7918 3.39366 7.85825
76 1 3 -0.055903 21.7402 17.6981 7.05587
77 1 3 -0.0559 21.7402 8.54005 0.580159
78 1 3 -0.0559 14.7918 12.5517 14.334
79 1 3 -0.055903 13.8091 13.1191 13.5316
80 1 3 -0.055903 22.7229 7.97268 1.38254
81 1 4 -1.26215 27.399 15.8188 11.1856
82 1 4 -1.26215 9.13299 5.27293 3.72853
83 1 4 -0.60118 27.399 18.9383 11.9641
84 1 4 -0.60118 9.13299 2.15347 2.95001
85 1 4 -0.601179 27.399 17.5926 13.8671
86 1 4 -0.601179 9.13299 3.49912 1.04697
87 1 4 -0.601179 26.2336 13.3722 9.45555
88 1 4 -0.601179 10.2984 7.71958 5.45857
89 1 4 -0.60118 28.5643 13.3722 9.45555
90 1 4 -0.60118 7.96762 7.71958 5.45857
91 1 4 -0.60118 25.8628 14.9319 13.8671
92 1 4 -0.60118 10.6692 6.15984 1.04697
93 1 4 -0.601179 24.6974 14.2591 11.9641
94 1 4 -0.601179 11.8345 6.83267 2.95001
95 1 4 -0.60118 28.9351 18.0514 9.45555
96 1 4 -0.60118 7.59682 3.04037 5.45857
97 1 4 -0.601179 30.1005 16.0329 9.45555
98 1 4 -0.601179 6.43145 5.05885 5.45857
99 1 4 -0.601179 24.6974 16.0329 9.45555
100 1 4 -0.601179 11.8345 5.05885 5.45857
101 1 4 -0.60118 25.8628 18.0514 9.45555
102 1 4 -0.60118 10.6692 3.04037 5.45857
103 1 4 -0.60118 28.9351 14.9319 13.8671
104 1 4 -0.60118 7.59682 6.15984 1.04697
105 1 4 -0.60118 30.1005 14.2591 11.9641
106 1 4 -0.60118 6.43145 6.83267 2.95001
ITEM: TIMESTEP
57000
ITEM: NUMBER OF ATOMS
109
ITEM: BOX BOUNDS xy xz yz pp pp pp
0.0000000000000000e+00 3.6531964750000000e+01 9.1329911900000003e+00
0.0000000000000000e+00 2.1091739680000000e+01 9.1329911900000003e+00
0.0000000000000000e+00 1.4914112149999999e+01 5.2729349200000000e+00
ITEM: ATOMS id mol type q x y z
1 1 1 1.10383 27.399 17.6496 10.5383
2 1 1 1.10383 9.13299 3.44217 4.3758
3 1 1 1.10383 27.399 15.8188 13.1274
4 1 1 1.10383 9.13299 5.27293 1.78671
5 1 1 1.10383 25.8135 14.9034 10.5383
6 1 1 1.10383 10.7185 6.18832 4.3758
7 1 1 1.10383 28.9845 14.9034 10.5383
8 1 1 1.10383 7.5475 6.18832 4.3758
9 1 2 0.115889 18.266 5.48596 12.6084
10 1 2 0.115889 18.266 15.6058 2.30572
11 1 2 0.115888 18.266 13.716 0.969417
12 1 2 0.115888 18.266 7.37578 13.9447
13 1 2 0.11589 25.3934 11.4908 8.12521
14 1 2 0.11589 11.1386 9.60096 6.7889
15 1 2 0.115888 11.1386 11.4908 8.12521
16 1 2 0.115888 25.3934 9.60096 6.7889
17 1 2 0.115889 15.5206 8.96083 0.969417
18 1 2 0.115889 21.0114 12.1309 13.9447
19 1 2 0.115888 22.648 13.0758 12.6084
20 1 2 0.115888 13.884 8.01592 2.30572
21 1 2 0.115889 21.0114 3.90092 8.12521
22 1 2 0.115889 15.5206 17.1908 6.7889
23 1 2 0.115887 13.884 16.2459 8.12521
24 1 2 0.115887 22.648 4.84583 6.7889
25 1 2 0.115889 22.648 16.2459 8.12521
26 1 2 0.115889 13.884 4.84583 6.7889
27 1 2 0.115887 15.5206 3.90092 8.12521
28 1 2 0.115887 21.0114 17.1908 6.7889
29 1 2 0.115889 21.0114 8.96083 0.969417
30 1 2 0.115889 15.5206 12.1309 13.9447
31 1 2 0.115887 13.884 13.0758 12.6084
32 1 2 0.115887 22.648 8.01592 2.30572
33 1 3 0.671939 27.399 18.7442 13.2542
34 1 3 0.671939 9.13299 2.34751 1.65994
35 1 3 0.671939 27.399 12.8934 9.117
36 1 3 0.671939 9.13299 8.19836 5.79712
37 1 3 0.67194 24.8655 14.3561 13.2542
38 1 3 0.67194 11.6665 6.73565 1.65994
39 1 3 0.67194 29.9325 17.2815 9.117
40 1 3 0.67194 6.5995 3.81022 5.79712
41 1 3 0.67194 24.8655 17.2815 9.117
42 1 3 0.67194 11.6665 3.81022 5.79712
43 1 3 0.67194 29.9325 14.3561 13.2542
44 1 3 0.67194 6.5995 6.73565 1.65994
45 1 3 -0.11508 27.399 19.957 14.1117
46 1 3 -0.11508 9.13299 1.13474 0.802379
47 1 3 -0.11508 27.399 11.6806 8.25944
48 1 3 -0.11508 9.13299 9.41113 6.65468
49 1 3 -0.11508 23.8152 13.7497 14.1117
50 1 3 -0.11508 12.7168 7.34203 0.802379
51 1 3 -0.11508 30.9828 17.8879 8.25944
52 1 3 -0.11508 5.54921 3.20384 6.65468
53 1 3 -0.11508 23.8152 17.8879 8.25944
54 1 3 -0.11508 12.7168 3.20384 6.65468
55 1 3 -0.11508 30.9828 13.7497 14.1117
56 1 3 -0.11508 5.54921 7.34203 0.802379
57 1 3 -0.0559 18.266 5.39949 13.5316
58 1 3 -0.0559 18.266 15.6923 1.38254
59 1 3 -0.055903 18.266 14.5575 0.580159
60 1 3 -0.055903 18.266 6.53422 14.334
61 1 3 -0.0559 26.1971 11.1132 7.85825
62 1 3 -0.0559 10.3349 9.9785 7.05587
63 1 3 -0.055903 10.3349 11.1132 7.85825
64 1 3 -0.055903 26.1971 9.9785 7.05587
65 1 3 -0.0559 14.7918 8.54005 0.580159
66 1 3 -0.0559 21.7402 12.5517 14.334
67 1 3 -0.055903 22.7229 13.1191 13.5316
68 1 3 -0.055903 13.8091 7.97268 1.38254
69 1 3 -0.0559 21.7402 3.39366 7.85825
70 1 3 -0.0559 14.7918 17.6981 7.05587
71 1 3 -0.055903 13.8091 17.1307 7.85825
72 1 3 -0.055903 22.7229 3.96103 7.05587
73 1 3 -0.055901 22.7229 17.1307 7.85825
74 1 3 -0.055901 13.8091 3.96103 7.05587
75 1 3 -0.055903 14.7918 3.39366 7.85825
76 1 3 -0.055903 21.7402 17.6981 7.05587
77 1 3 -0.0559 21.7402 8.54005 0.580159
78 1 3 -0.0559 14.7918 12.5517 14.334
79 1 3 -0.055903 13.8091 13.1191 13.5316
80 1 3 -0.055903 22.7229 7.97268 1.38254
81 1 4 -1.26215 27.399 15.8188 11.1856
82 1 4 -1.26215 9.13299 5.27293 3.72853
83 1 4 -0.60118 27.399 18.9383 11.9641
84 1 4 -0.60118 9.13299 2.15347 2.95001
85 1 4 -0.601179 27.399 17.5926 13.8671
86 1 4 -0.601179 9.13299 3.49912 1.04697
87 1 4 -0.601179 26.2336 13.3722 9.45555
88 1 4 -0.601179 10.2984 7.71958 5.45857
89 1 4 -0.60118 28.5643 13.3722 9.45555
90 1 4 -0.60118 7.96762 7.71958 5.45857
91 1 4 -0.60118 25.8628 14.9319 13.8671
92 1 4 -0.60118 10.6692 6.15984 1.04697
93 1 4 -0.601179 24.6974 14.2591 11.9641
94 1 4 -0.601179 11.8345 6.83267 2.95001
95 1 4 -0.60118 28.9351 18.0514 9.45555
96 1 4 -0.60118 7.59682 3.04037 5.45857
97 1 4 -0.601179 30.1005 16.0329 9.45555
98 1 4 -0.601179 6.43145 5.05885 5.45857
99 1 4 -0.601179 24.6974 16.0329 9.45555
100 1 4 -0.601179 11.8345 5.05885 5.45857
101 1 4 -0.60118 25.8628 18.0514 9.45555
102 1 4 -0.60118 10.6692 3.04037 5.45857
103 1 4 -0.60118 28.9351 14.9319 13.8671
104 1 4 -0.60118 7.59682 6.15984 1.04697
105 1 4 -0.60118 30.1005 14.2591 11.9641
106 1 4 -0.60118 6.43145 6.83267 2.95001
107 2 5 -0.35 13.7439 1.03469 1.39096
108 2 6 0.7 12.9471 1.4427 0.653224
109 2 5 -0.35 21.2833 7.12364 14.8296
ITEM: TIMESTEP
58000
ITEM: NUMBER OF ATOMS
109
ITEM: BOX BOUNDS xy xz yz pp pp pp
0.0000000000000000e+00 3.6531964750000000e+01 9.1329911900000003e+00
0.0000000000000000e+00 2.1091739680000000e+01 9.1329911900000003e+00
0.0000000000000000e+00 1.4914112149999999e+01 5.2729349200000000e+00
ITEM: ATOMS id mol type q x y z
1 1 1 1.10383 27.399 17.6496 10.5383
2 1 1 1.10383 9.13299 3.44217 4.3758
3 1 1 1.10383 27.399 15.8188 13.1274
4 1 1 1.10383 9.13299 5.27293 1.78671
5 1 1 1.10383 25.8135 14.9034 10.5383
6 1 1 1.10383 10.7185 6.18832 4.3758
7 1 1 1.10383 28.9845 14.9034 10.5383
8 1 1 1.10383 7.5475 6.18832 4.3758
9 1 2 0.115889 18.266 5.48596 12.6084
10 1 2 0.115889 18.266 15.6058 2.30572
11 1 2 0.115888 18.266 13.716 0.969417
12 1 2 0.115888 18.266 7.37578 13.9447
13 1 2 0.11589 25.3934 11.4908 8.12521
14 1 2 0.11589 11.1386 9.60096 6.7889
15 1 2 0.115888 11.1386 11.4908 8.12521
16 1 2 0.115888 25.3934 9.60096 6.7889
17 1 2 0.115889 15.5206 8.96083 0.969417
18 1 2 0.115889 21.0114 12.1309 13.9447
19 1 2 0.115888 22.648 13.0758 12.6084
20 1 2 0.115888 13.884 8.01592 2.30572
21 1 2 0.115889 21.0114 3.90092 8.12521
22 1 2 0.115889 15.5206 17.1908 6.7889
23 1 2 0.115887 13.884 16.2459 8.12521
24 1 2 0.115887 22.648 4.84583 6.7889
25 1 2 0.115889 22.648 16.2459 8.12521
26 1 2 0.115889 13.884 4.84583 6.7889
27 1 2 0.115887 15.5206 3.90092 8.12521
28 1 2 0.115887 21.0114 17.1908 6.7889
29 1 2 0.115889 21.0114 8.96083 0.969417
30 1 2 0.115889 15.5206 12.1309 13.9447
31 1 2 0.115887 13.884 13.0758 12.6084
32 1 2 0.115887 22.648 8.01592 2.30572
33 1 3 0.671939 27.399 18.7442 13.2542
34 1 3 0.671939 9.13299 2.34751 1.65994
35 1 3 0.671939 27.399 12.8934 9.117
36 1 3 0.671939 9.13299 8.19836 5.79712
37 1 3 0.67194 24.8655 14.3561 13.2542
38 1 3 0.67194 11.6665 6.73565 1.65994
39 1 3 0.67194 29.9325 17.2815 9.117
40 1 3 0.67194 6.5995 3.81022 5.79712
41 1 3 0.67194 24.8655 17.2815 9.117
42 1 3 0.67194 11.6665 3.81022 5.79712
43 1 3 0.67194 29.9325 14.3561 13.2542
44 1 3 0.67194 6.5995 6.73565 1.65994
45 1 3 -0.11508 27.399 19.957 14.1117
46 1 3 -0.11508 9.13299 1.13474 0.802379
47 1 3 -0.11508 27.399 11.6806 8.25944
48 1 3 -0.11508 9.13299 9.41113 6.65468
49 1 3 -0.11508 23.8152 13.7497 14.1117
50 1 3 -0.11508 12.7168 7.34203 0.802379
51 1 3 -0.11508 30.9828 17.8879 8.25944
52 1 3 -0.11508 5.54921 3.20384 6.65468
53 1 3 -0.11508 23.8152 17.8879 8.25944
54 1 3 -0.11508 12.7168 3.20384 6.65468
55 1 3 -0.11508 30.9828 13.7497 14.1117
56 1 3 -0.11508 5.54921 7.34203 0.802379
57 1 3 -0.0559 18.266 5.39949 13.5316
58 1 3 -0.0559 18.266 15.6923 1.38254
59 1 3 -0.055903 18.266 14.5575 0.580159
60 1 3 -0.055903 18.266 6.53422 14.334
61 1 3 -0.0559 26.1971 11.1132 7.85825
62 1 3 -0.0559 10.3349 9.9785 7.05587
63 1 3 -0.055903 10.3349 11.1132 7.85825
64 1 3 -0.055903 26.1971 9.9785 7.05587
65 1 3 -0.0559 14.7918 8.54005 0.580159
66 1 3 -0.0559 21.7402 12.5517 14.334
67 1 3 -0.055903 22.7229 13.1191 13.5316
68 1 3 -0.055903 13.8091 7.97268 1.38254
69 1 3 -0.0559 21.7402 3.39366 7.85825
70 1 3 -0.0559 14.7918 17.6981 7.05587
71 1 3 -0.055903 13.8091 17.1307 7.85825
72 1 3 -0.055903 22.7229 3.96103 7.05587
73 1 3 -0.055901 22.7229 17.1307 7.85825
74 1 3 -0.055901 13.8091 3.96103 7.05587
75 1 3 -0.055903 14.7918 3.39366 7.85825
76 1 3 -0.055903 21.7402 17.6981 7.05587
77 1 3 -0.0559 21.7402 8.54005 0.580159
78 1 3 -0.0559 14.7918 12.5517 14.334
79 1 3 -0.055903 13.8091 13.1191 13.5316
80 1 3 -0.055903 22.7229 7.97268 1.38254
81 1 4 -1.26215 27.399 15.8188 11.1856
82 1 4 -1.26215 9.13299 5.27293 3.72853
83 1 4 -0.60118 27.399 18.9383 11.9641
84 1 4 -0.60118 9.13299 2.15347 2.95001
85 1 4 -0.601179 27.399 17.5926 13.8671
86 1 4 -0.601179 9.13299 3.49912 1.04697
87 1 4 -0.601179 26.2336 13.3722 9.45555
88 1 4 -0.601179 10.2984 7.71958 5.45857
89 1 4 -0.60118 28.5643 13.3722 9.45555
90 1 4 -0.60118 7.96762 7.71958 5.45857
91 1 4 -0.60118 25.8628 14.9319 13.8671
92 1 4 -0.60118 10.6692 6.15984 1.04697
93 1 4 -0.601179 24.6974 14.2591 11.9641
94 1 4 -0.601179 11.8345 6.83267 2.95001
95 1 4 -0.60118 28.9351 18.0514 9.45555
96 1 4 -0.60118 7.59682 3.04037 5.45857
97 1 4 -0.601179 30.1005 16.0329 9.45555
98 1 4 -0.601179 6.43145 5.05885 5.45857
99 1 4 -0.601179 24.6974 16.0329 9.45555
100 1 4 -0.601179 11.8345 5.05885 5.45857
101 1 4 -0.60118 25.8628 18.0514 9.45555
102 1 4 -0.60118 10.6692 3.04037 5.45857
103 1 4 -0.60118 28.9351 14.9319 13.8671
104 1 4 -0.60118 7.59682 6.15984 1.04697
105 1 4 -0.60118 30.1005 14.2591 11.9641
106 1 4 -0.60118 6.43145 6.83267 2.95001
107 2 5 -0.35 17.6682 18.6251 9.12969
108 2 6 0.7 8.59919 3.67407 8.36255
109 2 5 -0.35 8.6632 4.54182 7.5954
ITEM: TIMESTEP
59000
ITEM: NUMBER OF ATOMS
106
ITEM: BOX BOUNDS xy xz yz pp pp pp
0.0000000000000000e+00 3.6531964750000000e+01 9.1329911900000003e+00
0.0000000000000000e+00 2.1091739680000000e+01 9.1329911900000003e+00
0.0000000000000000e+00 1.4914112149999999e+01 5.2729349200000000e+00
ITEM: ATOMS id mol type q x y z
1 1 1 1.10383 27.399 17.6496 10.5383
2 1 1 1.10383 9.13299 3.44217 4.3758
3 1 1 1.10383 27.399 15.8188 13.1274
4 1 1 1.10383 9.13299 5.27293 1.78671
5 1 1 1.10383 25.8135 14.9034 10.5383
6 1 1 1.10383 10.7185 6.18832 4.3758
7 1 1 1.10383 28.9845 14.9034 10.5383
8 1 1 1.10383 7.5475 6.18832 4.3758
9 1 2 0.115889 18.266 5.48596 12.6084
10 1 2 0.115889 18.266 15.6058 2.30572
11 1 2 0.115888 18.266 13.716 0.969417
12 1 2 0.115888 18.266 7.37578 13.9447
13 1 2 0.11589 25.3934 11.4908 8.12521
14 1 2 0.11589 11.1386 9.60096 6.7889
15 1 2 0.115888 11.1386 11.4908 8.12521
16 1 2 0.115888 25.3934 9.60096 6.7889
17 1 2 0.115889 15.5206 8.96083 0.969417
18 1 2 0.115889 21.0114 12.1309 13.9447
19 1 2 0.115888 22.648 13.0758 12.6084
20 1 2 0.115888 13.884 8.01592 2.30572
21 1 2 0.115889 21.0114 3.90092 8.12521
22 1 2 0.115889 15.5206 17.1908 6.7889
23 1 2 0.115887 13.884 16.2459 8.12521
24 1 2 0.115887 22.648 4.84583 6.7889
25 1 2 0.115889 22.648 16.2459 8.12521
26 1 2 0.115889 13.884 4.84583 6.7889
27 1 2 0.115887 15.5206 3.90092 8.12521
28 1 2 0.115887 21.0114 17.1908 6.7889
29 1 2 0.115889 21.0114 8.96083 0.969417
30 1 2 0.115889 15.5206 12.1309 13.9447
31 1 2 0.115887 13.884 13.0758 12.6084
32 1 2 0.115887 22.648 8.01592 2.30572
33 1 3 0.671939 27.399 18.7442 13.2542
34 1 3 0.671939 9.13299 2.34751 1.65994
35 1 3 0.671939 27.399 12.8934 9.117
36 1 3 0.671939 9.13299 8.19836 5.79712
37 1 3 0.67194 24.8655 14.3561 13.2542
38 1 3 0.67194 11.6665 6.73565 1.65994
39 1 3 0.67194 29.9325 17.2815 9.117
40 1 3 0.67194 6.5995 3.81022 5.79712
41 1 3 0.67194 24.8655 17.2815 9.117
42 1 3 0.67194 11.6665 3.81022 5.79712
43 1 3 0.67194 29.9325 14.3561 13.2542
44 1 3 0.67194 6.5995 6.73565 1.65994
45 1 3 -0.11508 27.399 19.957 14.1117
46 1 3 -0.11508 9.13299 1.13474 0.802379
47 1 3 -0.11508 27.399 11.6806 8.25944
48 1 3 -0.11508 9.13299 9.41113 6.65468
49 1 3 -0.11508 23.8152 13.7497 14.1117
50 1 3 -0.11508 12.7168 7.34203 0.802379
51 1 3 -0.11508 30.9828 17.8879 8.25944
52 1 3 -0.11508 5.54921 3.20384 6.65468
53 1 3 -0.11508 23.8152 17.8879 8.25944
54 1 3 -0.11508 12.7168 3.20384 6.65468
55 1 3 -0.11508 30.9828 13.7497 14.1117
56 1 3 -0.11508 5.54921 7.34203 0.802379
57 1 3 -0.0559 18.266 5.39949 13.5316
58 1 3 -0.0559 18.266 15.6923 1.38254
59 1 3 -0.055903 18.266 14.5575 0.580159
60 1 3 -0.055903 18.266 6.53422 14.334
61 1 3 -0.0559 26.1971 11.1132 7.85825
62 1 3 -0.0559 10.3349 9.9785 7.05587
63 1 3 -0.055903 10.3349 11.1132 7.85825
64 1 3 -0.055903 26.1971 9.9785 7.05587
65 1 3 -0.0559 14.7918 8.54005 0.580159
66 1 3 -0.0559 21.7402 12.5517 14.334
67 1 3 -0.055903 22.7229 13.1191 13.5316
68 1 3 -0.055903 13.8091 7.97268 1.38254
69 1 3 -0.0559 21.7402 3.39366 7.85825
70 1 3 -0.0559 14.7918 17.6981 7.05587
71 1 3 -0.055903 13.8091 17.1307 7.85825
72 1 3 -0.055903 22.7229 3.96103 7.05587
73 1 3 -0.055901 22.7229 17.1307 7.85825
74 1 3 -0.055901 13.8091 3.96103 7.05587
75 1 3 -0.055903 14.7918 3.39366 7.85825
76 1 3 -0.055903 21.7402 17.6981 7.05587
77 1 3 -0.0559 21.7402 8.54005 0.580159
78 1 3 -0.0559 14.7918 12.5517 14.334
79 1 3 -0.055903 13.8091 13.1191 13.5316
80 1 3 -0.055903 22.7229 7.97268 1.38254
81 1 4 -1.26215 27.399 15.8188 11.1856
82 1 4 -1.26215 9.13299 5.27293 3.72853
83 1 4 -0.60118 27.399 18.9383 11.9641
84 1 4 -0.60118 9.13299 2.15347 2.95001
85 1 4 -0.601179 27.399 17.5926 13.8671
86 1 4 -0.601179 9.13299 3.49912 1.04697
87 1 4 -0.601179 26.2336 13.3722 9.45555
88 1 4 -0.601179 10.2984 7.71958 5.45857
89 1 4 -0.60118 28.5643 13.3722 9.45555
90 1 4 -0.60118 7.96762 7.71958 5.45857
91 1 4 -0.60118 25.8628 14.9319 13.8671
92 1 4 -0.60118 10.6692 6.15984 1.04697
93 1 4 -0.601179 24.6974 14.2591 11.9641
94 1 4 -0.601179 11.8345 6.83267 2.95001
95 1 4 -0.60118 28.9351 18.0514 9.45555
96 1 4 -0.60118 7.59682 3.04037 5.45857
97 1 4 -0.601179 30.1005 16.0329 9.45555
98 1 4 -0.601179 6.43145 5.05885 5.45857
99 1 4 -0.601179 24.6974 16.0329 9.45555
100 1 4 -0.601179 11.8345 5.05885 5.45857
101 1 4 -0.60118 25.8628 18.0514 9.45555
102 1 4 -0.60118 10.6692 3.04037 5.45857
103 1 4 -0.60118 28.9351 14.9319 13.8671
104 1 4 -0.60118 7.59682 6.15984 1.04697
105 1 4 -0.60118 30.1005 14.2591 11.9641
106 1 4 -0.60118 6.43145 6.83267 2.95001
ITEM: TIMESTEP
60000
ITEM: NUMBER OF ATOMS
106
ITEM: BOX BOUNDS xy xz yz pp pp pp
0.0000000000000000e+00 3.6531964750000000e+01 9.1329911900000003e+00
0.0000000000000000e+00 2.1091739680000000e+01 9.1329911900000003e+00
0.0000000000000000e+00 1.4914112149999999e+01 5.2729349200000000e+00
ITEM: ATOMS id mol type q x y z
1 1 1 1.10383 27.399 17.6496 10.5383
2 1 1 1.10383 9.13299 3.44217 4.3758
3 1 1 1.10383 27.399 15.8188 13.1274
4 1 1 1.10383 9.13299 5.27293 1.78671
5 1 1 1.10383 25.8135 14.9034 10.5383
6 1 1 1.10383 10.7185 6.18832 4.3758
7 1 1 1.10383 28.9845 14.9034 10.5383
8 1 1 1.10383 7.5475 6.18832 4.3758
9 1 2 0.115889 18.266 5.48596 12.6084
10 1 2 0.115889 18.266 15.6058 2.30572
11 1 2 0.115888 18.266 13.716 0.969417
12 1 2 0.115888 18.266 7.37578 13.9447
13 1 2 0.11589 25.3934 11.4908 8.12521
14 1 2 0.11589 11.1386 9.60096 6.7889
15 1 2 0.115888 11.1386 11.4908 8.12521
16 1 2 0.115888 25.3934 9.60096 6.7889
17 1 2 0.115889 15.5206 8.96083 0.969417
18 1 2 0.115889 21.0114 12.1309 13.9447
19 1 2 0.115888 22.648 13.0758 12.6084
20 1 2 0.115888 13.884 8.01592 2.30572
21 1 2 0.115889 21.0114 3.90092 8.12521
22 1 2 0.115889 15.5206 17.1908 6.7889
23 1 2 0.115887 13.884 16.2459 8.12521
24 1 2 0.115887 22.648 4.84583 6.7889
25 1 2 0.115889 22.648 16.2459 8.12521
26 1 2 0.115889 13.884 4.84583 6.7889
27 1 2 0.115887 15.5206 3.90092 8.12521
28 1 2 0.115887 21.0114 17.1908 6.7889
29 1 2 0.115889 21.0114 8.96083 0.969417
30 1 2 0.115889 15.5206 12.1309 13.9447
31 1 2 0.115887 13.884 13.0758 12.6084
32 1 2 0.115887 22.648 8.01592 2.30572
33 1 3 0.671939 27.399 18.7442 13.2542
34 1 3 0.671939 9.13299 2.34751 1.65994
35 1 3 0.671939 27.399 12.8934 9.117
36 1 3 0.671939 9.13299 8.19836 5.79712
37 1 3 0.67194 24.8655 14.3561 13.2542
38 1 3 0.67194 11.6665 6.73565 1.65994
39 1 3 0.67194 29.9325 17.2815 9.117
40 1 3 0.67194 6.5995 3.81022 5.79712
41 1 3 0.67194 24.8655 17.2815 9.117
42 1 3 0.67194 11.6665 3.81022 5.79712
43 1 3 0.67194 29.9325 14.3561 13.2542
44 1 3 0.67194 6.5995 6.73565 1.65994
45 1 3 -0.11508 27.399 19.957 14.1117
46 1 3 -0.11508 9.13299 1.13474 0.802379
47 1 3 -0.11508 27.399 11.6806 8.25944
48 1 3 -0.11508 9.13299 9.41113 6.65468
49 1 3 -0.11508 23.8152 13.7497 14.1117
50 1 3 -0.11508 12.7168 7.34203 0.802379
51 1 3 -0.11508 30.9828 17.8879 8.25944
52 1 3 -0.11508 5.54921 3.20384 6.65468
53 1 3 -0.11508 23.8152 17.8879 8.25944
54 1 3 -0.11508 12.7168 3.20384 6.65468
55 1 3 -0.11508 30.9828 13.7497 14.1117
56 1 3 -0.11508 5.54921 7.34203 0.802379
57 1 3 -0.0559 18.266 5.39949 13.5316
58 1 3 -0.0559 18.266 15.6923 1.38254
59 1 3 -0.055903 18.266 14.5575 0.580159
60 1 3 -0.055903 18.266 6.53422 14.334
61 1 3 -0.0559 26.1971 11.1132 7.85825
62 1 3 -0.0559 10.3349 9.9785 7.05587
63 1 3 -0.055903 10.3349 11.1132 7.85825
64 1 3 -0.055903 26.1971 9.9785 7.05587
65 1 3 -0.0559 14.7918 8.54005 0.580159
66 1 3 -0.0559 21.7402 12.5517 14.334
67 1 3 -0.055903 22.7229 13.1191 13.5316
68 1 3 -0.055903 13.8091 7.97268 1.38254
69 1 3 -0.0559 21.7402 3.39366 7.85825
70 1 3 -0.0559 14.7918 17.6981 7.05587
71 1 3 -0.055903 13.8091 17.1307 7.85825
72 1 3 -0.055903 22.7229 3.96103 7.05587
73 1 3 -0.055901 22.7229 17.1307 7.85825
74 1 3 -0.055901 13.8091 3.96103 7.05587
75 1 3 -0.055903 14.7918 3.39366 7.85825
76 1 3 -0.055903 21.7402 17.6981 7.05587
77 1 3 -0.0559 21.7402 8.54005 0.580159
78 1 3 -0.0559 14.7918 12.5517 14.334
79 1 3 -0.055903 13.8091 13.1191 13.5316
80 1 3 -0.055903 22.7229 7.97268 1.38254
81 1 4 -1.26215 27.399 15.8188 11.1856
82 1 4 -1.26215 9.13299 5.27293 3.72853
83 1 4 -0.60118 27.399 18.9383 11.9641
84 1 4 -0.60118 9.13299 2.15347 2.95001
85 1 4 -0.601179 27.399 17.5926 13.8671
86 1 4 -0.601179 9.13299 3.49912 1.04697
87 1 4 -0.601179 26.2336 13.3722 9.45555
88 1 4 -0.601179 10.2984 7.71958 5.45857
89 1 4 -0.60118 28.5643 13.3722 9.45555
90 1 4 -0.60118 7.96762 7.71958 5.45857
91 1 4 -0.60118 25.8628 14.9319 13.8671
92 1 4 -0.60118 10.6692 6.15984 1.04697
93 1 4 -0.601179 24.6974 14.2591 11.9641
94 1 4 -0.601179 11.8345 6.83267 2.95001
95 1 4 -0.60118 28.9351 18.0514 9.45555
96 1 4 -0.60118 7.59682 3.04037 5.45857
97 1 4 -0.601179 30.1005 16.0329 9.45555
98 1 4 -0.601179 6.43145 5.05885 5.45857
99 1 4 -0.601179 24.6974 16.0329 9.45555
100 1 4 -0.601179 11.8345 5.05885 5.45857
101 1 4 -0.60118 25.8628 18.0514 9.45555
102 1 4 -0.60118 10.6692 3.04037 5.45857
103 1 4 -0.60118 28.9351 14.9319 13.8671
104 1 4 -0.60118 7.59682 6.15984 1.04697
105 1 4 -0.60118 30.1005 14.2591 11.9641
106 1 4 -0.60118 6.43145 6.83267 2.95001
ITEM: TIMESTEP
61000
ITEM: NUMBER OF ATOMS
106
ITEM: BOX BOUNDS xy xz yz pp pp pp
0.0000000000000000e+00 3.6531964750000000e+01 9.1329911900000003e+00
0.0000000000000000e+00 2.1091739680000000e+01 9.1329911900000003e+00
0.0000000000000000e+00 1.4914112149999999e+01 5.2729349200000000e+00
ITEM: ATOMS id mol type q x y z
1 1 1 1.10383 27.399 17.6496 10.5383
2 1 1 1.10383 9.13299 3.44217 4.3758
3 1 1 1.10383 27.399 15.8188 13.1274
4 1 1 1.10383 9.13299 5.27293 1.78671
5 1 1 1.10383 25.8135 14.9034 10.5383
6 1 1 1.10383 10.7185 6.18832 4.3758
7 1 1 1.10383 28.9845 14.9034 10.5383
8 1 1 1.10383 7.5475 6.18832 4.3758
9 1 2 0.115889 18.266 5.48596 12.6084
10 1 2 0.115889 18.266 15.6058 2.30572
11 1 2 0.115888 18.266 13.716 0.969417
12 1 2 0.115888 18.266 7.37578 13.9447
13 1 2 0.11589 25.3934 11.4908 8.12521
14 1 2 0.11589 11.1386 9.60096 6.7889
15 1 2 0.115888 11.1386 11.4908 8.12521
16 1 2 0.115888 25.3934 9.60096 6.7889
17 1 2 0.115889 15.5206 8.96083 0.969417
18 1 2 0.115889 21.0114 12.1309 13.9447
19 1 2 0.115888 22.648 13.0758 12.6084
20 1 2 0.115888 13.884 8.01592 2.30572
21 1 2 0.115889 21.0114 3.90092 8.12521
22 1 2 0.115889 15.5206 17.1908 6.7889
23 1 2 0.115887 13.884 16.2459 8.12521
24 1 2 0.115887 22.648 4.84583 6.7889
25 1 2 0.115889 22.648 16.2459 8.12521
26 1 2 0.115889 13.884 4.84583 6.7889
27 1 2 0.115887 15.5206 3.90092 8.12521
28 1 2 0.115887 21.0114 17.1908 6.7889
29 1 2 0.115889 21.0114 8.96083 0.969417
30 1 2 0.115889 15.5206 12.1309 13.9447
31 1 2 0.115887 13.884 13.0758 12.6084
32 1 2 0.115887 22.648 8.01592 2.30572
33 1 3 0.671939 27.399 18.7442 13.2542
34 1 3 0.671939 9.13299 2.34751 1.65994
35 1 3 0.671939 27.399 12.8934 9.117
36 1 3 0.671939 9.13299 8.19836 5.79712
37 1 3 0.67194 24.8655 14.3561 13.2542
38 1 3 0.67194 11.6665 6.73565 1.65994
39 1 3 0.67194 29.9325 17.2815 9.117
40 1 3 0.67194 6.5995 3.81022 5.79712
41 1 3 0.67194 24.8655 17.2815 9.117
42 1 3 0.67194 11.6665 3.81022 5.79712
43 1 3 0.67194 29.9325 14.3561 13.2542
44 1 3 0.67194 6.5995 6.73565 1.65994
45 1 3 -0.11508 27.399 19.957 14.1117
46 1 3 -0.11508 9.13299 1.13474 0.802379
47 1 3 -0.11508 27.399 11.6806 8.25944
48 1 3 -0.11508 9.13299 9.41113 6.65468
49 1 3 -0.11508 23.8152 13.7497 14.1117
50 1 3 -0.11508 12.7168 7.34203 0.802379
51 1 3 -0.11508 30.9828 17.8879 8.25944
52 1 3 -0.11508 5.54921 3.20384 6.65468
53 1 3 -0.11508 23.8152 17.8879 8.25944
54 1 3 -0.11508 12.7168 3.20384 6.65468
55 1 3 -0.11508 30.9828 13.7497 14.1117
56 1 3 -0.11508 5.54921 7.34203 0.802379
57 1 3 -0.0559 18.266 5.39949 13.5316
58 1 3 -0.0559 18.266 15.6923 1.38254
59 1 3 -0.055903 18.266 14.5575 0.580159
60 1 3 -0.055903 18.266 6.53422 14.334
61 1 3 -0.0559 26.1971 11.1132 7.85825
62 1 3 -0.0559 10.3349 9.9785 7.05587
63 1 3 -0.055903 10.3349 11.1132 7.85825
64 1 3 -0.055903 26.1971 9.9785 7.05587
65 1 3 -0.0559 14.7918 8.54005 0.580159
66 1 3 -0.0559 21.7402 12.5517 14.334
67 1 3 -0.055903 22.7229 13.1191 13.5316
68 1 3 -0.055903 13.8091 7.97268 1.38254
69 1 3 -0.0559 21.7402 3.39366 7.85825
70 1 3 -0.0559 14.7918 17.6981 7.05587
71 1 3 -0.055903 13.8091 17.1307 7.85825
72 1 3 -0.055903 22.7229 3.96103 7.05587
73 1 3 -0.055901 22.7229 17.1307 7.85825
74 1 3 -0.055901 13.8091 3.96103 7.05587
75 1 3 -0.055903 14.7918 3.39366 7.85825
76 1 3 -0.055903 21.7402 17.6981 7.05587
77 1 3 -0.0559 21.7402 8.54005 0.580159
78 1 3 -0.0559 14.7918 12.5517 14.334
79 1 3 -0.055903 13.8091 13.1191 13.5316
80 1 3 -0.055903 22.7229 7.97268 1.38254
81 1 4 -1.26215 27.399 15.8188 11.1856
82 1 4 -1.26215 9.13299 5.27293 3.72853
83 1 4 -0.60118 27.399 18.9383 11.9641
84 1 4 -0.60118 9.13299 2.15347 2.95001
85 1 4 -0.601179 27.399 17.5926 13.8671
86 1 4 -0.601179 9.13299 3.49912 1.04697
87 1 4 -0.601179 26.2336 13.3722 9.45555
88 1 4 -0.601179 10.2984 7.71958 5.45857
89 1 4 -0.60118 28.5643 13.3722 9.45555
90 1 4 -0.60118 7.96762 7.71958 5.45857
91 1 4 -0.60118 25.8628 14.9319 13.8671
92 1 4 -0.60118 10.6692 6.15984 1.04697
93 1 4 -0.601179 24.6974 14.2591 11.9641
94 1 4 -0.601179 11.8345 6.83267 2.95001
95 1 4 -0.60118 28.9351 18.0514 9.45555
96 1 4 -0.60118 7.59682 3.04037 5.45857
97 1 4 -0.601179 30.1005 16.0329 9.45555
98 1 4 -0.601179 6.43145 5.05885 5.45857
99 1 4 -0.601179 24.6974 16.0329 9.45555
100 1 4 -0.601179 11.8345 5.05885 5.45857
101 1 4 -0.60118 25.8628 18.0514 9.45555
102 1 4 -0.60118 10.6692 3.04037 5.45857
103 1 4 -0.60118 28.9351 14.9319 13.8671
104 1 4 -0.60118 7.59682 6.15984 1.04697
105 1 4 -0.60118 30.1005 14.2591 11.9641
106 1 4 -0.60118 6.43145 6.83267 2.95001
ITEM: TIMESTEP
62000
ITEM: NUMBER OF ATOMS
106
ITEM: BOX BOUNDS xy xz yz pp pp pp
0.0000000000000000e+00 3.6531964750000000e+01 9.1329911900000003e+00
0.0000000000000000e+00 2.1091739680000000e+01 9.1329911900000003e+00
0.0000000000000000e+00 1.4914112149999999e+01 5.2729349200000000e+00
ITEM: ATOMS id mol type q x y z
1 1 1 1.10383 27.399 17.6496 10.5383
2 1 1 1.10383 9.13299 3.44217 4.3758
3 1 1 1.10383 27.399 15.8188 13.1274
4 1 1 1.10383 9.13299 5.27293 1.78671
5 1 1 1.10383 25.8135 14.9034 10.5383
6 1 1 1.10383 10.7185 6.18832 4.3758
7 1 1 1.10383 28.9845 14.9034 10.5383
8 1 1 1.10383 7.5475 6.18832 4.3758
9 1 2 0.115889 18.266 5.48596 12.6084
10 1 2 0.115889 18.266 15.6058 2.30572
11 1 2 0.115888 18.266 13.716 0.969417
12 1 2 0.115888 18.266 7.37578 13.9447
13 1 2 0.11589 25.3934 11.4908 8.12521
14 1 2 0.11589 11.1386 9.60096 6.7889
15 1 2 0.115888 11.1386 11.4908 8.12521
16 1 2 0.115888 25.3934 9.60096 6.7889
17 1 2 0.115889 15.5206 8.96083 0.969417
18 1 2 0.115889 21.0114 12.1309 13.9447
19 1 2 0.115888 22.648 13.0758 12.6084
20 1 2 0.115888 13.884 8.01592 2.30572
21 1 2 0.115889 21.0114 3.90092 8.12521
22 1 2 0.115889 15.5206 17.1908 6.7889
23 1 2 0.115887 13.884 16.2459 8.12521
24 1 2 0.115887 22.648 4.84583 6.7889
25 1 2 0.115889 22.648 16.2459 8.12521
26 1 2 0.115889 13.884 4.84583 6.7889
27 1 2 0.115887 15.5206 3.90092 8.12521
28 1 2 0.115887 21.0114 17.1908 6.7889
29 1 2 0.115889 21.0114 8.96083 0.969417
30 1 2 0.115889 15.5206 12.1309 13.9447
31 1 2 0.115887 13.884 13.0758 12.6084
32 1 2 0.115887 22.648 8.01592 2.30572
33 1 3 0.671939 27.399 18.7442 13.2542
34 1 3 0.671939 9.13299 2.34751 1.65994
35 1 3 0.671939 27.399 12.8934 9.117
36 1 3 0.671939 9.13299 8.19836 5.79712
37 1 3 0.67194 24.8655 14.3561 13.2542
38 1 3 0.67194 11.6665 6.73565 1.65994
39 1 3 0.67194 29.9325 17.2815 9.117
40 1 3 0.67194 6.5995 3.81022 5.79712
41 1 3 0.67194 24.8655 17.2815 9.117
42 1 3 0.67194 11.6665 3.81022 5.79712
43 1 3 0.67194 29.9325 14.3561 13.2542
44 1 3 0.67194 6.5995 6.73565 1.65994
45 1 3 -0.11508 27.399 19.957 14.1117
46 1 3 -0.11508 9.13299 1.13474 0.802379
47 1 3 -0.11508 27.399 11.6806 8.25944
48 1 3 -0.11508 9.13299 9.41113 6.65468
49 1 3 -0.11508 23.8152 13.7497 14.1117
50 1 3 -0.11508 12.7168 7.34203 0.802379
51 1 3 -0.11508 30.9828 17.8879 8.25944
52 1 3 -0.11508 5.54921 3.20384 6.65468
53 1 3 -0.11508 23.8152 17.8879 8.25944
54 1 3 -0.11508 12.7168 3.20384 6.65468
55 1 3 -0.11508 30.9828 13.7497 14.1117
56 1 3 -0.11508 5.54921 7.34203 0.802379
57 1 3 -0.0559 18.266 5.39949 13.5316
58 1 3 -0.0559 18.266 15.6923 1.38254
59 1 3 -0.055903 18.266 14.5575 0.580159
60 1 3 -0.055903 18.266 6.53422 14.334
61 1 3 -0.0559 26.1971 11.1132 7.85825
62 1 3 -0.0559 10.3349 9.9785 7.05587
63 1 3 -0.055903 10.3349 11.1132 7.85825
64 1 3 -0.055903 26.1971 9.9785 7.05587
65 1 3 -0.0559 14.7918 8.54005 0.580159
66 1 3 -0.0559 21.7402 12.5517 14.334
67 1 3 -0.055903 22.7229 13.1191 13.5316
68 1 3 -0.055903 13.8091 7.97268 1.38254
69 1 3 -0.0559 21.7402 3.39366 7.85825
70 1 3 -0.0559 14.7918 17.6981 7.05587
71 1 3 -0.055903 13.8091 17.1307 7.85825
72 1 3 -0.055903 22.7229 3.96103 7.05587
73 1 3 -0.055901 22.7229 17.1307 7.85825
74 1 3 -0.055901 13.8091 3.96103 7.05587
75 1 3 -0.055903 14.7918 3.39366 7.85825
76 1 3 -0.055903 21.7402 17.6981 7.05587
77 1 3 -0.0559 21.7402 8.54005 0.580159
78 1 3 -0.0559 14.7918 12.5517 14.334
79 1 3 -0.055903 13.8091 13.1191 13.5316
80 1 3 -0.055903 22.7229 7.97268 1.38254
81 1 4 -1.26215 27.399 15.8188 11.1856
82 1 4 -1.26215 9.13299 5.27293 3.72853
83 1 4 -0.60118 27.399 18.9383 11.9641
84 1 4 -0.60118 9.13299 2.15347 2.95001
85 1 4 -0.601179 27.399 17.5926 13.8671
86 1 4 -0.601179 9.13299 3.49912 1.04697
87 1 4 -0.601179 26.2336 13.3722 9.45555
88 1 4 -0.601179 10.2984 7.71958 5.45857
89 1 4 -0.60118 28.5643 13.3722 9.45555
90 1 4 -0.60118 7.96762 7.71958 5.45857
91 1 4 -0.60118 25.8628 14.9319 13.8671
92 1 4 -0.60118 10.6692 6.15984 1.04697
93 1 4 -0.601179 24.6974 14.2591 11.9641
94 1 4 -0.601179 11.8345 6.83267 2.95001
95 1 4 -0.60118 28.9351 18.0514 9.45555
96 1 4 -0.60118 7.59682 3.04037 5.45857
97 1 4 -0.601179 30.1005 16.0329 9.45555
98 1 4 -0.601179 6.43145 5.05885 5.45857
99 1 4 -0.601179 24.6974 16.0329 9.45555
100 1 4 -0.601179 11.8345 5.05885 5.45857
101 1 4 -0.60118 25.8628 18.0514 9.45555
102 1 4 -0.60118 10.6692 3.04037 5.45857
103 1 4 -0.60118 28.9351 14.9319 13.8671
104 1 4 -0.60118 7.59682 6.15984 1.04697
105 1 4 -0.60118 30.1005 14.2591 11.9641
106 1 4 -0.60118 6.43145 6.83267 2.95001
ITEM: TIMESTEP
63000
ITEM: NUMBER OF ATOMS
106
ITEM: BOX BOUNDS xy xz yz pp pp pp
0.0000000000000000e+00 3.6531964750000000e+01 9.1329911900000003e+00
0.0000000000000000e+00 2.1091739680000000e+01 9.1329911900000003e+00
0.0000000000000000e+00 1.4914112149999999e+01 5.2729349200000000e+00
ITEM: ATOMS id mol type q x y z
1 1 1 1.10383 27.399 17.6496 10.5383
2 1 1 1.10383 9.13299 3.44217 4.3758
3 1 1 1.10383 27.399 15.8188 13.1274
4 1 1 1.10383 9.13299 5.27293 1.78671
5 1 1 1.10383 25.8135 14.9034 10.5383
6 1 1 1.10383 10.7185 6.18832 4.3758
7 1 1 1.10383 28.9845 14.9034 10.5383
8 1 1 1.10383 7.5475 6.18832 4.3758
9 1 2 0.115889 18.266 5.48596 12.6084
10 1 2 0.115889 18.266 15.6058 2.30572
11 1 2 0.115888 18.266 13.716 0.969417
12 1 2 0.115888 18.266 7.37578 13.9447
13 1 2 0.11589 25.3934 11.4908 8.12521
14 1 2 0.11589 11.1386 9.60096 6.7889
15 1 2 0.115888 11.1386 11.4908 8.12521
16 1 2 0.115888 25.3934 9.60096 6.7889
17 1 2 0.115889 15.5206 8.96083 0.969417
18 1 2 0.115889 21.0114 12.1309 13.9447
19 1 2 0.115888 22.648 13.0758 12.6084
20 1 2 0.115888 13.884 8.01592 2.30572
21 1 2 0.115889 21.0114 3.90092 8.12521
22 1 2 0.115889 15.5206 17.1908 6.7889
23 1 2 0.115887 13.884 16.2459 8.12521
24 1 2 0.115887 22.648 4.84583 6.7889
25 1 2 0.115889 22.648 16.2459 8.12521
26 1 2 0.115889 13.884 4.84583 6.7889
27 1 2 0.115887 15.5206 3.90092 8.12521
28 1 2 0.115887 21.0114 17.1908 6.7889
29 1 2 0.115889 21.0114 8.96083 0.969417
30 1 2 0.115889 15.5206 12.1309 13.9447
31 1 2 0.115887 13.884 13.0758 12.6084
32 1 2 0.115887 22.648 8.01592 2.30572
33 1 3 0.671939 27.399 18.7442 13.2542
34 1 3 0.671939 9.13299 2.34751 1.65994
35 1 3 0.671939 27.399 12.8934 9.117
36 1 3 0.671939 9.13299 8.19836 5.79712
37 1 3 0.67194 24.8655 14.3561 13.2542
38 1 3 0.67194 11.6665 6.73565 1.65994
39 1 3 0.67194 29.9325 17.2815 9.117
40 1 3 0.67194 6.5995 3.81022 5.79712
41 1 3 0.67194 24.8655 17.2815 9.117
42 1 3 0.67194 11.6665 3.81022 5.79712
43 1 3 0.67194 29.9325 14.3561 13.2542
44 1 3 0.67194 6.5995 6.73565 1.65994
45 1 3 -0.11508 27.399 19.957 14.1117
46 1 3 -0.11508 9.13299 1.13474 0.802379
47 1 3 -0.11508 27.399 11.6806 8.25944
48 1 3 -0.11508 9.13299 9.41113 6.65468
49 1 3 -0.11508 23.8152 13.7497 14.1117
50 1 3 -0.11508 12.7168 7.34203 0.802379
51 1 3 -0.11508 30.9828 17.8879 8.25944
52 1 3 -0.11508 5.54921 3.20384 6.65468
53 1 3 -0.11508 23.8152 17.8879 8.25944
54 1 3 -0.11508 12.7168 3.20384 6.65468
55 1 3 -0.11508 30.9828 13.7497 14.1117
56 1 3 -0.11508 5.54921 7.34203 0.802379
57 1 3 -0.0559 18.266 5.39949 13.5316
58 1 3 -0.0559 18.266 15.6923 1.38254
59 1 3 -0.055903 18.266 14.5575 0.580159
60 1 3 -0.055903 18.266 6.53422 14.334
61 1 3 -0.0559 26.1971 11.1132 7.85825
62 1 3 -0.0559 10.3349 9.9785 7.05587
63 1 3 -0.055903 10.3349 11.1132 7.85825
64 1 3 -0.055903 26.1971 9.9785 7.05587
65 1 3 -0.0559 14.7918 8.54005 0.580159
66 1 3 -0.0559 21.7402 12.5517 14.334
67 1 3 -0.055903 22.7229 13.1191 13.5316
68 1 3 -0.055903 13.8091 7.97268 1.38254
69 1 3 -0.0559 21.7402 3.39366 7.85825
70 1 3 -0.0559 14.7918 17.6981 7.05587
71 1 3 -0.055903 13.8091 17.1307 7.85825
72 1 3 -0.055903 22.7229 3.96103 7.05587
73 1 3 -0.055901 22.7229 17.1307 7.85825
74 1 3 -0.055901 13.8091 3.96103 7.05587
75 1 3 -0.055903 14.7918 3.39366 7.85825
76 1 3 -0.055903 21.7402 17.6981 7.05587
77 1 3 -0.0559 21.7402 8.54005 0.580159
78 1 3 -0.0559 14.7918 12.5517 14.334
79 1 3 -0.055903 13.8091 13.1191 13.5316
80 1 3 -0.055903 22.7229 7.97268 1.38254
81 1 4 -1.26215 27.399 15.8188 11.1856
82 1 4 -1.26215 9.13299 5.27293 3.72853
83 1 4 -0.60118 27.399 18.9383 11.9641
84 1 4 -0.60118 9.13299 2.15347 2.95001
85 1 4 -0.601179 27.399 17.5926 13.8671
86 1 4 -0.601179 9.13299 3.49912 1.04697
87 1 4 -0.601179 26.2336 13.3722 9.45555
88 1 4 -0.601179 10.2984 7.71958 5.45857
89 1 4 -0.60118 28.5643 13.3722 9.45555
90 1 4 -0.60118 7.96762 7.71958 5.45857
91 1 4 -0.60118 25.8628 14.9319 13.8671
92 1 4 -0.60118 10.6692 6.15984 1.04697
93 1 4 -0.601179 24.6974 14.2591 11.9641
94 1 4 -0.601179 11.8345 6.83267 2.95001
95 1 4 -0.60118 28.9351 18.0514 9.45555
96 1 4 -0.60118 7.59682 3.04037 5.45857
97 1 4 -0.601179 30.1005 16.0329 9.45555
98 1 4 -0.601179 6.43145 5.05885 5.45857
99 1 4 -0.601179 24.6974 16.0329 9.45555
100 1 4 -0.601179 11.8345 5.05885 5.45857
101 1 4 -0.60118 25.8628 18.0514 9.45555
102 1 4 -0.60118 10.6692 3.04037 5.45857
103 1 4 -0.60118 28.9351 14.9319 13.8671
104 1 4 -0.60118 7.59682 6.15984 1.04697
105 1 4 -0.60118 30.1005 14.2591 11.9641
106 1 4 -0.60118 6.43145 6.83267 2.95001
ITEM: TIMESTEP
64000
ITEM: NUMBER OF ATOMS
106
ITEM: BOX BOUNDS xy xz yz pp pp pp
0.0000000000000000e+00 3.6531964750000000e+01 9.1329911900000003e+00
0.0000000000000000e+00 2.1091739680000000e+01 9.1329911900000003e+00
0.0000000000000000e+00 1.4914112149999999e+01 5.2729349200000000e+00
ITEM: ATOMS id mol type q x y z
1 1 1 1.10383 27.399 17.6496 10.5383
2 1 1 1.10383 9.13299 3.44217 4.3758
3 1 1 1.10383 27.399 15.8188 13.1274
4 1 1 1.10383 9.13299 5.27293 1.78671
5 1 1 1.10383 25.8135 14.9034 10.5383
6 1 1 1.10383 10.7185 6.18832 4.3758
7 1 1 1.10383 28.9845 14.9034 10.5383
8 1 1 1.10383 7.5475 6.18832 4.3758
9 1 2 0.115889 18.266 5.48596 12.6084
10 1 2 0.115889 18.266 15.6058 2.30572
11 1 2 0.115888 18.266 13.716 0.969417
12 1 2 0.115888 18.266 7.37578 13.9447
13 1 2 0.11589 25.3934 11.4908 8.12521
14 1 2 0.11589 11.1386 9.60096 6.7889
15 1 2 0.115888 11.1386 11.4908 8.12521
16 1 2 0.115888 25.3934 9.60096 6.7889
17 1 2 0.115889 15.5206 8.96083 0.969417
18 1 2 0.115889 21.0114 12.1309 13.9447
19 1 2 0.115888 22.648 13.0758 12.6084
20 1 2 0.115888 13.884 8.01592 2.30572
21 1 2 0.115889 21.0114 3.90092 8.12521
22 1 2 0.115889 15.5206 17.1908 6.7889
23 1 2 0.115887 13.884 16.2459 8.12521
24 1 2 0.115887 22.648 4.84583 6.7889
25 1 2 0.115889 22.648 16.2459 8.12521
26 1 2 0.115889 13.884 4.84583 6.7889
27 1 2 0.115887 15.5206 3.90092 8.12521
28 1 2 0.115887 21.0114 17.1908 6.7889
29 1 2 0.115889 21.0114 8.96083 0.969417
30 1 2 0.115889 15.5206 12.1309 13.9447
31 1 2 0.115887 13.884 13.0758 12.6084
32 1 2 0.115887 22.648 8.01592 2.30572
33 1 3 0.671939 27.399 18.7442 13.2542
34 1 3 0.671939 9.13299 2.34751 1.65994
35 1 3 0.671939 27.399 12.8934 9.117
36 1 3 0.671939 9.13299 8.19836 5.79712
37 1 3 0.67194 24.8655 14.3561 13.2542
38 1 3 0.67194 11.6665 6.73565 1.65994
39 1 3 0.67194 29.9325 17.2815 9.117
40 1 3 0.67194 6.5995 3.81022 5.79712
41 1 3 0.67194 24.8655 17.2815 9.117
42 1 3 0.67194 11.6665 3.81022 5.79712
43 1 3 0.67194 29.9325 14.3561 13.2542
44 1 3 0.67194 6.5995 6.73565 1.65994
45 1 3 -0.11508 27.399 19.957 14.1117
46 1 3 -0.11508 9.13299 1.13474 0.802379
47 1 3 -0.11508 27.399 11.6806 8.25944
48 1 3 -0.11508 9.13299 9.41113 6.65468
49 1 3 -0.11508 23.8152 13.7497 14.1117
50 1 3 -0.11508 12.7168 7.34203 0.802379
51 1 3 -0.11508 30.9828 17.8879 8.25944
52 1 3 -0.11508 5.54921 3.20384 6.65468
53 1 3 -0.11508 23.8152 17.8879 8.25944
54 1 3 -0.11508 12.7168 3.20384 6.65468
55 1 3 -0.11508 30.9828 13.7497 14.1117
56 1 3 -0.11508 5.54921 7.34203 0.802379
57 1 3 -0.0559 18.266 5.39949 13.5316
58 1 3 -0.0559 18.266 15.6923 1.38254
59 1 3 -0.055903 18.266 14.5575 0.580159
60 1 3 -0.055903 18.266 6.53422 14.334
61 1 3 -0.0559 26.1971 11.1132 7.85825
62 1 3 -0.0559 10.3349 9.9785 7.05587
63 1 3 -0.055903 10.3349 11.1132 7.85825
64 1 3 -0.055903 26.1971 9.9785 7.05587
65 1 3 -0.0559 14.7918 8.54005 0.580159
66 1 3 -0.0559 21.7402 12.5517 14.334
67 1 3 -0.055903 22.7229 13.1191 13.5316
68 1 3 -0.055903 13.8091 7.97268 1.38254
69 1 3 -0.0559 21.7402 3.39366 7.85825
70 1 3 -0.0559 14.7918 17.6981 7.05587
71 1 3 -0.055903 13.8091 17.1307 7.85825
72 1 3 -0.055903 22.7229 3.96103 7.05587
73 1 3 -0.055901 22.7229 17.1307 7.85825
74 1 3 -0.055901 13.8091 3.96103 7.05587
75 1 3 -0.055903 14.7918 3.39366 7.85825
76 1 3 -0.055903 21.7402 17.6981 7.05587
77 1 3 -0.0559 21.7402 8.54005 0.580159
78 1 3 -0.0559 14.7918 12.5517 14.334
79 1 3 -0.055903 13.8091 13.1191 13.5316
80 1 3 -0.055903 22.7229 7.97268 1.38254
81 1 4 -1.26215 27.399 15.8188 11.1856
82 1 4 -1.26215 9.13299 5.27293 3.72853
83 1 4 -0.60118 27.399 18.9383 11.9641
84 1 4 -0.60118 9.13299 2.15347 2.95001
85 1 4 -0.601179 27.399 17.5926 13.8671
86 1 4 -0.601179 9.13299 3.49912 1.04697
87 1 4 -0.601179 26.2336 13.3722 9.45555
88 1 4 -0.601179 10.2984 7.71958 5.45857
89 1 4 -0.60118 28.5643 13.3722 9.45555
90 1 4 -0.60118 7.96762 7.71958 5.45857
91 1 4 -0.60118 25.8628 14.9319 13.8671
92 1 4 -0.60118 10.6692 6.15984 1.04697
93 1 4 -0.601179 24.6974 14.2591 11.9641
94 1 4 -0.601179 11.8345 6.83267 2.95001
95 1 4 -0.60118 28.9351 18.0514 9.45555
96 1 4 -0.60118 7.59682 3.04037 5.45857
97 1 4 -0.601179 30.1005 16.0329 9.45555
98 1 4 -0.601179 6.43145 5.05885 5.45857
99 1 4 -0.601179 24.6974 16.0329 9.45555
100 1 4 -0.601179 11.8345 5.05885 5.45857
101 1 4 -0.60118 25.8628 18.0514 9.45555
102 1 4 -0.60118 10.6692 3.04037 5.45857
103 1 4 -0.60118 28.9351 14.9319 13.8671
104 1 4 -0.60118 7.59682 6.15984 1.04697
105 1 4 -0.60118 30.1005 14.2591 11.9641
106 1 4 -0.60118 6.43145 6.83267 2.95001
ITEM: TIMESTEP
65000
ITEM: NUMBER OF ATOMS
106
ITEM: BOX BOUNDS xy xz yz pp pp pp
0.0000000000000000e+00 3.6531964750000000e+01 9.1329911900000003e+00
0.0000000000000000e+00 2.1091739680000000e+01 9.1329911900000003e+00
0.0000000000000000e+00 1.4914112149999999e+01 5.2729349200000000e+00
ITEM: ATOMS id mol type q x y z
1 1 1 1.10383 27.399 17.6496 10.5383
2 1 1 1.10383 9.13299 3.44217 4.3758
3 1 1 1.10383 27.399 15.8188 13.1274
4 1 1 1.10383 9.13299 5.27293 1.78671
5 1 1 1.10383 25.8135 14.9034 10.5383
6 1 1 1.10383 10.7185 6.18832 4.3758
7 1 1 1.10383 28.9845 14.9034 10.5383
8 1 1 1.10383 7.5475 6.18832 4.3758
9 1 2 0.115889 18.266 5.48596 12.6084
10 1 2 0.115889 18.266 15.6058 2.30572
11 1 2 0.115888 18.266 13.716 0.969417
12 1 2 0.115888 18.266 7.37578 13.9447
13 1 2 0.11589 25.3934 11.4908 8.12521
14 1 2 0.11589 11.1386 9.60096 6.7889
15 1 2 0.115888 11.1386 11.4908 8.12521
16 1 2 0.115888 25.3934 9.60096 6.7889
17 1 2 0.115889 15.5206 8.96083 0.969417
18 1 2 0.115889 21.0114 12.1309 13.9447
19 1 2 0.115888 22.648 13.0758 12.6084
20 1 2 0.115888 13.884 8.01592 2.30572
21 1 2 0.115889 21.0114 3.90092 8.12521
22 1 2 0.115889 15.5206 17.1908 6.7889
23 1 2 0.115887 13.884 16.2459 8.12521
24 1 2 0.115887 22.648 4.84583 6.7889
25 1 2 0.115889 22.648 16.2459 8.12521
26 1 2 0.115889 13.884 4.84583 6.7889
27 1 2 0.115887 15.5206 3.90092 8.12521
28 1 2 0.115887 21.0114 17.1908 6.7889
29 1 2 0.115889 21.0114 8.96083 0.969417
30 1 2 0.115889 15.5206 12.1309 13.9447
31 1 2 0.115887 13.884 13.0758 12.6084
32 1 2 0.115887 22.648 8.01592 2.30572
33 1 3 0.671939 27.399 18.7442 13.2542
34 1 3 0.671939 9.13299 2.34751 1.65994
35 1 3 0.671939 27.399 12.8934 9.117
36 1 3 0.671939 9.13299 8.19836 5.79712
37 1 3 0.67194 24.8655 14.3561 13.2542
38 1 3 0.67194 11.6665 6.73565 1.65994
39 1 3 0.67194 29.9325 17.2815 9.117
40 1 3 0.67194 6.5995 3.81022 5.79712
41 1 3 0.67194 24.8655 17.2815 9.117
42 1 3 0.67194 11.6665 3.81022 5.79712
43 1 3 0.67194 29.9325 14.3561 13.2542
44 1 3 0.67194 6.5995 6.73565 1.65994
45 1 3 -0.11508 27.399 19.957 14.1117
46 1 3 -0.11508 9.13299 1.13474 0.802379
47 1 3 -0.11508 27.399 11.6806 8.25944
48 1 3 -0.11508 9.13299 9.41113 6.65468
49 1 3 -0.11508 23.8152 13.7497 14.1117
50 1 3 -0.11508 12.7168 7.34203 0.802379
51 1 3 -0.11508 30.9828 17.8879 8.25944
52 1 3 -0.11508 5.54921 3.20384 6.65468
53 1 3 -0.11508 23.8152 17.8879 8.25944
54 1 3 -0.11508 12.7168 3.20384 6.65468
55 1 3 -0.11508 30.9828 13.7497 14.1117
56 1 3 -0.11508 5.54921 7.34203 0.802379
57 1 3 -0.0559 18.266 5.39949 13.5316
58 1 3 -0.0559 18.266 15.6923 1.38254
59 1 3 -0.055903 18.266 14.5575 0.580159
60 1 3 -0.055903 18.266 6.53422 14.334
61 1 3 -0.0559 26.1971 11.1132 7.85825
62 1 3 -0.0559 10.3349 9.9785 7.05587
63 1 3 -0.055903 10.3349 11.1132 7.85825
64 1 3 -0.055903 26.1971 9.9785 7.05587
65 1 3 -0.0559 14.7918 8.54005 0.580159
66 1 3 -0.0559 21.7402 12.5517 14.334
67 1 3 -0.055903 22.7229 13.1191 13.5316
68 1 3 -0.055903 13.8091 7.97268 1.38254
69 1 3 -0.0559 21.7402 3.39366 7.85825
70 1 3 -0.0559 14.7918 17.6981 7.05587
71 1 3 -0.055903 13.8091 17.1307 7.85825
72 1 3 -0.055903 22.7229 3.96103 7.05587
73 1 3 -0.055901 22.7229 17.1307 7.85825
74 1 3 -0.055901 13.8091 3.96103 7.05587
75 1 3 -0.055903 14.7918 3.39366 7.85825
76 1 3 -0.055903 21.7402 17.6981 7.05587
77 1 3 -0.0559 21.7402 8.54005 0.580159
78 1 3 -0.0559 14.7918 12.5517 14.334
79 1 3 -0.055903 13.8091 13.1191 13.5316
80 1 3 -0.055903 22.7229 7.97268 1.38254
81 1 4 -1.26215 27.399 15.8188 11.1856
82 1 4 -1.26215 9.13299 5.27293 3.72853
83 1 4 -0.60118 27.399 18.9383 11.9641
84 1 4 -0.60118 9.13299 2.15347 2.95001
85 1 4 -0.601179 27.399 17.5926 13.8671
86 1 4 -0.601179 9.13299 3.49912 1.04697
87 1 4 -0.601179 26.2336 13.3722 9.45555
88 1 4 -0.601179 10.2984 7.71958 5.45857
89 1 4 -0.60118 28.5643 13.3722 9.45555
90 1 4 -0.60118 7.96762 7.71958 5.45857
91 1 4 -0.60118 25.8628 14.9319 13.8671
92 1 4 -0.60118 10.6692 6.15984 1.04697
93 1 4 -0.601179 24.6974 14.2591 11.9641
94 1 4 -0.601179 11.8345 6.83267 2.95001
95 1 4 -0.60118 28.9351 18.0514 9.45555
96 1 4 -0.60118 7.59682 3.04037 5.45857
97 1 4 -0.601179 30.1005 16.0329 9.45555
98 1 4 -0.601179 6.43145 5.05885 5.45857
99 1 4 -0.601179 24.6974 16.0329 9.45555
100 1 4 -0.601179 11.8345 5.05885 5.45857
101 1 4 -0.60118 25.8628 18.0514 9.45555
102 1 4 -0.60118 10.6692 3.04037 5.45857
103 1 4 -0.60118 28.9351 14.9319 13.8671
104 1 4 -0.60118 7.59682 6.15984 1.04697
105 1 4 -0.60118 30.1005 14.2591 11.9641
106 1 4 -0.60118 6.43145 6.83267 2.95001
ITEM: TIMESTEP
66000
ITEM: NUMBER OF ATOMS
106
ITEM: BOX BOUNDS xy xz yz pp pp pp
0.0000000000000000e+00 3.6531964750000000e+01 9.1329911900000003e+00
0.0000000000000000e+00 2.1091739680000000e+01 9.1329911900000003e+00
0.0000000000000000e+00 1.4914112149999999e+01 5.2729349200000000e+00
ITEM: ATOMS id mol type q x y z
1 1 1 1.10383 27.399 17.6496 10.5383
2 1 1 1.10383 9.13299 3.44217 4.3758
3 1 1 1.10383 27.399 15.8188 13.1274
4 1 1 1.10383 9.13299 5.27293 1.78671
5 1 1 1.10383 25.8135 14.9034 10.5383
6 1 1 1.10383 10.7185 6.18832 4.3758
7 1 1 1.10383 28.9845 14.9034 10.5383
8 1 1 1.10383 7.5475 6.18832 4.3758
9 1 2 0.115889 18.266 5.48596 12.6084
10 1 2 0.115889 18.266 15.6058 2.30572
11 1 2 0.115888 18.266 13.716 0.969417
12 1 2 0.115888 18.266 7.37578 13.9447
13 1 2 0.11589 25.3934 11.4908 8.12521
14 1 2 0.11589 11.1386 9.60096 6.7889
15 1 2 0.115888 11.1386 11.4908 8.12521
16 1 2 0.115888 25.3934 9.60096 6.7889
17 1 2 0.115889 15.5206 8.96083 0.969417
18 1 2 0.115889 21.0114 12.1309 13.9447
19 1 2 0.115888 22.648 13.0758 12.6084
20 1 2 0.115888 13.884 8.01592 2.30572
21 1 2 0.115889 21.0114 3.90092 8.12521
22 1 2 0.115889 15.5206 17.1908 6.7889
23 1 2 0.115887 13.884 16.2459 8.12521
24 1 2 0.115887 22.648 4.84583 6.7889
25 1 2 0.115889 22.648 16.2459 8.12521
26 1 2 0.115889 13.884 4.84583 6.7889
27 1 2 0.115887 15.5206 3.90092 8.12521
28 1 2 0.115887 21.0114 17.1908 6.7889
29 1 2 0.115889 21.0114 8.96083 0.969417
30 1 2 0.115889 15.5206 12.1309 13.9447
31 1 2 0.115887 13.884 13.0758 12.6084
32 1 2 0.115887 22.648 8.01592 2.30572
33 1 3 0.671939 27.399 18.7442 13.2542
34 1 3 0.671939 9.13299 2.34751 1.65994
35 1 3 0.671939 27.399 12.8934 9.117
36 1 3 0.671939 9.13299 8.19836 5.79712
37 1 3 0.67194 24.8655 14.3561 13.2542
38 1 3 0.67194 11.6665 6.73565 1.65994
39 1 3 0.67194 29.9325 17.2815 9.117
40 1 3 0.67194 6.5995 3.81022 5.79712
41 1 3 0.67194 24.8655 17.2815 9.117
42 1 3 0.67194 11.6665 3.81022 5.79712
43 1 3 0.67194 29.9325 14.3561 13.2542
44 1 3 0.67194 6.5995 6.73565 1.65994
45 1 3 -0.11508 27.399 19.957 14.1117
46 1 3 -0.11508 9.13299 1.13474 0.802379
47 1 3 -0.11508 27.399 11.6806 8.25944
48 1 3 -0.11508 9.13299 9.41113 6.65468
49 1 3 -0.11508 23.8152 13.7497 14.1117
50 1 3 -0.11508 12.7168 7.34203 0.802379
51 1 3 -0.11508 30.9828 17.8879 8.25944
52 1 3 -0.11508 5.54921 3.20384 6.65468
53 1 3 -0.11508 23.8152 17.8879 8.25944
54 1 3 -0.11508 12.7168 3.20384 6.65468
55 1 3 -0.11508 30.9828 13.7497 14.1117
56 1 3 -0.11508 5.54921 7.34203 0.802379
57 1 3 -0.0559 18.266 5.39949 13.5316
58 1 3 -0.0559 18.266 15.6923 1.38254
59 1 3 -0.055903 18.266 14.5575 0.580159
60 1 3 -0.055903 18.266 6.53422 14.334
61 1 3 -0.0559 26.1971 11.1132 7.85825
62 1 3 -0.0559 10.3349 9.9785 7.05587
63 1 3 -0.055903 10.3349 11.1132 7.85825
64 1 3 -0.055903 26.1971 9.9785 7.05587
65 1 3 -0.0559 14.7918 8.54005 0.580159
66 1 3 -0.0559 21.7402 12.5517 14.334
67 1 3 -0.055903 22.7229 13.1191 13.5316
68 1 3 -0.055903 13.8091 7.97268 1.38254
69 1 3 -0.0559 21.7402 3.39366 7.85825
70 1 3 -0.0559 14.7918 17.6981 7.05587
71 1 3 -0.055903 13.8091 17.1307 7.85825
72 1 3 -0.055903 22.7229 3.96103 7.05587
73 1 3 -0.055901 22.7229 17.1307 7.85825
74 1 3 -0.055901 13.8091 3.96103 7.05587
75 1 3 -0.055903 14.7918 3.39366 7.85825
76 1 3 -0.055903 21.7402 17.6981 7.05587
77 1 3 -0.0559 21.7402 8.54005 0.580159
78 1 3 -0.0559 14.7918 12.5517 14.334
79 1 3 -0.055903 13.8091 13.1191 13.5316
80 1 3 -0.055903 22.7229 7.97268 1.38254
81 1 4 -1.26215 27.399 15.8188 11.1856
82 1 4 -1.26215 9.13299 5.27293 3.72853
83 1 4 -0.60118 27.399 18.9383 11.9641
84 1 4 -0.60118 9.13299 2.15347 2.95001
85 1 4 -0.601179 27.399 17.5926 13.8671
86 1 4 -0.601179 9.13299 3.49912 1.04697
87 1 4 -0.601179 26.2336 13.3722 9.45555
88 1 4 -0.601179 10.2984 7.71958 5.45857
89 1 4 -0.60118 28.5643 13.3722 9.45555
90 1 4 -0.60118 7.96762 7.71958 5.45857
91 1 4 -0.60118 25.8628 14.9319 13.8671
92 1 4 -0.60118 10.6692 6.15984 1.04697
93 1 4 -0.601179 24.6974 14.2591 11.9641
94 1 4 -0.601179 11.8345 6.83267 2.95001
95 1 4 -0.60118 28.9351 18.0514 9.45555
96 1 4 -0.60118 7.59682 3.04037 5.45857
97 1 4 -0.601179 30.1005 16.0329 9.45555
98 1 4 -0.601179 6.43145 5.05885 5.45857
99 1 4 -0.601179 24.6974 16.0329 9.45555
100 1 4 -0.601179 11.8345 5.05885 5.45857
101 1 4 -0.60118 25.8628 18.0514 9.45555
102 1 4 -0.60118 10.6692 3.04037 5.45857
103 1 4 -0.60118 28.9351 14.9319 13.8671
104 1 4 -0.60118 7.59682 6.15984 1.04697
105 1 4 -0.60118 30.1005 14.2591 11.9641
106 1 4 -0.60118 6.43145 6.83267 2.95001
ITEM: TIMESTEP
67000
ITEM: NUMBER OF ATOMS
106
ITEM: BOX BOUNDS xy xz yz pp pp pp
0.0000000000000000e+00 3.6531964750000000e+01 9.1329911900000003e+00
0.0000000000000000e+00 2.1091739680000000e+01 9.1329911900000003e+00
0.0000000000000000e+00 1.4914112149999999e+01 5.2729349200000000e+00
ITEM: ATOMS id mol type q x y z
1 1 1 1.10383 27.399 17.6496 10.5383
2 1 1 1.10383 9.13299 3.44217 4.3758
3 1 1 1.10383 27.399 15.8188 13.1274
4 1 1 1.10383 9.13299 5.27293 1.78671
5 1 1 1.10383 25.8135 14.9034 10.5383
6 1 1 1.10383 10.7185 6.18832 4.3758
7 1 1 1.10383 28.9845 14.9034 10.5383
8 1 1 1.10383 7.5475 6.18832 4.3758
9 1 2 0.115889 18.266 5.48596 12.6084
10 1 2 0.115889 18.266 15.6058 2.30572
11 1 2 0.115888 18.266 13.716 0.969417
12 1 2 0.115888 18.266 7.37578 13.9447
13 1 2 0.11589 25.3934 11.4908 8.12521
14 1 2 0.11589 11.1386 9.60096 6.7889
15 1 2 0.115888 11.1386 11.4908 8.12521
16 1 2 0.115888 25.3934 9.60096 6.7889
17 1 2 0.115889 15.5206 8.96083 0.969417
18 1 2 0.115889 21.0114 12.1309 13.9447
19 1 2 0.115888 22.648 13.0758 12.6084
20 1 2 0.115888 13.884 8.01592 2.30572
21 1 2 0.115889 21.0114 3.90092 8.12521
22 1 2 0.115889 15.5206 17.1908 6.7889
23 1 2 0.115887 13.884 16.2459 8.12521
24 1 2 0.115887 22.648 4.84583 6.7889
25 1 2 0.115889 22.648 16.2459 8.12521
26 1 2 0.115889 13.884 4.84583 6.7889
27 1 2 0.115887 15.5206 3.90092 8.12521
28 1 2 0.115887 21.0114 17.1908 6.7889
29 1 2 0.115889 21.0114 8.96083 0.969417
30 1 2 0.115889 15.5206 12.1309 13.9447
31 1 2 0.115887 13.884 13.0758 12.6084
32 1 2 0.115887 22.648 8.01592 2.30572
33 1 3 0.671939 27.399 18.7442 13.2542
34 1 3 0.671939 9.13299 2.34751 1.65994
35 1 3 0.671939 27.399 12.8934 9.117
36 1 3 0.671939 9.13299 8.19836 5.79712
37 1 3 0.67194 24.8655 14.3561 13.2542
38 1 3 0.67194 11.6665 6.73565 1.65994
39 1 3 0.67194 29.9325 17.2815 9.117
40 1 3 0.67194 6.5995 3.81022 5.79712
41 1 3 0.67194 24.8655 17.2815 9.117
42 1 3 0.67194 11.6665 3.81022 5.79712
43 1 3 0.67194 29.9325 14.3561 13.2542
44 1 3 0.67194 6.5995 6.73565 1.65994
45 1 3 -0.11508 27.399 19.957 14.1117
46 1 3 -0.11508 9.13299 1.13474 0.802379
47 1 3 -0.11508 27.399 11.6806 8.25944
48 1 3 -0.11508 9.13299 9.41113 6.65468
49 1 3 -0.11508 23.8152 13.7497 14.1117
50 1 3 -0.11508 12.7168 7.34203 0.802379
51 1 3 -0.11508 30.9828 17.8879 8.25944
52 1 3 -0.11508 5.54921 3.20384 6.65468
53 1 3 -0.11508 23.8152 17.8879 8.25944
54 1 3 -0.11508 12.7168 3.20384 6.65468
55 1 3 -0.11508 30.9828 13.7497 14.1117
56 1 3 -0.11508 5.54921 7.34203 0.802379
57 1 3 -0.0559 18.266 5.39949 13.5316
58 1 3 -0.0559 18.266 15.6923 1.38254
59 1 3 -0.055903 18.266 14.5575 0.580159
60 1 3 -0.055903 18.266 6.53422 14.334
61 1 3 -0.0559 26.1971 11.1132 7.85825
62 1 3 -0.0559 10.3349 9.9785 7.05587
63 1 3 -0.055903 10.3349 11.1132 7.85825
64 1 3 -0.055903 26.1971 9.9785 7.05587
65 1 3 -0.0559 14.7918 8.54005 0.580159
66 1 3 -0.0559 21.7402 12.5517 14.334
67 1 3 -0.055903 22.7229 13.1191 13.5316
68 1 3 -0.055903 13.8091 7.97268 1.38254
69 1 3 -0.0559 21.7402 3.39366 7.85825
70 1 3 -0.0559 14.7918 17.6981 7.05587
71 1 3 -0.055903 13.8091 17.1307 7.85825
72 1 3 -0.055903 22.7229 3.96103 7.05587
73 1 3 -0.055901 22.7229 17.1307 7.85825
74 1 3 -0.055901 13.8091 3.96103 7.05587
75 1 3 -0.055903 14.7918 3.39366 7.85825
76 1 3 -0.055903 21.7402 17.6981 7.05587
77 1 3 -0.0559 21.7402 8.54005 0.580159
78 1 3 -0.0559 14.7918 12.5517 14.334
79 1 3 -0.055903 13.8091 13.1191 13.5316
80 1 3 -0.055903 22.7229 7.97268 1.38254
81 1 4 -1.26215 27.399 15.8188 11.1856
82 1 4 -1.26215 9.13299 5.27293 3.72853
83 1 4 -0.60118 27.399 18.9383 11.9641
84 1 4 -0.60118 9.13299 2.15347 2.95001
85 1 4 -0.601179 27.399 17.5926 13.8671
86 1 4 -0.601179 9.13299 3.49912 1.04697
87 1 4 -0.601179 26.2336 13.3722 9.45555
88 1 4 -0.601179 10.2984 7.71958 5.45857
89 1 4 -0.60118 28.5643 13.3722 9.45555
90 1 4 -0.60118 7.96762 7.71958 5.45857
91 1 4 -0.60118 25.8628 14.9319 13.8671
92 1 4 -0.60118 10.6692 6.15984 1.04697
93 1 4 -0.601179 24.6974 14.2591 11.9641
94 1 4 -0.601179 11.8345 6.83267 2.95001
95 1 4 -0.60118 28.9351 18.0514 9.45555
96 1 4 -0.60118 7.59682 3.04037 5.45857
97 1 4 -0.601179 30.1005 16.0329 9.45555
98 1 4 -0.601179 6.43145 5.05885 5.45857
99 1 4 -0.601179 24.6974 16.0329 9.45555
100 1 4 -0.601179 11.8345 5.05885 5.45857
101 1 4 -0.60118 25.8628 18.0514 9.45555
102 1 4 -0.60118 10.6692 3.04037 5.45857
103 1 4 -0.60118 28.9351 14.9319 13.8671
104 1 4 -0.60118 7.59682 6.15984 1.04697
105 1 4 -0.60118 30.1005 14.2591 11.9641
106 1 4 -0.60118 6.43145 6.83267 2.95001
ITEM: TIMESTEP
68000
ITEM: NUMBER OF ATOMS
106
ITEM: BOX BOUNDS xy xz yz pp pp pp
0.0000000000000000e+00 3.6531964750000000e+01 9.1329911900000003e+00
0.0000000000000000e+00 2.1091739680000000e+01 9.1329911900000003e+00
0.0000000000000000e+00 1.4914112149999999e+01 5.2729349200000000e+00
ITEM: ATOMS id mol type q x y z
1 1 1 1.10383 27.399 17.6496 10.5383
2 1 1 1.10383 9.13299 3.44217 4.3758
3 1 1 1.10383 27.399 15.8188 13.1274
4 1 1 1.10383 9.13299 5.27293 1.78671
5 1 1 1.10383 25.8135 14.9034 10.5383
6 1 1 1.10383 10.7185 6.18832 4.3758
7 1 1 1.10383 28.9845 14.9034 10.5383
8 1 1 1.10383 7.5475 6.18832 4.3758
9 1 2 0.115889 18.266 5.48596 12.6084
10 1 2 0.115889 18.266 15.6058 2.30572
11 1 2 0.115888 18.266 13.716 0.969417
12 1 2 0.115888 18.266 7.37578 13.9447
13 1 2 0.11589 25.3934 11.4908 8.12521
14 1 2 0.11589 11.1386 9.60096 6.7889
15 1 2 0.115888 11.1386 11.4908 8.12521
16 1 2 0.115888 25.3934 9.60096 6.7889
17 1 2 0.115889 15.5206 8.96083 0.969417
18 1 2 0.115889 21.0114 12.1309 13.9447
19 1 2 0.115888 22.648 13.0758 12.6084
20 1 2 0.115888 13.884 8.01592 2.30572
21 1 2 0.115889 21.0114 3.90092 8.12521
22 1 2 0.115889 15.5206 17.1908 6.7889
23 1 2 0.115887 13.884 16.2459 8.12521
24 1 2 0.115887 22.648 4.84583 6.7889
25 1 2 0.115889 22.648 16.2459 8.12521
26 1 2 0.115889 13.884 4.84583 6.7889
27 1 2 0.115887 15.5206 3.90092 8.12521
28 1 2 0.115887 21.0114 17.1908 6.7889
29 1 2 0.115889 21.0114 8.96083 0.969417
30 1 2 0.115889 15.5206 12.1309 13.9447
31 1 2 0.115887 13.884 13.0758 12.6084
32 1 2 0.115887 22.648 8.01592 2.30572
33 1 3 0.671939 27.399 18.7442 13.2542
34 1 3 0.671939 9.13299 2.34751 1.65994
35 1 3 0.671939 27.399 12.8934 9.117
36 1 3 0.671939 9.13299 8.19836 5.79712
37 1 3 0.67194 24.8655 14.3561 13.2542
38 1 3 0.67194 11.6665 6.73565 1.65994
39 1 3 0.67194 29.9325 17.2815 9.117
40 1 3 0.67194 6.5995 3.81022 5.79712
41 1 3 0.67194 24.8655 17.2815 9.117
42 1 3 0.67194 11.6665 3.81022 5.79712
43 1 3 0.67194 29.9325 14.3561 13.2542
44 1 3 0.67194 6.5995 6.73565 1.65994
45 1 3 -0.11508 27.399 19.957 14.1117
46 1 3 -0.11508 9.13299 1.13474 0.802379
47 1 3 -0.11508 27.399 11.6806 8.25944
48 1 3 -0.11508 9.13299 9.41113 6.65468
49 1 3 -0.11508 23.8152 13.7497 14.1117
50 1 3 -0.11508 12.7168 7.34203 0.802379
51 1 3 -0.11508 30.9828 17.8879 8.25944
52 1 3 -0.11508 5.54921 3.20384 6.65468
53 1 3 -0.11508 23.8152 17.8879 8.25944
54 1 3 -0.11508 12.7168 3.20384 6.65468
55 1 3 -0.11508 30.9828 13.7497 14.1117
56 1 3 -0.11508 5.54921 7.34203 0.802379
57 1 3 -0.0559 18.266 5.39949 13.5316
58 1 3 -0.0559 18.266 15.6923 1.38254
59 1 3 -0.055903 18.266 14.5575 0.580159
60 1 3 -0.055903 18.266 6.53422 14.334
61 1 3 -0.0559 26.1971 11.1132 7.85825
62 1 3 -0.0559 10.3349 9.9785 7.05587
63 1 3 -0.055903 10.3349 11.1132 7.85825
64 1 3 -0.055903 26.1971 9.9785 7.05587
65 1 3 -0.0559 14.7918 8.54005 0.580159
66 1 3 -0.0559 21.7402 12.5517 14.334
67 1 3 -0.055903 22.7229 13.1191 13.5316
68 1 3 -0.055903 13.8091 7.97268 1.38254
69 1 3 -0.0559 21.7402 3.39366 7.85825
70 1 3 -0.0559 14.7918 17.6981 7.05587
71 1 3 -0.055903 13.8091 17.1307 7.85825
72 1 3 -0.055903 22.7229 3.96103 7.05587
73 1 3 -0.055901 22.7229 17.1307 7.85825
74 1 3 -0.055901 13.8091 3.96103 7.05587
75 1 3 -0.055903 14.7918 3.39366 7.85825
76 1 3 -0.055903 21.7402 17.6981 7.05587
77 1 3 -0.0559 21.7402 8.54005 0.580159
78 1 3 -0.0559 14.7918 12.5517 14.334
79 1 3 -0.055903 13.8091 13.1191 13.5316
80 1 3 -0.055903 22.7229 7.97268 1.38254
81 1 4 -1.26215 27.399 15.8188 11.1856
82 1 4 -1.26215 9.13299 5.27293 3.72853
83 1 4 -0.60118 27.399 18.9383 11.9641
84 1 4 -0.60118 9.13299 2.15347 2.95001
85 1 4 -0.601179 27.399 17.5926 13.8671
86 1 4 -0.601179 9.13299 3.49912 1.04697
87 1 4 -0.601179 26.2336 13.3722 9.45555
88 1 4 -0.601179 10.2984 7.71958 5.45857
89 1 4 -0.60118 28.5643 13.3722 9.45555
90 1 4 -0.60118 7.96762 7.71958 5.45857
91 1 4 -0.60118 25.8628 14.9319 13.8671
92 1 4 -0.60118 10.6692 6.15984 1.04697
93 1 4 -0.601179 24.6974 14.2591 11.9641
94 1 4 -0.601179 11.8345 6.83267 2.95001
95 1 4 -0.60118 28.9351 18.0514 9.45555
96 1 4 -0.60118 7.59682 3.04037 5.45857
97 1 4 -0.601179 30.1005 16.0329 9.45555
98 1 4 -0.601179 6.43145 5.05885 5.45857
99 1 4 -0.601179 24.6974 16.0329 9.45555
100 1 4 -0.601179 11.8345 5.05885 5.45857
101 1 4 -0.60118 25.8628 18.0514 9.45555
102 1 4 -0.60118 10.6692 3.04037 5.45857
103 1 4 -0.60118 28.9351 14.9319 13.8671
104 1 4 -0.60118 7.59682 6.15984 1.04697
105 1 4 -0.60118 30.1005 14.2591 11.9641
106 1 4 -0.60118 6.43145 6.83267 2.95001
ITEM: TIMESTEP
69000
ITEM: NUMBER OF ATOMS
106
ITEM: BOX BOUNDS xy xz yz pp pp pp
0.0000000000000000e+00 3.6531964750000000e+01 9.1329911900000003e+00
0.0000000000000000e+00 2.1091739680000000e+01 9.1329911900000003e+00
0.0000000000000000e+00 1.4914112149999999e+01 5.2729349200000000e+00
ITEM: ATOMS id mol type q x y z
1 1 1 1.10383 27.399 17.6496 10.5383
2 1 1 1.10383 9.13299 3.44217 4.3758
3 1 1 1.10383 27.399 15.8188 13.1274
4 1 1 1.10383 9.13299 5.27293 1.78671
5 1 1 1.10383 25.8135 14.9034 10.5383
6 1 1 1.10383 10.7185 6.18832 4.3758
7 1 1 1.10383 28.9845 14.9034 10.5383
8 1 1 1.10383 7.5475 6.18832 4.3758
9 1 2 0.115889 18.266 5.48596 12.6084
10 1 2 0.115889 18.266 15.6058 2.30572
11 1 2 0.115888 18.266 13.716 0.969417
12 1 2 0.115888 18.266 7.37578 13.9447
13 1 2 0.11589 25.3934 11.4908 8.12521
14 1 2 0.11589 11.1386 9.60096 6.7889
15 1 2 0.115888 11.1386 11.4908 8.12521
16 1 2 0.115888 25.3934 9.60096 6.7889
17 1 2 0.115889 15.5206 8.96083 0.969417
18 1 2 0.115889 21.0114 12.1309 13.9447
19 1 2 0.115888 22.648 13.0758 12.6084
20 1 2 0.115888 13.884 8.01592 2.30572
21 1 2 0.115889 21.0114 3.90092 8.12521
22 1 2 0.115889 15.5206 17.1908 6.7889
23 1 2 0.115887 13.884 16.2459 8.12521
24 1 2 0.115887 22.648 4.84583 6.7889
25 1 2 0.115889 22.648 16.2459 8.12521
26 1 2 0.115889 13.884 4.84583 6.7889
27 1 2 0.115887 15.5206 3.90092 8.12521
28 1 2 0.115887 21.0114 17.1908 6.7889
29 1 2 0.115889 21.0114 8.96083 0.969417
30 1 2 0.115889 15.5206 12.1309 13.9447
31 1 2 0.115887 13.884 13.0758 12.6084
32 1 2 0.115887 22.648 8.01592 2.30572
33 1 3 0.671939 27.399 18.7442 13.2542
34 1 3 0.671939 9.13299 2.34751 1.65994
35 1 3 0.671939 27.399 12.8934 9.117
36 1 3 0.671939 9.13299 8.19836 5.79712
37 1 3 0.67194 24.8655 14.3561 13.2542
38 1 3 0.67194 11.6665 6.73565 1.65994
39 1 3 0.67194 29.9325 17.2815 9.117
40 1 3 0.67194 6.5995 3.81022 5.79712
41 1 3 0.67194 24.8655 17.2815 9.117
42 1 3 0.67194 11.6665 3.81022 5.79712
43 1 3 0.67194 29.9325 14.3561 13.2542
44 1 3 0.67194 6.5995 6.73565 1.65994
45 1 3 -0.11508 27.399 19.957 14.1117
46 1 3 -0.11508 9.13299 1.13474 0.802379
47 1 3 -0.11508 27.399 11.6806 8.25944
48 1 3 -0.11508 9.13299 9.41113 6.65468
49 1 3 -0.11508 23.8152 13.7497 14.1117
50 1 3 -0.11508 12.7168 7.34203 0.802379
51 1 3 -0.11508 30.9828 17.8879 8.25944
52 1 3 -0.11508 5.54921 3.20384 6.65468
53 1 3 -0.11508 23.8152 17.8879 8.25944
54 1 3 -0.11508 12.7168 3.20384 6.65468
55 1 3 -0.11508 30.9828 13.7497 14.1117
56 1 3 -0.11508 5.54921 7.34203 0.802379
57 1 3 -0.0559 18.266 5.39949 13.5316
58 1 3 -0.0559 18.266 15.6923 1.38254
59 1 3 -0.055903 18.266 14.5575 0.580159
60 1 3 -0.055903 18.266 6.53422 14.334
61 1 3 -0.0559 26.1971 11.1132 7.85825
62 1 3 -0.0559 10.3349 9.9785 7.05587
63 1 3 -0.055903 10.3349 11.1132 7.85825
64 1 3 -0.055903 26.1971 9.9785 7.05587
65 1 3 -0.0559 14.7918 8.54005 0.580159
66 1 3 -0.0559 21.7402 12.5517 14.334
67 1 3 -0.055903 22.7229 13.1191 13.5316
68 1 3 -0.055903 13.8091 7.97268 1.38254
69 1 3 -0.0559 21.7402 3.39366 7.85825
70 1 3 -0.0559 14.7918 17.6981 7.05587
71 1 3 -0.055903 13.8091 17.1307 7.85825
72 1 3 -0.055903 22.7229 3.96103 7.05587
73 1 3 -0.055901 22.7229 17.1307 7.85825
74 1 3 -0.055901 13.8091 3.96103 7.05587
75 1 3 -0.055903 14.7918 3.39366 7.85825
76 1 3 -0.055903 21.7402 17.6981 7.05587
77 1 3 -0.0559 21.7402 8.54005 0.580159
78 1 3 -0.0559 14.7918 12.5517 14.334
79 1 3 -0.055903 13.8091 13.1191 13.5316
80 1 3 -0.055903 22.7229 7.97268 1.38254
81 1 4 -1.26215 27.399 15.8188 11.1856
82 1 4 -1.26215 9.13299 5.27293 3.72853
83 1 4 -0.60118 27.399 18.9383 11.9641
84 1 4 -0.60118 9.13299 2.15347 2.95001
85 1 4 -0.601179 27.399 17.5926 13.8671
86 1 4 -0.601179 9.13299 3.49912 1.04697
87 1 4 -0.601179 26.2336 13.3722 9.45555
88 1 4 -0.601179 10.2984 7.71958 5.45857
89 1 4 -0.60118 28.5643 13.3722 9.45555
90 1 4 -0.60118 7.96762 7.71958 5.45857
91 1 4 -0.60118 25.8628 14.9319 13.8671
92 1 4 -0.60118 10.6692 6.15984 1.04697
93 1 4 -0.601179 24.6974 14.2591 11.9641
94 1 4 -0.601179 11.8345 6.83267 2.95001
95 1 4 -0.60118 28.9351 18.0514 9.45555
96 1 4 -0.60118 7.59682 3.04037 5.45857
97 1 4 -0.601179 30.1005 16.0329 9.45555
98 1 4 -0.601179 6.43145 5.05885 5.45857
99 1 4 -0.601179 24.6974 16.0329 9.45555
100 1 4 -0.601179 11.8345 5.05885 5.45857
101 1 4 -0.60118 25.8628 18.0514 9.45555
102 1 4 -0.60118 10.6692 3.04037 5.45857
103 1 4 -0.60118 28.9351 14.9319 13.8671
104 1 4 -0.60118 7.59682 6.15984 1.04697
105 1 4 -0.60118 30.1005 14.2591 11.9641
106 1 4 -0.60118 6.43145 6.83267 2.95001
ITEM: TIMESTEP
70000
ITEM: NUMBER OF ATOMS
109
ITEM: BOX BOUNDS xy xz yz pp pp pp
0.0000000000000000e+00 3.6531964750000000e+01 9.1329911900000003e+00
0.0000000000000000e+00 2.1091739680000000e+01 9.1329911900000003e+00
0.0000000000000000e+00 1.4914112149999999e+01 5.2729349200000000e+00
ITEM: ATOMS id mol type q x y z
1 1 1 1.10383 27.399 17.6496 10.5383
2 1 1 1.10383 9.13299 3.44217 4.3758
3 1 1 1.10383 27.399 15.8188 13.1274
4 1 1 1.10383 9.13299 5.27293 1.78671
5 1 1 1.10383 25.8135 14.9034 10.5383
6 1 1 1.10383 10.7185 6.18832 4.3758
7 1 1 1.10383 28.9845 14.9034 10.5383
8 1 1 1.10383 7.5475 6.18832 4.3758
9 1 2 0.115889 18.266 5.48596 12.6084
10 1 2 0.115889 18.266 15.6058 2.30572
11 1 2 0.115888 18.266 13.716 0.969417
12 1 2 0.115888 18.266 7.37578 13.9447
13 1 2 0.11589 25.3934 11.4908 8.12521
14 1 2 0.11589 11.1386 9.60096 6.7889
15 1 2 0.115888 11.1386 11.4908 8.12521
16 1 2 0.115888 25.3934 9.60096 6.7889
17 1 2 0.115889 15.5206 8.96083 0.969417
18 1 2 0.115889 21.0114 12.1309 13.9447
19 1 2 0.115888 22.648 13.0758 12.6084
20 1 2 0.115888 13.884 8.01592 2.30572
21 1 2 0.115889 21.0114 3.90092 8.12521
22 1 2 0.115889 15.5206 17.1908 6.7889
23 1 2 0.115887 13.884 16.2459 8.12521
24 1 2 0.115887 22.648 4.84583 6.7889
25 1 2 0.115889 22.648 16.2459 8.12521
26 1 2 0.115889 13.884 4.84583 6.7889
27 1 2 0.115887 15.5206 3.90092 8.12521
28 1 2 0.115887 21.0114 17.1908 6.7889
29 1 2 0.115889 21.0114 8.96083 0.969417
30 1 2 0.115889 15.5206 12.1309 13.9447
31 1 2 0.115887 13.884 13.0758 12.6084
32 1 2 0.115887 22.648 8.01592 2.30572
33 1 3 0.671939 27.399 18.7442 13.2542
34 1 3 0.671939 9.13299 2.34751 1.65994
35 1 3 0.671939 27.399 12.8934 9.117
36 1 3 0.671939 9.13299 8.19836 5.79712
37 1 3 0.67194 24.8655 14.3561 13.2542
38 1 3 0.67194 11.6665 6.73565 1.65994
39 1 3 0.67194 29.9325 17.2815 9.117
40 1 3 0.67194 6.5995 3.81022 5.79712
41 1 3 0.67194 24.8655 17.2815 9.117
42 1 3 0.67194 11.6665 3.81022 5.79712
43 1 3 0.67194 29.9325 14.3561 13.2542
44 1 3 0.67194 6.5995 6.73565 1.65994
45 1 3 -0.11508 27.399 19.957 14.1117
46 1 3 -0.11508 9.13299 1.13474 0.802379
47 1 3 -0.11508 27.399 11.6806 8.25944
48 1 3 -0.11508 9.13299 9.41113 6.65468
49 1 3 -0.11508 23.8152 13.7497 14.1117
50 1 3 -0.11508 12.7168 7.34203 0.802379
51 1 3 -0.11508 30.9828 17.8879 8.25944
52 1 3 -0.11508 5.54921 3.20384 6.65468
53 1 3 -0.11508 23.8152 17.8879 8.25944
54 1 3 -0.11508 12.7168 3.20384 6.65468
55 1 3 -0.11508 30.9828 13.7497 14.1117
56 1 3 -0.11508 5.54921 7.34203 0.802379
57 1 3 -0.0559 18.266 5.39949 13.5316
58 1 3 -0.0559 18.266 15.6923 1.38254
59 1 3 -0.055903 18.266 14.5575 0.580159
60 1 3 -0.055903 18.266 6.53422 14.334
61 1 3 -0.0559 26.1971 11.1132 7.85825
62 1 3 -0.0559 10.3349 9.9785 7.05587
63 1 3 -0.055903 10.3349 11.1132 7.85825
64 1 3 -0.055903 26.1971 9.9785 7.05587
65 1 3 -0.0559 14.7918 8.54005 0.580159
66 1 3 -0.0559 21.7402 12.5517 14.334
67 1 3 -0.055903 22.7229 13.1191 13.5316
68 1 3 -0.055903 13.8091 7.97268 1.38254
69 1 3 -0.0559 21.7402 3.39366 7.85825
70 1 3 -0.0559 14.7918 17.6981 7.05587
71 1 3 -0.055903 13.8091 17.1307 7.85825
72 1 3 -0.055903 22.7229 3.96103 7.05587
73 1 3 -0.055901 22.7229 17.1307 7.85825
74 1 3 -0.055901 13.8091 3.96103 7.05587
75 1 3 -0.055903 14.7918 3.39366 7.85825
76 1 3 -0.055903 21.7402 17.6981 7.05587
77 1 3 -0.0559 21.7402 8.54005 0.580159
78 1 3 -0.0559 14.7918 12.5517 14.334
79 1 3 -0.055903 13.8091 13.1191 13.5316
80 1 3 -0.055903 22.7229 7.97268 1.38254
81 1 4 -1.26215 27.399 15.8188 11.1856
82 1 4 -1.26215 9.13299 5.27293 3.72853
83 1 4 -0.60118 27.399 18.9383 11.9641
84 1 4 -0.60118 9.13299 2.15347 2.95001
85 1 4 -0.601179 27.399 17.5926 13.8671
86 1 4 -0.601179 9.13299 3.49912 1.04697
87 1 4 -0.601179 26.2336 13.3722 9.45555
88 1 4 -0.601179 10.2984 7.71958 5.45857
89 1 4 -0.60118 28.5643 13.3722 9.45555
90 1 4 -0.60118 7.96762 7.71958 5.45857
91 1 4 -0.60118 25.8628 14.9319 13.8671
92 1 4 -0.60118 10.6692 6.15984 1.04697
93 1 4 -0.601179 24.6974 14.2591 11.9641
94 1 4 -0.601179 11.8345 6.83267 2.95001
95 1 4 -0.60118 28.9351 18.0514 9.45555
96 1 4 -0.60118 7.59682 3.04037 5.45857
97 1 4 -0.601179 30.1005 16.0329 9.45555
98 1 4 -0.601179 6.43145 5.05885 5.45857
99 1 4 -0.601179 24.6974 16.0329 9.45555
100 1 4 -0.601179 11.8345 5.05885 5.45857
101 1 4 -0.60118 25.8628 18.0514 9.45555
102 1 4 -0.60118 10.6692 3.04037 5.45857
103 1 4 -0.60118 28.9351 14.9319 13.8671
104 1 4 -0.60118 7.59682 6.15984 1.04697
105 1 4 -0.60118 30.1005 14.2591 11.9641
106 1 4 -0.60118 6.43145 6.83267 2.95001
107 2 5 -0.35 18.5185 10.4037 13.1316
108 2 6 0.7 18.5871 11.519 12.8201
109 2 5 -0.35 18.6558 12.6343 12.5087
ITEM: TIMESTEP
71000
ITEM: NUMBER OF ATOMS
106
ITEM: BOX BOUNDS xy xz yz pp pp pp
0.0000000000000000e+00 3.6531964750000000e+01 9.1329911900000003e+00
0.0000000000000000e+00 2.1091739680000000e+01 9.1329911900000003e+00
0.0000000000000000e+00 1.4914112149999999e+01 5.2729349200000000e+00
ITEM: ATOMS id mol type q x y z
1 1 1 1.10383 27.399 17.6496 10.5383
2 1 1 1.10383 9.13299 3.44217 4.3758
3 1 1 1.10383 27.399 15.8188 13.1274
4 1 1 1.10383 9.13299 5.27293 1.78671
5 1 1 1.10383 25.8135 14.9034 10.5383
6 1 1 1.10383 10.7185 6.18832 4.3758
7 1 1 1.10383 28.9845 14.9034 10.5383
8 1 1 1.10383 7.5475 6.18832 4.3758
9 1 2 0.115889 18.266 5.48596 12.6084
10 1 2 0.115889 18.266 15.6058 2.30572
11 1 2 0.115888 18.266 13.716 0.969417
12 1 2 0.115888 18.266 7.37578 13.9447
13 1 2 0.11589 25.3934 11.4908 8.12521
14 1 2 0.11589 11.1386 9.60096 6.7889
15 1 2 0.115888 11.1386 11.4908 8.12521
16 1 2 0.115888 25.3934 9.60096 6.7889
17 1 2 0.115889 15.5206 8.96083 0.969417
18 1 2 0.115889 21.0114 12.1309 13.9447
19 1 2 0.115888 22.648 13.0758 12.6084
20 1 2 0.115888 13.884 8.01592 2.30572
21 1 2 0.115889 21.0114 3.90092 8.12521
22 1 2 0.115889 15.5206 17.1908 6.7889
23 1 2 0.115887 13.884 16.2459 8.12521
24 1 2 0.115887 22.648 4.84583 6.7889
25 1 2 0.115889 22.648 16.2459 8.12521
26 1 2 0.115889 13.884 4.84583 6.7889
27 1 2 0.115887 15.5206 3.90092 8.12521
28 1 2 0.115887 21.0114 17.1908 6.7889
29 1 2 0.115889 21.0114 8.96083 0.969417
30 1 2 0.115889 15.5206 12.1309 13.9447
31 1 2 0.115887 13.884 13.0758 12.6084
32 1 2 0.115887 22.648 8.01592 2.30572
33 1 3 0.671939 27.399 18.7442 13.2542
34 1 3 0.671939 9.13299 2.34751 1.65994
35 1 3 0.671939 27.399 12.8934 9.117
36 1 3 0.671939 9.13299 8.19836 5.79712
37 1 3 0.67194 24.8655 14.3561 13.2542
38 1 3 0.67194 11.6665 6.73565 1.65994
39 1 3 0.67194 29.9325 17.2815 9.117
40 1 3 0.67194 6.5995 3.81022 5.79712
41 1 3 0.67194 24.8655 17.2815 9.117
42 1 3 0.67194 11.6665 3.81022 5.79712
43 1 3 0.67194 29.9325 14.3561 13.2542
44 1 3 0.67194 6.5995 6.73565 1.65994
45 1 3 -0.11508 27.399 19.957 14.1117
46 1 3 -0.11508 9.13299 1.13474 0.802379
47 1 3 -0.11508 27.399 11.6806 8.25944
48 1 3 -0.11508 9.13299 9.41113 6.65468
49 1 3 -0.11508 23.8152 13.7497 14.1117
50 1 3 -0.11508 12.7168 7.34203 0.802379
51 1 3 -0.11508 30.9828 17.8879 8.25944
52 1 3 -0.11508 5.54921 3.20384 6.65468
53 1 3 -0.11508 23.8152 17.8879 8.25944
54 1 3 -0.11508 12.7168 3.20384 6.65468
55 1 3 -0.11508 30.9828 13.7497 14.1117
56 1 3 -0.11508 5.54921 7.34203 0.802379
57 1 3 -0.0559 18.266 5.39949 13.5316
58 1 3 -0.0559 18.266 15.6923 1.38254
59 1 3 -0.055903 18.266 14.5575 0.580159
60 1 3 -0.055903 18.266 6.53422 14.334
61 1 3 -0.0559 26.1971 11.1132 7.85825
62 1 3 -0.0559 10.3349 9.9785 7.05587
63 1 3 -0.055903 10.3349 11.1132 7.85825
64 1 3 -0.055903 26.1971 9.9785 7.05587
65 1 3 -0.0559 14.7918 8.54005 0.580159
66 1 3 -0.0559 21.7402 12.5517 14.334
67 1 3 -0.055903 22.7229 13.1191 13.5316
68 1 3 -0.055903 13.8091 7.97268 1.38254
69 1 3 -0.0559 21.7402 3.39366 7.85825
70 1 3 -0.0559 14.7918 17.6981 7.05587
71 1 3 -0.055903 13.8091 17.1307 7.85825
72 1 3 -0.055903 22.7229 3.96103 7.05587
73 1 3 -0.055901 22.7229 17.1307 7.85825
74 1 3 -0.055901 13.8091 3.96103 7.05587
75 1 3 -0.055903 14.7918 3.39366 7.85825
76 1 3 -0.055903 21.7402 17.6981 7.05587
77 1 3 -0.0559 21.7402 8.54005 0.580159
78 1 3 -0.0559 14.7918 12.5517 14.334
79 1 3 -0.055903 13.8091 13.1191 13.5316
80 1 3 -0.055903 22.7229 7.97268 1.38254
81 1 4 -1.26215 27.399 15.8188 11.1856
82 1 4 -1.26215 9.13299 5.27293 3.72853
83 1 4 -0.60118 27.399 18.9383 11.9641
84 1 4 -0.60118 9.13299 2.15347 2.95001
85 1 4 -0.601179 27.399 17.5926 13.8671
86 1 4 -0.601179 9.13299 3.49912 1.04697
87 1 4 -0.601179 26.2336 13.3722 9.45555
88 1 4 -0.601179 10.2984 7.71958 5.45857
89 1 4 -0.60118 28.5643 13.3722 9.45555
90 1 4 -0.60118 7.96762 7.71958 5.45857
91 1 4 -0.60118 25.8628 14.9319 13.8671
92 1 4 -0.60118 10.6692 6.15984 1.04697
93 1 4 -0.601179 24.6974 14.2591 11.9641
94 1 4 -0.601179 11.8345 6.83267 2.95001
95 1 4 -0.60118 28.9351 18.0514 9.45555
96 1 4 -0.60118 7.59682 3.04037 5.45857
97 1 4 -0.601179 30.1005 16.0329 9.45555
98 1 4 -0.601179 6.43145 5.05885 5.45857
99 1 4 -0.601179 24.6974 16.0329 9.45555
100 1 4 -0.601179 11.8345 5.05885 5.45857
101 1 4 -0.60118 25.8628 18.0514 9.45555
102 1 4 -0.60118 10.6692 3.04037 5.45857
103 1 4 -0.60118 28.9351 14.9319 13.8671
104 1 4 -0.60118 7.59682 6.15984 1.04697
105 1 4 -0.60118 30.1005 14.2591 11.9641
106 1 4 -0.60118 6.43145 6.83267 2.95001
ITEM: TIMESTEP
72000
ITEM: NUMBER OF ATOMS
106
ITEM: BOX BOUNDS xy xz yz pp pp pp
0.0000000000000000e+00 3.6531964750000000e+01 9.1329911900000003e+00
0.0000000000000000e+00 2.1091739680000000e+01 9.1329911900000003e+00
0.0000000000000000e+00 1.4914112149999999e+01 5.2729349200000000e+00
ITEM: ATOMS id mol type q x y z
1 1 1 1.10383 27.399 17.6496 10.5383
2 1 1 1.10383 9.13299 3.44217 4.3758
3 1 1 1.10383 27.399 15.8188 13.1274
4 1 1 1.10383 9.13299 5.27293 1.78671
5 1 1 1.10383 25.8135 14.9034 10.5383
6 1 1 1.10383 10.7185 6.18832 4.3758
7 1 1 1.10383 28.9845 14.9034 10.5383
8 1 1 1.10383 7.5475 6.18832 4.3758
9 1 2 0.115889 18.266 5.48596 12.6084
10 1 2 0.115889 18.266 15.6058 2.30572
11 1 2 0.115888 18.266 13.716 0.969417
12 1 2 0.115888 18.266 7.37578 13.9447
13 1 2 0.11589 25.3934 11.4908 8.12521
14 1 2 0.11589 11.1386 9.60096 6.7889
15 1 2 0.115888 11.1386 11.4908 8.12521
16 1 2 0.115888 25.3934 9.60096 6.7889
17 1 2 0.115889 15.5206 8.96083 0.969417
18 1 2 0.115889 21.0114 12.1309 13.9447
19 1 2 0.115888 22.648 13.0758 12.6084
20 1 2 0.115888 13.884 8.01592 2.30572
21 1 2 0.115889 21.0114 3.90092 8.12521
22 1 2 0.115889 15.5206 17.1908 6.7889
23 1 2 0.115887 13.884 16.2459 8.12521
24 1 2 0.115887 22.648 4.84583 6.7889
25 1 2 0.115889 22.648 16.2459 8.12521
26 1 2 0.115889 13.884 4.84583 6.7889
27 1 2 0.115887 15.5206 3.90092 8.12521
28 1 2 0.115887 21.0114 17.1908 6.7889
29 1 2 0.115889 21.0114 8.96083 0.969417
30 1 2 0.115889 15.5206 12.1309 13.9447
31 1 2 0.115887 13.884 13.0758 12.6084
32 1 2 0.115887 22.648 8.01592 2.30572
33 1 3 0.671939 27.399 18.7442 13.2542
34 1 3 0.671939 9.13299 2.34751 1.65994
35 1 3 0.671939 27.399 12.8934 9.117
36 1 3 0.671939 9.13299 8.19836 5.79712
37 1 3 0.67194 24.8655 14.3561 13.2542
38 1 3 0.67194 11.6665 6.73565 1.65994
39 1 3 0.67194 29.9325 17.2815 9.117
40 1 3 0.67194 6.5995 3.81022 5.79712
41 1 3 0.67194 24.8655 17.2815 9.117
42 1 3 0.67194 11.6665 3.81022 5.79712
43 1 3 0.67194 29.9325 14.3561 13.2542
44 1 3 0.67194 6.5995 6.73565 1.65994
45 1 3 -0.11508 27.399 19.957 14.1117
46 1 3 -0.11508 9.13299 1.13474 0.802379
47 1 3 -0.11508 27.399 11.6806 8.25944
48 1 3 -0.11508 9.13299 9.41113 6.65468
49 1 3 -0.11508 23.8152 13.7497 14.1117
50 1 3 -0.11508 12.7168 7.34203 0.802379
51 1 3 -0.11508 30.9828 17.8879 8.25944
52 1 3 -0.11508 5.54921 3.20384 6.65468
53 1 3 -0.11508 23.8152 17.8879 8.25944
54 1 3 -0.11508 12.7168 3.20384 6.65468
55 1 3 -0.11508 30.9828 13.7497 14.1117
56 1 3 -0.11508 5.54921 7.34203 0.802379
57 1 3 -0.0559 18.266 5.39949 13.5316
58 1 3 -0.0559 18.266 15.6923 1.38254
59 1 3 -0.055903 18.266 14.5575 0.580159
60 1 3 -0.055903 18.266 6.53422 14.334
61 1 3 -0.0559 26.1971 11.1132 7.85825
62 1 3 -0.0559 10.3349 9.9785 7.05587
63 1 3 -0.055903 10.3349 11.1132 7.85825
64 1 3 -0.055903 26.1971 9.9785 7.05587
65 1 3 -0.0559 14.7918 8.54005 0.580159
66 1 3 -0.0559 21.7402 12.5517 14.334
67 1 3 -0.055903 22.7229 13.1191 13.5316
68 1 3 -0.055903 13.8091 7.97268 1.38254
69 1 3 -0.0559 21.7402 3.39366 7.85825
70 1 3 -0.0559 14.7918 17.6981 7.05587
71 1 3 -0.055903 13.8091 17.1307 7.85825
72 1 3 -0.055903 22.7229 3.96103 7.05587
73 1 3 -0.055901 22.7229 17.1307 7.85825
74 1 3 -0.055901 13.8091 3.96103 7.05587
75 1 3 -0.055903 14.7918 3.39366 7.85825
76 1 3 -0.055903 21.7402 17.6981 7.05587
77 1 3 -0.0559 21.7402 8.54005 0.580159
78 1 3 -0.0559 14.7918 12.5517 14.334
79 1 3 -0.055903 13.8091 13.1191 13.5316
80 1 3 -0.055903 22.7229 7.97268 1.38254
81 1 4 -1.26215 27.399 15.8188 11.1856
82 1 4 -1.26215 9.13299 5.27293 3.72853
83 1 4 -0.60118 27.399 18.9383 11.9641
84 1 4 -0.60118 9.13299 2.15347 2.95001
85 1 4 -0.601179 27.399 17.5926 13.8671
86 1 4 -0.601179 9.13299 3.49912 1.04697
87 1 4 -0.601179 26.2336 13.3722 9.45555
88 1 4 -0.601179 10.2984 7.71958 5.45857
89 1 4 -0.60118 28.5643 13.3722 9.45555
90 1 4 -0.60118 7.96762 7.71958 5.45857
91 1 4 -0.60118 25.8628 14.9319 13.8671
92 1 4 -0.60118 10.6692 6.15984 1.04697
93 1 4 -0.601179 24.6974 14.2591 11.9641
94 1 4 -0.601179 11.8345 6.83267 2.95001
95 1 4 -0.60118 28.9351 18.0514 9.45555
96 1 4 -0.60118 7.59682 3.04037 5.45857
97 1 4 -0.601179 30.1005 16.0329 9.45555
98 1 4 -0.601179 6.43145 5.05885 5.45857
99 1 4 -0.601179 24.6974 16.0329 9.45555
100 1 4 -0.601179 11.8345 5.05885 5.45857
101 1 4 -0.60118 25.8628 18.0514 9.45555
102 1 4 -0.60118 10.6692 3.04037 5.45857
103 1 4 -0.60118 28.9351 14.9319 13.8671
104 1 4 -0.60118 7.59682 6.15984 1.04697
105 1 4 -0.60118 30.1005 14.2591 11.9641
106 1 4 -0.60118 6.43145 6.83267 2.95001
ITEM: TIMESTEP
73000
ITEM: NUMBER OF ATOMS
109
ITEM: BOX BOUNDS xy xz yz pp pp pp
0.0000000000000000e+00 3.6531964750000000e+01 9.1329911900000003e+00
0.0000000000000000e+00 2.1091739680000000e+01 9.1329911900000003e+00
0.0000000000000000e+00 1.4914112149999999e+01 5.2729349200000000e+00
ITEM: ATOMS id mol type q x y z
1 1 1 1.10383 27.399 17.6496 10.5383
2 1 1 1.10383 9.13299 3.44217 4.3758
3 1 1 1.10383 27.399 15.8188 13.1274
4 1 1 1.10383 9.13299 5.27293 1.78671
5 1 1 1.10383 25.8135 14.9034 10.5383
6 1 1 1.10383 10.7185 6.18832 4.3758
7 1 1 1.10383 28.9845 14.9034 10.5383
8 1 1 1.10383 7.5475 6.18832 4.3758
9 1 2 0.115889 18.266 5.48596 12.6084
10 1 2 0.115889 18.266 15.6058 2.30572
11 1 2 0.115888 18.266 13.716 0.969417
12 1 2 0.115888 18.266 7.37578 13.9447
13 1 2 0.11589 25.3934 11.4908 8.12521
14 1 2 0.11589 11.1386 9.60096 6.7889
15 1 2 0.115888 11.1386 11.4908 8.12521
16 1 2 0.115888 25.3934 9.60096 6.7889
17 1 2 0.115889 15.5206 8.96083 0.969417
18 1 2 0.115889 21.0114 12.1309 13.9447
19 1 2 0.115888 22.648 13.0758 12.6084
20 1 2 0.115888 13.884 8.01592 2.30572
21 1 2 0.115889 21.0114 3.90092 8.12521
22 1 2 0.115889 15.5206 17.1908 6.7889
23 1 2 0.115887 13.884 16.2459 8.12521
24 1 2 0.115887 22.648 4.84583 6.7889
25 1 2 0.115889 22.648 16.2459 8.12521
26 1 2 0.115889 13.884 4.84583 6.7889
27 1 2 0.115887 15.5206 3.90092 8.12521
28 1 2 0.115887 21.0114 17.1908 6.7889
29 1 2 0.115889 21.0114 8.96083 0.969417
30 1 2 0.115889 15.5206 12.1309 13.9447
31 1 2 0.115887 13.884 13.0758 12.6084
32 1 2 0.115887 22.648 8.01592 2.30572
33 1 3 0.671939 27.399 18.7442 13.2542
34 1 3 0.671939 9.13299 2.34751 1.65994
35 1 3 0.671939 27.399 12.8934 9.117
36 1 3 0.671939 9.13299 8.19836 5.79712
37 1 3 0.67194 24.8655 14.3561 13.2542
38 1 3 0.67194 11.6665 6.73565 1.65994
39 1 3 0.67194 29.9325 17.2815 9.117
40 1 3 0.67194 6.5995 3.81022 5.79712
41 1 3 0.67194 24.8655 17.2815 9.117
42 1 3 0.67194 11.6665 3.81022 5.79712
43 1 3 0.67194 29.9325 14.3561 13.2542
44 1 3 0.67194 6.5995 6.73565 1.65994
45 1 3 -0.11508 27.399 19.957 14.1117
46 1 3 -0.11508 9.13299 1.13474 0.802379
47 1 3 -0.11508 27.399 11.6806 8.25944
48 1 3 -0.11508 9.13299 9.41113 6.65468
49 1 3 -0.11508 23.8152 13.7497 14.1117
50 1 3 -0.11508 12.7168 7.34203 0.802379
51 1 3 -0.11508 30.9828 17.8879 8.25944
52 1 3 -0.11508 5.54921 3.20384 6.65468
53 1 3 -0.11508 23.8152 17.8879 8.25944
54 1 3 -0.11508 12.7168 3.20384 6.65468
55 1 3 -0.11508 30.9828 13.7497 14.1117
56 1 3 -0.11508 5.54921 7.34203 0.802379
57 1 3 -0.0559 18.266 5.39949 13.5316
58 1 3 -0.0559 18.266 15.6923 1.38254
59 1 3 -0.055903 18.266 14.5575 0.580159
60 1 3 -0.055903 18.266 6.53422 14.334
61 1 3 -0.0559 26.1971 11.1132 7.85825
62 1 3 -0.0559 10.3349 9.9785 7.05587
63 1 3 -0.055903 10.3349 11.1132 7.85825
64 1 3 -0.055903 26.1971 9.9785 7.05587
65 1 3 -0.0559 14.7918 8.54005 0.580159
66 1 3 -0.0559 21.7402 12.5517 14.334
67 1 3 -0.055903 22.7229 13.1191 13.5316
68 1 3 -0.055903 13.8091 7.97268 1.38254
69 1 3 -0.0559 21.7402 3.39366 7.85825
70 1 3 -0.0559 14.7918 17.6981 7.05587
71 1 3 -0.055903 13.8091 17.1307 7.85825
72 1 3 -0.055903 22.7229 3.96103 7.05587
73 1 3 -0.055901 22.7229 17.1307 7.85825
74 1 3 -0.055901 13.8091 3.96103 7.05587
75 1 3 -0.055903 14.7918 3.39366 7.85825
76 1 3 -0.055903 21.7402 17.6981 7.05587
77 1 3 -0.0559 21.7402 8.54005 0.580159
78 1 3 -0.0559 14.7918 12.5517 14.334
79 1 3 -0.055903 13.8091 13.1191 13.5316
80 1 3 -0.055903 22.7229 7.97268 1.38254
81 1 4 -1.26215 27.399 15.8188 11.1856
82 1 4 -1.26215 9.13299 5.27293 3.72853
83 1 4 -0.60118 27.399 18.9383 11.9641
84 1 4 -0.60118 9.13299 2.15347 2.95001
85 1 4 -0.601179 27.399 17.5926 13.8671
86 1 4 -0.601179 9.13299 3.49912 1.04697
87 1 4 -0.601179 26.2336 13.3722 9.45555
88 1 4 -0.601179 10.2984 7.71958 5.45857
89 1 4 -0.60118 28.5643 13.3722 9.45555
90 1 4 -0.60118 7.96762 7.71958 5.45857
91 1 4 -0.60118 25.8628 14.9319 13.8671
92 1 4 -0.60118 10.6692 6.15984 1.04697
93 1 4 -0.601179 24.6974 14.2591 11.9641
94 1 4 -0.601179 11.8345 6.83267 2.95001
95 1 4 -0.60118 28.9351 18.0514 9.45555
96 1 4 -0.60118 7.59682 3.04037 5.45857
97 1 4 -0.601179 30.1005 16.0329 9.45555
98 1 4 -0.601179 6.43145 5.05885 5.45857
99 1 4 -0.601179 24.6974 16.0329 9.45555
100 1 4 -0.601179 11.8345 5.05885 5.45857
101 1 4 -0.60118 25.8628 18.0514 9.45555
102 1 4 -0.60118 10.6692 3.04037 5.45857
103 1 4 -0.60118 28.9351 14.9319 13.8671
104 1 4 -0.60118 7.59682 6.15984 1.04697
105 1 4 -0.60118 30.1005 14.2591 11.9641
106 1 4 -0.60118 6.43145 6.83267 2.95001
107 2 5 -0.35 26.5374 15.5416 6.2576
108 2 6 0.7 26.2627 14.5112 5.80114
109 2 5 -0.35 25.988 13.4808 5.34469
ITEM: TIMESTEP
74000
ITEM: NUMBER OF ATOMS
106
ITEM: BOX BOUNDS xy xz yz pp pp pp
0.0000000000000000e+00 3.6531964750000000e+01 9.1329911900000003e+00
0.0000000000000000e+00 2.1091739680000000e+01 9.1329911900000003e+00
0.0000000000000000e+00 1.4914112149999999e+01 5.2729349200000000e+00
ITEM: ATOMS id mol type q x y z
1 1 1 1.10383 27.399 17.6496 10.5383
2 1 1 1.10383 9.13299 3.44217 4.3758
3 1 1 1.10383 27.399 15.8188 13.1274
4 1 1 1.10383 9.13299 5.27293 1.78671
5 1 1 1.10383 25.8135 14.9034 10.5383
6 1 1 1.10383 10.7185 6.18832 4.3758
7 1 1 1.10383 28.9845 14.9034 10.5383
8 1 1 1.10383 7.5475 6.18832 4.3758
9 1 2 0.115889 18.266 5.48596 12.6084
10 1 2 0.115889 18.266 15.6058 2.30572
11 1 2 0.115888 18.266 13.716 0.969417
12 1 2 0.115888 18.266 7.37578 13.9447
13 1 2 0.11589 25.3934 11.4908 8.12521
14 1 2 0.11589 11.1386 9.60096 6.7889
15 1 2 0.115888 11.1386 11.4908 8.12521
16 1 2 0.115888 25.3934 9.60096 6.7889
17 1 2 0.115889 15.5206 8.96083 0.969417
18 1 2 0.115889 21.0114 12.1309 13.9447
19 1 2 0.115888 22.648 13.0758 12.6084
20 1 2 0.115888 13.884 8.01592 2.30572
21 1 2 0.115889 21.0114 3.90092 8.12521
22 1 2 0.115889 15.5206 17.1908 6.7889
23 1 2 0.115887 13.884 16.2459 8.12521
24 1 2 0.115887 22.648 4.84583 6.7889
25 1 2 0.115889 22.648 16.2459 8.12521
26 1 2 0.115889 13.884 4.84583 6.7889
27 1 2 0.115887 15.5206 3.90092 8.12521
28 1 2 0.115887 21.0114 17.1908 6.7889
29 1 2 0.115889 21.0114 8.96083 0.969417
30 1 2 0.115889 15.5206 12.1309 13.9447
31 1 2 0.115887 13.884 13.0758 12.6084
32 1 2 0.115887 22.648 8.01592 2.30572
33 1 3 0.671939 27.399 18.7442 13.2542
34 1 3 0.671939 9.13299 2.34751 1.65994
35 1 3 0.671939 27.399 12.8934 9.117
36 1 3 0.671939 9.13299 8.19836 5.79712
37 1 3 0.67194 24.8655 14.3561 13.2542
38 1 3 0.67194 11.6665 6.73565 1.65994
39 1 3 0.67194 29.9325 17.2815 9.117
40 1 3 0.67194 6.5995 3.81022 5.79712
41 1 3 0.67194 24.8655 17.2815 9.117
42 1 3 0.67194 11.6665 3.81022 5.79712
43 1 3 0.67194 29.9325 14.3561 13.2542
44 1 3 0.67194 6.5995 6.73565 1.65994
45 1 3 -0.11508 27.399 19.957 14.1117
46 1 3 -0.11508 9.13299 1.13474 0.802379
47 1 3 -0.11508 27.399 11.6806 8.25944
48 1 3 -0.11508 9.13299 9.41113 6.65468
49 1 3 -0.11508 23.8152 13.7497 14.1117
50 1 3 -0.11508 12.7168 7.34203 0.802379
51 1 3 -0.11508 30.9828 17.8879 8.25944
52 1 3 -0.11508 5.54921 3.20384 6.65468
53 1 3 -0.11508 23.8152 17.8879 8.25944
54 1 3 -0.11508 12.7168 3.20384 6.65468
55 1 3 -0.11508 30.9828 13.7497 14.1117
56 1 3 -0.11508 5.54921 7.34203 0.802379
57 1 3 -0.0559 18.266 5.39949 13.5316
58 1 3 -0.0559 18.266 15.6923 1.38254
59 1 3 -0.055903 18.266 14.5575 0.580159
60 1 3 -0.055903 18.266 6.53422 14.334
61 1 3 -0.0559 26.1971 11.1132 7.85825
62 1 3 -0.0559 10.3349 9.9785 7.05587
63 1 3 -0.055903 10.3349 11.1132 7.85825
64 1 3 -0.055903 26.1971 9.9785 7.05587
65 1 3 -0.0559 14.7918 8.54005 0.580159
66 1 3 -0.0559 21.7402 12.5517 14.334
67 1 3 -0.055903 22.7229 13.1191 13.5316
68 1 3 -0.055903 13.8091 7.97268 1.38254
69 1 3 -0.0559 21.7402 3.39366 7.85825
70 1 3 -0.0559 14.7918 17.6981 7.05587
71 1 3 -0.055903 13.8091 17.1307 7.85825
72 1 3 -0.055903 22.7229 3.96103 7.05587
73 1 3 -0.055901 22.7229 17.1307 7.85825
74 1 3 -0.055901 13.8091 3.96103 7.05587
75 1 3 -0.055903 14.7918 3.39366 7.85825
76 1 3 -0.055903 21.7402 17.6981 7.05587
77 1 3 -0.0559 21.7402 8.54005 0.580159
78 1 3 -0.0559 14.7918 12.5517 14.334
79 1 3 -0.055903 13.8091 13.1191 13.5316
80 1 3 -0.055903 22.7229 7.97268 1.38254
81 1 4 -1.26215 27.399 15.8188 11.1856
82 1 4 -1.26215 9.13299 5.27293 3.72853
83 1 4 -0.60118 27.399 18.9383 11.9641
84 1 4 -0.60118 9.13299 2.15347 2.95001
85 1 4 -0.601179 27.399 17.5926 13.8671
86 1 4 -0.601179 9.13299 3.49912 1.04697
87 1 4 -0.601179 26.2336 13.3722 9.45555
88 1 4 -0.601179 10.2984 7.71958 5.45857
89 1 4 -0.60118 28.5643 13.3722 9.45555
90 1 4 -0.60118 7.96762 7.71958 5.45857
91 1 4 -0.60118 25.8628 14.9319 13.8671
92 1 4 -0.60118 10.6692 6.15984 1.04697
93 1 4 -0.601179 24.6974 14.2591 11.9641
94 1 4 -0.601179 11.8345 6.83267 2.95001
95 1 4 -0.60118 28.9351 18.0514 9.45555
96 1 4 -0.60118 7.59682 3.04037 5.45857
97 1 4 -0.601179 30.1005 16.0329 9.45555
98 1 4 -0.601179 6.43145 5.05885 5.45857
99 1 4 -0.601179 24.6974 16.0329 9.45555
100 1 4 -0.601179 11.8345 5.05885 5.45857
101 1 4 -0.60118 25.8628 18.0514 9.45555
102 1 4 -0.60118 10.6692 3.04037 5.45857
103 1 4 -0.60118 28.9351 14.9319 13.8671
104 1 4 -0.60118 7.59682 6.15984 1.04697
105 1 4 -0.60118 30.1005 14.2591 11.9641
106 1 4 -0.60118 6.43145 6.83267 2.95001
ITEM: TIMESTEP
75000
ITEM: NUMBER OF ATOMS
106
ITEM: BOX BOUNDS xy xz yz pp pp pp
0.0000000000000000e+00 3.6531964750000000e+01 9.1329911900000003e+00
0.0000000000000000e+00 2.1091739680000000e+01 9.1329911900000003e+00
0.0000000000000000e+00 1.4914112149999999e+01 5.2729349200000000e+00
ITEM: ATOMS id mol type q x y z
1 1 1 1.10383 27.399 17.6496 10.5383
2 1 1 1.10383 9.13299 3.44217 4.3758
3 1 1 1.10383 27.399 15.8188 13.1274
4 1 1 1.10383 9.13299 5.27293 1.78671
5 1 1 1.10383 25.8135 14.9034 10.5383
6 1 1 1.10383 10.7185 6.18832 4.3758
7 1 1 1.10383 28.9845 14.9034 10.5383
8 1 1 1.10383 7.5475 6.18832 4.3758
9 1 2 0.115889 18.266 5.48596 12.6084
10 1 2 0.115889 18.266 15.6058 2.30572
11 1 2 0.115888 18.266 13.716 0.969417
12 1 2 0.115888 18.266 7.37578 13.9447
13 1 2 0.11589 25.3934 11.4908 8.12521
14 1 2 0.11589 11.1386 9.60096 6.7889
15 1 2 0.115888 11.1386 11.4908 8.12521
16 1 2 0.115888 25.3934 9.60096 6.7889
17 1 2 0.115889 15.5206 8.96083 0.969417
18 1 2 0.115889 21.0114 12.1309 13.9447
19 1 2 0.115888 22.648 13.0758 12.6084
20 1 2 0.115888 13.884 8.01592 2.30572
21 1 2 0.115889 21.0114 3.90092 8.12521
22 1 2 0.115889 15.5206 17.1908 6.7889
23 1 2 0.115887 13.884 16.2459 8.12521
24 1 2 0.115887 22.648 4.84583 6.7889
25 1 2 0.115889 22.648 16.2459 8.12521
26 1 2 0.115889 13.884 4.84583 6.7889
27 1 2 0.115887 15.5206 3.90092 8.12521
28 1 2 0.115887 21.0114 17.1908 6.7889
29 1 2 0.115889 21.0114 8.96083 0.969417
30 1 2 0.115889 15.5206 12.1309 13.9447
31 1 2 0.115887 13.884 13.0758 12.6084
32 1 2 0.115887 22.648 8.01592 2.30572
33 1 3 0.671939 27.399 18.7442 13.2542
34 1 3 0.671939 9.13299 2.34751 1.65994
35 1 3 0.671939 27.399 12.8934 9.117
36 1 3 0.671939 9.13299 8.19836 5.79712
37 1 3 0.67194 24.8655 14.3561 13.2542
38 1 3 0.67194 11.6665 6.73565 1.65994
39 1 3 0.67194 29.9325 17.2815 9.117
40 1 3 0.67194 6.5995 3.81022 5.79712
41 1 3 0.67194 24.8655 17.2815 9.117
42 1 3 0.67194 11.6665 3.81022 5.79712
43 1 3 0.67194 29.9325 14.3561 13.2542
44 1 3 0.67194 6.5995 6.73565 1.65994
45 1 3 -0.11508 27.399 19.957 14.1117
46 1 3 -0.11508 9.13299 1.13474 0.802379
47 1 3 -0.11508 27.399 11.6806 8.25944
48 1 3 -0.11508 9.13299 9.41113 6.65468
49 1 3 -0.11508 23.8152 13.7497 14.1117
50 1 3 -0.11508 12.7168 7.34203 0.802379
51 1 3 -0.11508 30.9828 17.8879 8.25944
52 1 3 -0.11508 5.54921 3.20384 6.65468
53 1 3 -0.11508 23.8152 17.8879 8.25944
54 1 3 -0.11508 12.7168 3.20384 6.65468
55 1 3 -0.11508 30.9828 13.7497 14.1117
56 1 3 -0.11508 5.54921 7.34203 0.802379
57 1 3 -0.0559 18.266 5.39949 13.5316
58 1 3 -0.0559 18.266 15.6923 1.38254
59 1 3 -0.055903 18.266 14.5575 0.580159
60 1 3 -0.055903 18.266 6.53422 14.334
61 1 3 -0.0559 26.1971 11.1132 7.85825
62 1 3 -0.0559 10.3349 9.9785 7.05587
63 1 3 -0.055903 10.3349 11.1132 7.85825
64 1 3 -0.055903 26.1971 9.9785 7.05587
65 1 3 -0.0559 14.7918 8.54005 0.580159
66 1 3 -0.0559 21.7402 12.5517 14.334
67 1 3 -0.055903 22.7229 13.1191 13.5316
68 1 3 -0.055903 13.8091 7.97268 1.38254
69 1 3 -0.0559 21.7402 3.39366 7.85825
70 1 3 -0.0559 14.7918 17.6981 7.05587
71 1 3 -0.055903 13.8091 17.1307 7.85825
72 1 3 -0.055903 22.7229 3.96103 7.05587
73 1 3 -0.055901 22.7229 17.1307 7.85825
74 1 3 -0.055901 13.8091 3.96103 7.05587
75 1 3 -0.055903 14.7918 3.39366 7.85825
76 1 3 -0.055903 21.7402 17.6981 7.05587
77 1 3 -0.0559 21.7402 8.54005 0.580159
78 1 3 -0.0559 14.7918 12.5517 14.334
79 1 3 -0.055903 13.8091 13.1191 13.5316
80 1 3 -0.055903 22.7229 7.97268 1.38254
81 1 4 -1.26215 27.399 15.8188 11.1856
82 1 4 -1.26215 9.13299 5.27293 3.72853
83 1 4 -0.60118 27.399 18.9383 11.9641
84 1 4 -0.60118 9.13299 2.15347 2.95001
85 1 4 -0.601179 27.399 17.5926 13.8671
86 1 4 -0.601179 9.13299 3.49912 1.04697
87 1 4 -0.601179 26.2336 13.3722 9.45555
88 1 4 -0.601179 10.2984 7.71958 5.45857
89 1 4 -0.60118 28.5643 13.3722 9.45555
90 1 4 -0.60118 7.96762 7.71958 5.45857
91 1 4 -0.60118 25.8628 14.9319 13.8671
92 1 4 -0.60118 10.6692 6.15984 1.04697
93 1 4 -0.601179 24.6974 14.2591 11.9641
94 1 4 -0.601179 11.8345 6.83267 2.95001
95 1 4 -0.60118 28.9351 18.0514 9.45555
96 1 4 -0.60118 7.59682 3.04037 5.45857
97 1 4 -0.601179 30.1005 16.0329 9.45555
98 1 4 -0.601179 6.43145 5.05885 5.45857
99 1 4 -0.601179 24.6974 16.0329 9.45555
100 1 4 -0.601179 11.8345 5.05885 5.45857
101 1 4 -0.60118 25.8628 18.0514 9.45555
102 1 4 -0.60118 10.6692 3.04037 5.45857
103 1 4 -0.60118 28.9351 14.9319 13.8671
104 1 4 -0.60118 7.59682 6.15984 1.04697
105 1 4 -0.60118 30.1005 14.2591 11.9641
106 1 4 -0.60118 6.43145 6.83267 2.95001
ITEM: TIMESTEP
76000
ITEM: NUMBER OF ATOMS
106
ITEM: BOX BOUNDS xy xz yz pp pp pp
0.0000000000000000e+00 3.6531964750000000e+01 9.1329911900000003e+00
0.0000000000000000e+00 2.1091739680000000e+01 9.1329911900000003e+00
0.0000000000000000e+00 1.4914112149999999e+01 5.2729349200000000e+00
ITEM: ATOMS id mol type q x y z
1 1 1 1.10383 27.399 17.6496 10.5383
2 1 1 1.10383 9.13299 3.44217 4.3758
3 1 1 1.10383 27.399 15.8188 13.1274
4 1 1 1.10383 9.13299 5.27293 1.78671
5 1 1 1.10383 25.8135 14.9034 10.5383
6 1 1 1.10383 10.7185 6.18832 4.3758
7 1 1 1.10383 28.9845 14.9034 10.5383
8 1 1 1.10383 7.5475 6.18832 4.3758
9 1 2 0.115889 18.266 5.48596 12.6084
10 1 2 0.115889 18.266 15.6058 2.30572
11 1 2 0.115888 18.266 13.716 0.969417
12 1 2 0.115888 18.266 7.37578 13.9447
13 1 2 0.11589 25.3934 11.4908 8.12521
14 1 2 0.11589 11.1386 9.60096 6.7889
15 1 2 0.115888 11.1386 11.4908 8.12521
16 1 2 0.115888 25.3934 9.60096 6.7889
17 1 2 0.115889 15.5206 8.96083 0.969417
18 1 2 0.115889 21.0114 12.1309 13.9447
19 1 2 0.115888 22.648 13.0758 12.6084
20 1 2 0.115888 13.884 8.01592 2.30572
21 1 2 0.115889 21.0114 3.90092 8.12521
22 1 2 0.115889 15.5206 17.1908 6.7889
23 1 2 0.115887 13.884 16.2459 8.12521
24 1 2 0.115887 22.648 4.84583 6.7889
25 1 2 0.115889 22.648 16.2459 8.12521
26 1 2 0.115889 13.884 4.84583 6.7889
27 1 2 0.115887 15.5206 3.90092 8.12521
28 1 2 0.115887 21.0114 17.1908 6.7889
29 1 2 0.115889 21.0114 8.96083 0.969417
30 1 2 0.115889 15.5206 12.1309 13.9447
31 1 2 0.115887 13.884 13.0758 12.6084
32 1 2 0.115887 22.648 8.01592 2.30572
33 1 3 0.671939 27.399 18.7442 13.2542
34 1 3 0.671939 9.13299 2.34751 1.65994
35 1 3 0.671939 27.399 12.8934 9.117
36 1 3 0.671939 9.13299 8.19836 5.79712
37 1 3 0.67194 24.8655 14.3561 13.2542
38 1 3 0.67194 11.6665 6.73565 1.65994
39 1 3 0.67194 29.9325 17.2815 9.117
40 1 3 0.67194 6.5995 3.81022 5.79712
41 1 3 0.67194 24.8655 17.2815 9.117
42 1 3 0.67194 11.6665 3.81022 5.79712
43 1 3 0.67194 29.9325 14.3561 13.2542
44 1 3 0.67194 6.5995 6.73565 1.65994
45 1 3 -0.11508 27.399 19.957 14.1117
46 1 3 -0.11508 9.13299 1.13474 0.802379
47 1 3 -0.11508 27.399 11.6806 8.25944
48 1 3 -0.11508 9.13299 9.41113 6.65468
49 1 3 -0.11508 23.8152 13.7497 14.1117
50 1 3 -0.11508 12.7168 7.34203 0.802379
51 1 3 -0.11508 30.9828 17.8879 8.25944
52 1 3 -0.11508 5.54921 3.20384 6.65468
53 1 3 -0.11508 23.8152 17.8879 8.25944
54 1 3 -0.11508 12.7168 3.20384 6.65468
55 1 3 -0.11508 30.9828 13.7497 14.1117
56 1 3 -0.11508 5.54921 7.34203 0.802379
57 1 3 -0.0559 18.266 5.39949 13.5316
58 1 3 -0.0559 18.266 15.6923 1.38254
59 1 3 -0.055903 18.266 14.5575 0.580159
60 1 3 -0.055903 18.266 6.53422 14.334
61 1 3 -0.0559 26.1971 11.1132 7.85825
62 1 3 -0.0559 10.3349 9.9785 7.05587
63 1 3 -0.055903 10.3349 11.1132 7.85825
64 1 3 -0.055903 26.1971 9.9785 7.05587
65 1 3 -0.0559 14.7918 8.54005 0.580159
66 1 3 -0.0559 21.7402 12.5517 14.334
67 1 3 -0.055903 22.7229 13.1191 13.5316
68 1 3 -0.055903 13.8091 7.97268 1.38254
69 1 3 -0.0559 21.7402 3.39366 7.85825
70 1 3 -0.0559 14.7918 17.6981 7.05587
71 1 3 -0.055903 13.8091 17.1307 7.85825
72 1 3 -0.055903 22.7229 3.96103 7.05587
73 1 3 -0.055901 22.7229 17.1307 7.85825
74 1 3 -0.055901 13.8091 3.96103 7.05587
75 1 3 -0.055903 14.7918 3.39366 7.85825
76 1 3 -0.055903 21.7402 17.6981 7.05587
77 1 3 -0.0559 21.7402 8.54005 0.580159
78 1 3 -0.0559 14.7918 12.5517 14.334
79 1 3 -0.055903 13.8091 13.1191 13.5316
80 1 3 -0.055903 22.7229 7.97268 1.38254
81 1 4 -1.26215 27.399 15.8188 11.1856
82 1 4 -1.26215 9.13299 5.27293 3.72853
83 1 4 -0.60118 27.399 18.9383 11.9641
84 1 4 -0.60118 9.13299 2.15347 2.95001
85 1 4 -0.601179 27.399 17.5926 13.8671
86 1 4 -0.601179 9.13299 3.49912 1.04697
87 1 4 -0.601179 26.2336 13.3722 9.45555
88 1 4 -0.601179 10.2984 7.71958 5.45857
89 1 4 -0.60118 28.5643 13.3722 9.45555
90 1 4 -0.60118 7.96762 7.71958 5.45857
91 1 4 -0.60118 25.8628 14.9319 13.8671
92 1 4 -0.60118 10.6692 6.15984 1.04697
93 1 4 -0.601179 24.6974 14.2591 11.9641
94 1 4 -0.601179 11.8345 6.83267 2.95001
95 1 4 -0.60118 28.9351 18.0514 9.45555
96 1 4 -0.60118 7.59682 3.04037 5.45857
97 1 4 -0.601179 30.1005 16.0329 9.45555
98 1 4 -0.601179 6.43145 5.05885 5.45857
99 1 4 -0.601179 24.6974 16.0329 9.45555
100 1 4 -0.601179 11.8345 5.05885 5.45857
101 1 4 -0.60118 25.8628 18.0514 9.45555
102 1 4 -0.60118 10.6692 3.04037 5.45857
103 1 4 -0.60118 28.9351 14.9319 13.8671
104 1 4 -0.60118 7.59682 6.15984 1.04697
105 1 4 -0.60118 30.1005 14.2591 11.9641
106 1 4 -0.60118 6.43145 6.83267 2.95001
ITEM: TIMESTEP
77000
ITEM: NUMBER OF ATOMS
106
ITEM: BOX BOUNDS xy xz yz pp pp pp
0.0000000000000000e+00 3.6531964750000000e+01 9.1329911900000003e+00
0.0000000000000000e+00 2.1091739680000000e+01 9.1329911900000003e+00
0.0000000000000000e+00 1.4914112149999999e+01 5.2729349200000000e+00
ITEM: ATOMS id mol type q x y z
1 1 1 1.10383 27.399 17.6496 10.5383
2 1 1 1.10383 9.13299 3.44217 4.3758
3 1 1 1.10383 27.399 15.8188 13.1274
4 1 1 1.10383 9.13299 5.27293 1.78671
5 1 1 1.10383 25.8135 14.9034 10.5383
6 1 1 1.10383 10.7185 6.18832 4.3758
7 1 1 1.10383 28.9845 14.9034 10.5383
8 1 1 1.10383 7.5475 6.18832 4.3758
9 1 2 0.115889 18.266 5.48596 12.6084
10 1 2 0.115889 18.266 15.6058 2.30572
11 1 2 0.115888 18.266 13.716 0.969417
12 1 2 0.115888 18.266 7.37578 13.9447
13 1 2 0.11589 25.3934 11.4908 8.12521
14 1 2 0.11589 11.1386 9.60096 6.7889
15 1 2 0.115888 11.1386 11.4908 8.12521
16 1 2 0.115888 25.3934 9.60096 6.7889
17 1 2 0.115889 15.5206 8.96083 0.969417
18 1 2 0.115889 21.0114 12.1309 13.9447
19 1 2 0.115888 22.648 13.0758 12.6084
20 1 2 0.115888 13.884 8.01592 2.30572
21 1 2 0.115889 21.0114 3.90092 8.12521
22 1 2 0.115889 15.5206 17.1908 6.7889
23 1 2 0.115887 13.884 16.2459 8.12521
24 1 2 0.115887 22.648 4.84583 6.7889
25 1 2 0.115889 22.648 16.2459 8.12521
26 1 2 0.115889 13.884 4.84583 6.7889
27 1 2 0.115887 15.5206 3.90092 8.12521
28 1 2 0.115887 21.0114 17.1908 6.7889
29 1 2 0.115889 21.0114 8.96083 0.969417
30 1 2 0.115889 15.5206 12.1309 13.9447
31 1 2 0.115887 13.884 13.0758 12.6084
32 1 2 0.115887 22.648 8.01592 2.30572
33 1 3 0.671939 27.399 18.7442 13.2542
34 1 3 0.671939 9.13299 2.34751 1.65994
35 1 3 0.671939 27.399 12.8934 9.117
36 1 3 0.671939 9.13299 8.19836 5.79712
37 1 3 0.67194 24.8655 14.3561 13.2542
38 1 3 0.67194 11.6665 6.73565 1.65994
39 1 3 0.67194 29.9325 17.2815 9.117
40 1 3 0.67194 6.5995 3.81022 5.79712
41 1 3 0.67194 24.8655 17.2815 9.117
42 1 3 0.67194 11.6665 3.81022 5.79712
43 1 3 0.67194 29.9325 14.3561 13.2542
44 1 3 0.67194 6.5995 6.73565 1.65994
45 1 3 -0.11508 27.399 19.957 14.1117
46 1 3 -0.11508 9.13299 1.13474 0.802379
47 1 3 -0.11508 27.399 11.6806 8.25944
48 1 3 -0.11508 9.13299 9.41113 6.65468
49 1 3 -0.11508 23.8152 13.7497 14.1117
50 1 3 -0.11508 12.7168 7.34203 0.802379
51 1 3 -0.11508 30.9828 17.8879 8.25944
52 1 3 -0.11508 5.54921 3.20384 6.65468
53 1 3 -0.11508 23.8152 17.8879 8.25944
54 1 3 -0.11508 12.7168 3.20384 6.65468
55 1 3 -0.11508 30.9828 13.7497 14.1117
56 1 3 -0.11508 5.54921 7.34203 0.802379
57 1 3 -0.0559 18.266 5.39949 13.5316
58 1 3 -0.0559 18.266 15.6923 1.38254
59 1 3 -0.055903 18.266 14.5575 0.580159
60 1 3 -0.055903 18.266 6.53422 14.334
61 1 3 -0.0559 26.1971 11.1132 7.85825
62 1 3 -0.0559 10.3349 9.9785 7.05587
63 1 3 -0.055903 10.3349 11.1132 7.85825
64 1 3 -0.055903 26.1971 9.9785 7.05587
65 1 3 -0.0559 14.7918 8.54005 0.580159
66 1 3 -0.0559 21.7402 12.5517 14.334
67 1 3 -0.055903 22.7229 13.1191 13.5316
68 1 3 -0.055903 13.8091 7.97268 1.38254
69 1 3 -0.0559 21.7402 3.39366 7.85825
70 1 3 -0.0559 14.7918 17.6981 7.05587
71 1 3 -0.055903 13.8091 17.1307 7.85825
72 1 3 -0.055903 22.7229 3.96103 7.05587
73 1 3 -0.055901 22.7229 17.1307 7.85825
74 1 3 -0.055901 13.8091 3.96103 7.05587
75 1 3 -0.055903 14.7918 3.39366 7.85825
76 1 3 -0.055903 21.7402 17.6981 7.05587
77 1 3 -0.0559 21.7402 8.54005 0.580159
78 1 3 -0.0559 14.7918 12.5517 14.334
79 1 3 -0.055903 13.8091 13.1191 13.5316
80 1 3 -0.055903 22.7229 7.97268 1.38254
81 1 4 -1.26215 27.399 15.8188 11.1856
82 1 4 -1.26215 9.13299 5.27293 3.72853
83 1 4 -0.60118 27.399 18.9383 11.9641
84 1 4 -0.60118 9.13299 2.15347 2.95001
85 1 4 -0.601179 27.399 17.5926 13.8671
86 1 4 -0.601179 9.13299 3.49912 1.04697
87 1 4 -0.601179 26.2336 13.3722 9.45555
88 1 4 -0.601179 10.2984 7.71958 5.45857
89 1 4 -0.60118 28.5643 13.3722 9.45555
90 1 4 -0.60118 7.96762 7.71958 5.45857
91 1 4 -0.60118 25.8628 14.9319 13.8671
92 1 4 -0.60118 10.6692 6.15984 1.04697
93 1 4 -0.601179 24.6974 14.2591 11.9641
94 1 4 -0.601179 11.8345 6.83267 2.95001
95 1 4 -0.60118 28.9351 18.0514 9.45555
96 1 4 -0.60118 7.59682 3.04037 5.45857
97 1 4 -0.601179 30.1005 16.0329 9.45555
98 1 4 -0.601179 6.43145 5.05885 5.45857
99 1 4 -0.601179 24.6974 16.0329 9.45555
100 1 4 -0.601179 11.8345 5.05885 5.45857
101 1 4 -0.60118 25.8628 18.0514 9.45555
102 1 4 -0.60118 10.6692 3.04037 5.45857
103 1 4 -0.60118 28.9351 14.9319 13.8671
104 1 4 -0.60118 7.59682 6.15984 1.04697
105 1 4 -0.60118 30.1005 14.2591 11.9641
106 1 4 -0.60118 6.43145 6.83267 2.95001
ITEM: TIMESTEP
78000
ITEM: NUMBER OF ATOMS
109
ITEM: BOX BOUNDS xy xz yz pp pp pp
0.0000000000000000e+00 3.6531964750000000e+01 9.1329911900000003e+00
0.0000000000000000e+00 2.1091739680000000e+01 9.1329911900000003e+00
0.0000000000000000e+00 1.4914112149999999e+01 5.2729349200000000e+00
ITEM: ATOMS id mol type q x y z
1 1 1 1.10383 27.399 17.6496 10.5383
2 1 1 1.10383 9.13299 3.44217 4.3758
3 1 1 1.10383 27.399 15.8188 13.1274
4 1 1 1.10383 9.13299 5.27293 1.78671
5 1 1 1.10383 25.8135 14.9034 10.5383
6 1 1 1.10383 10.7185 6.18832 4.3758
7 1 1 1.10383 28.9845 14.9034 10.5383
8 1 1 1.10383 7.5475 6.18832 4.3758
9 1 2 0.115889 18.266 5.48596 12.6084
10 1 2 0.115889 18.266 15.6058 2.30572
11 1 2 0.115888 18.266 13.716 0.969417
12 1 2 0.115888 18.266 7.37578 13.9447
13 1 2 0.11589 25.3934 11.4908 8.12521
14 1 2 0.11589 11.1386 9.60096 6.7889
15 1 2 0.115888 11.1386 11.4908 8.12521
16 1 2 0.115888 25.3934 9.60096 6.7889
17 1 2 0.115889 15.5206 8.96083 0.969417
18 1 2 0.115889 21.0114 12.1309 13.9447
19 1 2 0.115888 22.648 13.0758 12.6084
20 1 2 0.115888 13.884 8.01592 2.30572
21 1 2 0.115889 21.0114 3.90092 8.12521
22 1 2 0.115889 15.5206 17.1908 6.7889
23 1 2 0.115887 13.884 16.2459 8.12521
24 1 2 0.115887 22.648 4.84583 6.7889
25 1 2 0.115889 22.648 16.2459 8.12521
26 1 2 0.115889 13.884 4.84583 6.7889
27 1 2 0.115887 15.5206 3.90092 8.12521
28 1 2 0.115887 21.0114 17.1908 6.7889
29 1 2 0.115889 21.0114 8.96083 0.969417
30 1 2 0.115889 15.5206 12.1309 13.9447
31 1 2 0.115887 13.884 13.0758 12.6084
32 1 2 0.115887 22.648 8.01592 2.30572
33 1 3 0.671939 27.399 18.7442 13.2542
34 1 3 0.671939 9.13299 2.34751 1.65994
35 1 3 0.671939 27.399 12.8934 9.117
36 1 3 0.671939 9.13299 8.19836 5.79712
37 1 3 0.67194 24.8655 14.3561 13.2542
38 1 3 0.67194 11.6665 6.73565 1.65994
39 1 3 0.67194 29.9325 17.2815 9.117
40 1 3 0.67194 6.5995 3.81022 5.79712
41 1 3 0.67194 24.8655 17.2815 9.117
42 1 3 0.67194 11.6665 3.81022 5.79712
43 1 3 0.67194 29.9325 14.3561 13.2542
44 1 3 0.67194 6.5995 6.73565 1.65994
45 1 3 -0.11508 27.399 19.957 14.1117
46 1 3 -0.11508 9.13299 1.13474 0.802379
47 1 3 -0.11508 27.399 11.6806 8.25944
48 1 3 -0.11508 9.13299 9.41113 6.65468
49 1 3 -0.11508 23.8152 13.7497 14.1117
50 1 3 -0.11508 12.7168 7.34203 0.802379
51 1 3 -0.11508 30.9828 17.8879 8.25944
52 1 3 -0.11508 5.54921 3.20384 6.65468
53 1 3 -0.11508 23.8152 17.8879 8.25944
54 1 3 -0.11508 12.7168 3.20384 6.65468
55 1 3 -0.11508 30.9828 13.7497 14.1117
56 1 3 -0.11508 5.54921 7.34203 0.802379
57 1 3 -0.0559 18.266 5.39949 13.5316
58 1 3 -0.0559 18.266 15.6923 1.38254
59 1 3 -0.055903 18.266 14.5575 0.580159
60 1 3 -0.055903 18.266 6.53422 14.334
61 1 3 -0.0559 26.1971 11.1132 7.85825
62 1 3 -0.0559 10.3349 9.9785 7.05587
63 1 3 -0.055903 10.3349 11.1132 7.85825
64 1 3 -0.055903 26.1971 9.9785 7.05587
65 1 3 -0.0559 14.7918 8.54005 0.580159
66 1 3 -0.0559 21.7402 12.5517 14.334
67 1 3 -0.055903 22.7229 13.1191 13.5316
68 1 3 -0.055903 13.8091 7.97268 1.38254
69 1 3 -0.0559 21.7402 3.39366 7.85825
70 1 3 -0.0559 14.7918 17.6981 7.05587
71 1 3 -0.055903 13.8091 17.1307 7.85825
72 1 3 -0.055903 22.7229 3.96103 7.05587
73 1 3 -0.055901 22.7229 17.1307 7.85825
74 1 3 -0.055901 13.8091 3.96103 7.05587
75 1 3 -0.055903 14.7918 3.39366 7.85825
76 1 3 -0.055903 21.7402 17.6981 7.05587
77 1 3 -0.0559 21.7402 8.54005 0.580159
78 1 3 -0.0559 14.7918 12.5517 14.334
79 1 3 -0.055903 13.8091 13.1191 13.5316
80 1 3 -0.055903 22.7229 7.97268 1.38254
81 1 4 -1.26215 27.399 15.8188 11.1856
82 1 4 -1.26215 9.13299 5.27293 3.72853
83 1 4 -0.60118 27.399 18.9383 11.9641
84 1 4 -0.60118 9.13299 2.15347 2.95001
85 1 4 -0.601179 27.399 17.5926 13.8671
86 1 4 -0.601179 9.13299 3.49912 1.04697
87 1 4 -0.601179 26.2336 13.3722 9.45555
88 1 4 -0.601179 10.2984 7.71958 5.45857
89 1 4 -0.60118 28.5643 13.3722 9.45555
90 1 4 -0.60118 7.96762 7.71958 5.45857
91 1 4 -0.60118 25.8628 14.9319 13.8671
92 1 4 -0.60118 10.6692 6.15984 1.04697
93 1 4 -0.601179 24.6974 14.2591 11.9641
94 1 4 -0.601179 11.8345 6.83267 2.95001
95 1 4 -0.60118 28.9351 18.0514 9.45555
96 1 4 -0.60118 7.59682 3.04037 5.45857
97 1 4 -0.601179 30.1005 16.0329 9.45555
98 1 4 -0.601179 6.43145 5.05885 5.45857
99 1 4 -0.601179 24.6974 16.0329 9.45555
100 1 4 -0.601179 11.8345 5.05885 5.45857
101 1 4 -0.60118 25.8628 18.0514 9.45555
102 1 4 -0.60118 10.6692 3.04037 5.45857
103 1 4 -0.60118 28.9351 14.9319 13.8671
104 1 4 -0.60118 7.59682 6.15984 1.04697
105 1 4 -0.60118 30.1005 14.2591 11.9641
106 1 4 -0.60118 6.43145 6.83267 2.95001
107 2 5 -0.35 17.7582 3.85193 6.23565
108 2 6 0.7 17.9728 2.77035 6.59583
109 2 5 -0.35 27.3203 17.5076 6.956
ITEM: TIMESTEP
79000
ITEM: NUMBER OF ATOMS
106
ITEM: BOX BOUNDS xy xz yz pp pp pp
0.0000000000000000e+00 3.6531964750000000e+01 9.1329911900000003e+00
0.0000000000000000e+00 2.1091739680000000e+01 9.1329911900000003e+00
0.0000000000000000e+00 1.4914112149999999e+01 5.2729349200000000e+00
ITEM: ATOMS id mol type q x y z
1 1 1 1.10383 27.399 17.6496 10.5383
2 1 1 1.10383 9.13299 3.44217 4.3758
3 1 1 1.10383 27.399 15.8188 13.1274
4 1 1 1.10383 9.13299 5.27293 1.78671
5 1 1 1.10383 25.8135 14.9034 10.5383
6 1 1 1.10383 10.7185 6.18832 4.3758
7 1 1 1.10383 28.9845 14.9034 10.5383
8 1 1 1.10383 7.5475 6.18832 4.3758
9 1 2 0.115889 18.266 5.48596 12.6084
10 1 2 0.115889 18.266 15.6058 2.30572
11 1 2 0.115888 18.266 13.716 0.969417
12 1 2 0.115888 18.266 7.37578 13.9447
13 1 2 0.11589 25.3934 11.4908 8.12521
14 1 2 0.11589 11.1386 9.60096 6.7889
15 1 2 0.115888 11.1386 11.4908 8.12521
16 1 2 0.115888 25.3934 9.60096 6.7889
17 1 2 0.115889 15.5206 8.96083 0.969417
18 1 2 0.115889 21.0114 12.1309 13.9447
19 1 2 0.115888 22.648 13.0758 12.6084
20 1 2 0.115888 13.884 8.01592 2.30572
21 1 2 0.115889 21.0114 3.90092 8.12521
22 1 2 0.115889 15.5206 17.1908 6.7889
23 1 2 0.115887 13.884 16.2459 8.12521
24 1 2 0.115887 22.648 4.84583 6.7889
25 1 2 0.115889 22.648 16.2459 8.12521
26 1 2 0.115889 13.884 4.84583 6.7889
27 1 2 0.115887 15.5206 3.90092 8.12521
28 1 2 0.115887 21.0114 17.1908 6.7889
29 1 2 0.115889 21.0114 8.96083 0.969417
30 1 2 0.115889 15.5206 12.1309 13.9447
31 1 2 0.115887 13.884 13.0758 12.6084
32 1 2 0.115887 22.648 8.01592 2.30572
33 1 3 0.671939 27.399 18.7442 13.2542
34 1 3 0.671939 9.13299 2.34751 1.65994
35 1 3 0.671939 27.399 12.8934 9.117
36 1 3 0.671939 9.13299 8.19836 5.79712
37 1 3 0.67194 24.8655 14.3561 13.2542
38 1 3 0.67194 11.6665 6.73565 1.65994
39 1 3 0.67194 29.9325 17.2815 9.117
40 1 3 0.67194 6.5995 3.81022 5.79712
41 1 3 0.67194 24.8655 17.2815 9.117
42 1 3 0.67194 11.6665 3.81022 5.79712
43 1 3 0.67194 29.9325 14.3561 13.2542
44 1 3 0.67194 6.5995 6.73565 1.65994
45 1 3 -0.11508 27.399 19.957 14.1117
46 1 3 -0.11508 9.13299 1.13474 0.802379
47 1 3 -0.11508 27.399 11.6806 8.25944
48 1 3 -0.11508 9.13299 9.41113 6.65468
49 1 3 -0.11508 23.8152 13.7497 14.1117
50 1 3 -0.11508 12.7168 7.34203 0.802379
51 1 3 -0.11508 30.9828 17.8879 8.25944
52 1 3 -0.11508 5.54921 3.20384 6.65468
53 1 3 -0.11508 23.8152 17.8879 8.25944
54 1 3 -0.11508 12.7168 3.20384 6.65468
55 1 3 -0.11508 30.9828 13.7497 14.1117
56 1 3 -0.11508 5.54921 7.34203 0.802379
57 1 3 -0.0559 18.266 5.39949 13.5316
58 1 3 -0.0559 18.266 15.6923 1.38254
59 1 3 -0.055903 18.266 14.5575 0.580159
60 1 3 -0.055903 18.266 6.53422 14.334
61 1 3 -0.0559 26.1971 11.1132 7.85825
62 1 3 -0.0559 10.3349 9.9785 7.05587
63 1 3 -0.055903 10.3349 11.1132 7.85825
64 1 3 -0.055903 26.1971 9.9785 7.05587
65 1 3 -0.0559 14.7918 8.54005 0.580159
66 1 3 -0.0559 21.7402 12.5517 14.334
67 1 3 -0.055903 22.7229 13.1191 13.5316
68 1 3 -0.055903 13.8091 7.97268 1.38254
69 1 3 -0.0559 21.7402 3.39366 7.85825
70 1 3 -0.0559 14.7918 17.6981 7.05587
71 1 3 -0.055903 13.8091 17.1307 7.85825
72 1 3 -0.055903 22.7229 3.96103 7.05587
73 1 3 -0.055901 22.7229 17.1307 7.85825
74 1 3 -0.055901 13.8091 3.96103 7.05587
75 1 3 -0.055903 14.7918 3.39366 7.85825
76 1 3 -0.055903 21.7402 17.6981 7.05587
77 1 3 -0.0559 21.7402 8.54005 0.580159
78 1 3 -0.0559 14.7918 12.5517 14.334
79 1 3 -0.055903 13.8091 13.1191 13.5316
80 1 3 -0.055903 22.7229 7.97268 1.38254
81 1 4 -1.26215 27.399 15.8188 11.1856
82 1 4 -1.26215 9.13299 5.27293 3.72853
83 1 4 -0.60118 27.399 18.9383 11.9641
84 1 4 -0.60118 9.13299 2.15347 2.95001
85 1 4 -0.601179 27.399 17.5926 13.8671
86 1 4 -0.601179 9.13299 3.49912 1.04697
87 1 4 -0.601179 26.2336 13.3722 9.45555
88 1 4 -0.601179 10.2984 7.71958 5.45857
89 1 4 -0.60118 28.5643 13.3722 9.45555
90 1 4 -0.60118 7.96762 7.71958 5.45857
91 1 4 -0.60118 25.8628 14.9319 13.8671
92 1 4 -0.60118 10.6692 6.15984 1.04697
93 1 4 -0.601179 24.6974 14.2591 11.9641
94 1 4 -0.601179 11.8345 6.83267 2.95001
95 1 4 -0.60118 28.9351 18.0514 9.45555
96 1 4 -0.60118 7.59682 3.04037 5.45857
97 1 4 -0.601179 30.1005 16.0329 9.45555
98 1 4 -0.601179 6.43145 5.05885 5.45857
99 1 4 -0.601179 24.6974 16.0329 9.45555
100 1 4 -0.601179 11.8345 5.05885 5.45857
101 1 4 -0.60118 25.8628 18.0514 9.45555
102 1 4 -0.60118 10.6692 3.04037 5.45857
103 1 4 -0.60118 28.9351 14.9319 13.8671
104 1 4 -0.60118 7.59682 6.15984 1.04697
105 1 4 -0.60118 30.1005 14.2591 11.9641
106 1 4 -0.60118 6.43145 6.83267 2.95001
ITEM: TIMESTEP
80000
ITEM: NUMBER OF ATOMS
112
ITEM: BOX BOUNDS xy xz yz pp pp pp
0.0000000000000000e+00 3.6531964750000000e+01 9.1329911900000003e+00
0.0000000000000000e+00 2.1091739680000000e+01 9.1329911900000003e+00
0.0000000000000000e+00 1.4914112149999999e+01 5.2729349200000000e+00
ITEM: ATOMS id mol type q x y z
1 1 1 1.10383 27.399 17.6496 10.5383
2 1 1 1.10383 9.13299 3.44217 4.3758
3 1 1 1.10383 27.399 15.8188 13.1274
4 1 1 1.10383 9.13299 5.27293 1.78671
5 1 1 1.10383 25.8135 14.9034 10.5383
6 1 1 1.10383 10.7185 6.18832 4.3758
7 1 1 1.10383 28.9845 14.9034 10.5383
8 1 1 1.10383 7.5475 6.18832 4.3758
9 1 2 0.115889 18.266 5.48596 12.6084
10 1 2 0.115889 18.266 15.6058 2.30572
11 1 2 0.115888 18.266 13.716 0.969417
12 1 2 0.115888 18.266 7.37578 13.9447
13 1 2 0.11589 25.3934 11.4908 8.12521
14 1 2 0.11589 11.1386 9.60096 6.7889
15 1 2 0.115888 11.1386 11.4908 8.12521
16 1 2 0.115888 25.3934 9.60096 6.7889
17 1 2 0.115889 15.5206 8.96083 0.969417
18 1 2 0.115889 21.0114 12.1309 13.9447
19 1 2 0.115888 22.648 13.0758 12.6084
20 1 2 0.115888 13.884 8.01592 2.30572
21 1 2 0.115889 21.0114 3.90092 8.12521
22 1 2 0.115889 15.5206 17.1908 6.7889
23 1 2 0.115887 13.884 16.2459 8.12521
24 1 2 0.115887 22.648 4.84583 6.7889
25 1 2 0.115889 22.648 16.2459 8.12521
26 1 2 0.115889 13.884 4.84583 6.7889
27 1 2 0.115887 15.5206 3.90092 8.12521
28 1 2 0.115887 21.0114 17.1908 6.7889
29 1 2 0.115889 21.0114 8.96083 0.969417
30 1 2 0.115889 15.5206 12.1309 13.9447
31 1 2 0.115887 13.884 13.0758 12.6084
32 1 2 0.115887 22.648 8.01592 2.30572
33 1 3 0.671939 27.399 18.7442 13.2542
34 1 3 0.671939 9.13299 2.34751 1.65994
35 1 3 0.671939 27.399 12.8934 9.117
36 1 3 0.671939 9.13299 8.19836 5.79712
37 1 3 0.67194 24.8655 14.3561 13.2542
38 1 3 0.67194 11.6665 6.73565 1.65994
39 1 3 0.67194 29.9325 17.2815 9.117
40 1 3 0.67194 6.5995 3.81022 5.79712
41 1 3 0.67194 24.8655 17.2815 9.117
42 1 3 0.67194 11.6665 3.81022 5.79712
43 1 3 0.67194 29.9325 14.3561 13.2542
44 1 3 0.67194 6.5995 6.73565 1.65994
45 1 3 -0.11508 27.399 19.957 14.1117
46 1 3 -0.11508 9.13299 1.13474 0.802379
47 1 3 -0.11508 27.399 11.6806 8.25944
48 1 3 -0.11508 9.13299 9.41113 6.65468
49 1 3 -0.11508 23.8152 13.7497 14.1117
50 1 3 -0.11508 12.7168 7.34203 0.802379
51 1 3 -0.11508 30.9828 17.8879 8.25944
52 1 3 -0.11508 5.54921 3.20384 6.65468
53 1 3 -0.11508 23.8152 17.8879 8.25944
54 1 3 -0.11508 12.7168 3.20384 6.65468
55 1 3 -0.11508 30.9828 13.7497 14.1117
56 1 3 -0.11508 5.54921 7.34203 0.802379
57 1 3 -0.0559 18.266 5.39949 13.5316
58 1 3 -0.0559 18.266 15.6923 1.38254
59 1 3 -0.055903 18.266 14.5575 0.580159
60 1 3 -0.055903 18.266 6.53422 14.334
61 1 3 -0.0559 26.1971 11.1132 7.85825
62 1 3 -0.0559 10.3349 9.9785 7.05587
63 1 3 -0.055903 10.3349 11.1132 7.85825
64 1 3 -0.055903 26.1971 9.9785 7.05587
65 1 3 -0.0559 14.7918 8.54005 0.580159
66 1 3 -0.0559 21.7402 12.5517 14.334
67 1 3 -0.055903 22.7229 13.1191 13.5316
68 1 3 -0.055903 13.8091 7.97268 1.38254
69 1 3 -0.0559 21.7402 3.39366 7.85825
70 1 3 -0.0559 14.7918 17.6981 7.05587
71 1 3 -0.055903 13.8091 17.1307 7.85825
72 1 3 -0.055903 22.7229 3.96103 7.05587
73 1 3 -0.055901 22.7229 17.1307 7.85825
74 1 3 -0.055901 13.8091 3.96103 7.05587
75 1 3 -0.055903 14.7918 3.39366 7.85825
76 1 3 -0.055903 21.7402 17.6981 7.05587
77 1 3 -0.0559 21.7402 8.54005 0.580159
78 1 3 -0.0559 14.7918 12.5517 14.334
79 1 3 -0.055903 13.8091 13.1191 13.5316
80 1 3 -0.055903 22.7229 7.97268 1.38254
81 1 4 -1.26215 27.399 15.8188 11.1856
82 1 4 -1.26215 9.13299 5.27293 3.72853
83 1 4 -0.60118 27.399 18.9383 11.9641
84 1 4 -0.60118 9.13299 2.15347 2.95001
85 1 4 -0.601179 27.399 17.5926 13.8671
86 1 4 -0.601179 9.13299 3.49912 1.04697
87 1 4 -0.601179 26.2336 13.3722 9.45555
88 1 4 -0.601179 10.2984 7.71958 5.45857
89 1 4 -0.60118 28.5643 13.3722 9.45555
90 1 4 -0.60118 7.96762 7.71958 5.45857
91 1 4 -0.60118 25.8628 14.9319 13.8671
92 1 4 -0.60118 10.6692 6.15984 1.04697
93 1 4 -0.601179 24.6974 14.2591 11.9641
94 1 4 -0.601179 11.8345 6.83267 2.95001
95 1 4 -0.60118 28.9351 18.0514 9.45555
96 1 4 -0.60118 7.59682 3.04037 5.45857
97 1 4 -0.601179 30.1005 16.0329 9.45555
98 1 4 -0.601179 6.43145 5.05885 5.45857
99 1 4 -0.601179 24.6974 16.0329 9.45555
100 1 4 -0.601179 11.8345 5.05885 5.45857
101 1 4 -0.60118 25.8628 18.0514 9.45555
102 1 4 -0.60118 10.6692 3.04037 5.45857
103 1 4 -0.60118 28.9351 14.9319 13.8671
104 1 4 -0.60118 7.59682 6.15984 1.04697
105 1 4 -0.60118 30.1005 14.2591 11.9641
106 1 4 -0.60118 6.43145 6.83267 2.95001
110 3 5 -0.35 25.7235 11.4425 12.516
111 3 6 0.7 25.3637 10.7445 11.6622
112 3 5 -0.35 25.004 10.0464 10.8085
113 4 5 -0.35 19.7686 12.6618 9.88677
114 4 6 0.7 19.0191 12.7942 10.7622
115 4 5 -0.35 18.2697 12.9265 11.6376
ITEM: TIMESTEP
81000
ITEM: NUMBER OF ATOMS
106
ITEM: BOX BOUNDS xy xz yz pp pp pp
0.0000000000000000e+00 3.6531964750000000e+01 9.1329911900000003e+00
0.0000000000000000e+00 2.1091739680000000e+01 9.1329911900000003e+00
0.0000000000000000e+00 1.4914112149999999e+01 5.2729349200000000e+00
ITEM: ATOMS id mol type q x y z
1 1 1 1.10383 27.399 17.6496 10.5383
2 1 1 1.10383 9.13299 3.44217 4.3758
3 1 1 1.10383 27.399 15.8188 13.1274
4 1 1 1.10383 9.13299 5.27293 1.78671
5 1 1 1.10383 25.8135 14.9034 10.5383
6 1 1 1.10383 10.7185 6.18832 4.3758
7 1 1 1.10383 28.9845 14.9034 10.5383
8 1 1 1.10383 7.5475 6.18832 4.3758
9 1 2 0.115889 18.266 5.48596 12.6084
10 1 2 0.115889 18.266 15.6058 2.30572
11 1 2 0.115888 18.266 13.716 0.969417
12 1 2 0.115888 18.266 7.37578 13.9447
13 1 2 0.11589 25.3934 11.4908 8.12521
14 1 2 0.11589 11.1386 9.60096 6.7889
15 1 2 0.115888 11.1386 11.4908 8.12521
16 1 2 0.115888 25.3934 9.60096 6.7889
17 1 2 0.115889 15.5206 8.96083 0.969417
18 1 2 0.115889 21.0114 12.1309 13.9447
19 1 2 0.115888 22.648 13.0758 12.6084
20 1 2 0.115888 13.884 8.01592 2.30572
21 1 2 0.115889 21.0114 3.90092 8.12521
22 1 2 0.115889 15.5206 17.1908 6.7889
23 1 2 0.115887 13.884 16.2459 8.12521
24 1 2 0.115887 22.648 4.84583 6.7889
25 1 2 0.115889 22.648 16.2459 8.12521
26 1 2 0.115889 13.884 4.84583 6.7889
27 1 2 0.115887 15.5206 3.90092 8.12521
28 1 2 0.115887 21.0114 17.1908 6.7889
29 1 2 0.115889 21.0114 8.96083 0.969417
30 1 2 0.115889 15.5206 12.1309 13.9447
31 1 2 0.115887 13.884 13.0758 12.6084
32 1 2 0.115887 22.648 8.01592 2.30572
33 1 3 0.671939 27.399 18.7442 13.2542
34 1 3 0.671939 9.13299 2.34751 1.65994
35 1 3 0.671939 27.399 12.8934 9.117
36 1 3 0.671939 9.13299 8.19836 5.79712
37 1 3 0.67194 24.8655 14.3561 13.2542
38 1 3 0.67194 11.6665 6.73565 1.65994
39 1 3 0.67194 29.9325 17.2815 9.117
40 1 3 0.67194 6.5995 3.81022 5.79712
41 1 3 0.67194 24.8655 17.2815 9.117
42 1 3 0.67194 11.6665 3.81022 5.79712
43 1 3 0.67194 29.9325 14.3561 13.2542
44 1 3 0.67194 6.5995 6.73565 1.65994
45 1 3 -0.11508 27.399 19.957 14.1117
46 1 3 -0.11508 9.13299 1.13474 0.802379
47 1 3 -0.11508 27.399 11.6806 8.25944
48 1 3 -0.11508 9.13299 9.41113 6.65468
49 1 3 -0.11508 23.8152 13.7497 14.1117
50 1 3 -0.11508 12.7168 7.34203 0.802379
51 1 3 -0.11508 30.9828 17.8879 8.25944
52 1 3 -0.11508 5.54921 3.20384 6.65468
53 1 3 -0.11508 23.8152 17.8879 8.25944
54 1 3 -0.11508 12.7168 3.20384 6.65468
55 1 3 -0.11508 30.9828 13.7497 14.1117
56 1 3 -0.11508 5.54921 7.34203 0.802379
57 1 3 -0.0559 18.266 5.39949 13.5316
58 1 3 -0.0559 18.266 15.6923 1.38254
59 1 3 -0.055903 18.266 14.5575 0.580159
60 1 3 -0.055903 18.266 6.53422 14.334
61 1 3 -0.0559 26.1971 11.1132 7.85825
62 1 3 -0.0559 10.3349 9.9785 7.05587
63 1 3 -0.055903 10.3349 11.1132 7.85825
64 1 3 -0.055903 26.1971 9.9785 7.05587
65 1 3 -0.0559 14.7918 8.54005 0.580159
66 1 3 -0.0559 21.7402 12.5517 14.334
67 1 3 -0.055903 22.7229 13.1191 13.5316
68 1 3 -0.055903 13.8091 7.97268 1.38254
69 1 3 -0.0559 21.7402 3.39366 7.85825
70 1 3 -0.0559 14.7918 17.6981 7.05587
71 1 3 -0.055903 13.8091 17.1307 7.85825
72 1 3 -0.055903 22.7229 3.96103 7.05587
73 1 3 -0.055901 22.7229 17.1307 7.85825
74 1 3 -0.055901 13.8091 3.96103 7.05587
75 1 3 -0.055903 14.7918 3.39366 7.85825
76 1 3 -0.055903 21.7402 17.6981 7.05587
77 1 3 -0.0559 21.7402 8.54005 0.580159
78 1 3 -0.0559 14.7918 12.5517 14.334
79 1 3 -0.055903 13.8091 13.1191 13.5316
80 1 3 -0.055903 22.7229 7.97268 1.38254
81 1 4 -1.26215 27.399 15.8188 11.1856
82 1 4 -1.26215 9.13299 5.27293 3.72853
83 1 4 -0.60118 27.399 18.9383 11.9641
84 1 4 -0.60118 9.13299 2.15347 2.95001
85 1 4 -0.601179 27.399 17.5926 13.8671
86 1 4 -0.601179 9.13299 3.49912 1.04697
87 1 4 -0.601179 26.2336 13.3722 9.45555
88 1 4 -0.601179 10.2984 7.71958 5.45857
89 1 4 -0.60118 28.5643 13.3722 9.45555
90 1 4 -0.60118 7.96762 7.71958 5.45857
91 1 4 -0.60118 25.8628 14.9319 13.8671
92 1 4 -0.60118 10.6692 6.15984 1.04697
93 1 4 -0.601179 24.6974 14.2591 11.9641
94 1 4 -0.601179 11.8345 6.83267 2.95001
95 1 4 -0.60118 28.9351 18.0514 9.45555
96 1 4 -0.60118 7.59682 3.04037 5.45857
97 1 4 -0.601179 30.1005 16.0329 9.45555
98 1 4 -0.601179 6.43145 5.05885 5.45857
99 1 4 -0.601179 24.6974 16.0329 9.45555
100 1 4 -0.601179 11.8345 5.05885 5.45857
101 1 4 -0.60118 25.8628 18.0514 9.45555
102 1 4 -0.60118 10.6692 3.04037 5.45857
103 1 4 -0.60118 28.9351 14.9319 13.8671
104 1 4 -0.60118 7.59682 6.15984 1.04697
105 1 4 -0.60118 30.1005 14.2591 11.9641
106 1 4 -0.60118 6.43145 6.83267 2.95001
ITEM: TIMESTEP
82000
ITEM: NUMBER OF ATOMS
106
ITEM: BOX BOUNDS xy xz yz pp pp pp
0.0000000000000000e+00 3.6531964750000000e+01 9.1329911900000003e+00
0.0000000000000000e+00 2.1091739680000000e+01 9.1329911900000003e+00
0.0000000000000000e+00 1.4914112149999999e+01 5.2729349200000000e+00
ITEM: ATOMS id mol type q x y z
1 1 1 1.10383 27.399 17.6496 10.5383
2 1 1 1.10383 9.13299 3.44217 4.3758
3 1 1 1.10383 27.399 15.8188 13.1274
4 1 1 1.10383 9.13299 5.27293 1.78671
5 1 1 1.10383 25.8135 14.9034 10.5383
6 1 1 1.10383 10.7185 6.18832 4.3758
7 1 1 1.10383 28.9845 14.9034 10.5383
8 1 1 1.10383 7.5475 6.18832 4.3758
9 1 2 0.115889 18.266 5.48596 12.6084
10 1 2 0.115889 18.266 15.6058 2.30572
11 1 2 0.115888 18.266 13.716 0.969417
12 1 2 0.115888 18.266 7.37578 13.9447
13 1 2 0.11589 25.3934 11.4908 8.12521
14 1 2 0.11589 11.1386 9.60096 6.7889
15 1 2 0.115888 11.1386 11.4908 8.12521
16 1 2 0.115888 25.3934 9.60096 6.7889
17 1 2 0.115889 15.5206 8.96083 0.969417
18 1 2 0.115889 21.0114 12.1309 13.9447
19 1 2 0.115888 22.648 13.0758 12.6084
20 1 2 0.115888 13.884 8.01592 2.30572
21 1 2 0.115889 21.0114 3.90092 8.12521
22 1 2 0.115889 15.5206 17.1908 6.7889
23 1 2 0.115887 13.884 16.2459 8.12521
24 1 2 0.115887 22.648 4.84583 6.7889
25 1 2 0.115889 22.648 16.2459 8.12521
26 1 2 0.115889 13.884 4.84583 6.7889
27 1 2 0.115887 15.5206 3.90092 8.12521
28 1 2 0.115887 21.0114 17.1908 6.7889
29 1 2 0.115889 21.0114 8.96083 0.969417
30 1 2 0.115889 15.5206 12.1309 13.9447
31 1 2 0.115887 13.884 13.0758 12.6084
32 1 2 0.115887 22.648 8.01592 2.30572
33 1 3 0.671939 27.399 18.7442 13.2542
34 1 3 0.671939 9.13299 2.34751 1.65994
35 1 3 0.671939 27.399 12.8934 9.117
36 1 3 0.671939 9.13299 8.19836 5.79712
37 1 3 0.67194 24.8655 14.3561 13.2542
38 1 3 0.67194 11.6665 6.73565 1.65994
39 1 3 0.67194 29.9325 17.2815 9.117
40 1 3 0.67194 6.5995 3.81022 5.79712
41 1 3 0.67194 24.8655 17.2815 9.117
42 1 3 0.67194 11.6665 3.81022 5.79712
43 1 3 0.67194 29.9325 14.3561 13.2542
44 1 3 0.67194 6.5995 6.73565 1.65994
45 1 3 -0.11508 27.399 19.957 14.1117
46 1 3 -0.11508 9.13299 1.13474 0.802379
47 1 3 -0.11508 27.399 11.6806 8.25944
48 1 3 -0.11508 9.13299 9.41113 6.65468
49 1 3 -0.11508 23.8152 13.7497 14.1117
50 1 3 -0.11508 12.7168 7.34203 0.802379
51 1 3 -0.11508 30.9828 17.8879 8.25944
52 1 3 -0.11508 5.54921 3.20384 6.65468
53 1 3 -0.11508 23.8152 17.8879 8.25944
54 1 3 -0.11508 12.7168 3.20384 6.65468
55 1 3 -0.11508 30.9828 13.7497 14.1117
56 1 3 -0.11508 5.54921 7.34203 0.802379
57 1 3 -0.0559 18.266 5.39949 13.5316
58 1 3 -0.0559 18.266 15.6923 1.38254
59 1 3 -0.055903 18.266 14.5575 0.580159
60 1 3 -0.055903 18.266 6.53422 14.334
61 1 3 -0.0559 26.1971 11.1132 7.85825
62 1 3 -0.0559 10.3349 9.9785 7.05587
63 1 3 -0.055903 10.3349 11.1132 7.85825
64 1 3 -0.055903 26.1971 9.9785 7.05587
65 1 3 -0.0559 14.7918 8.54005 0.580159
66 1 3 -0.0559 21.7402 12.5517 14.334
67 1 3 -0.055903 22.7229 13.1191 13.5316
68 1 3 -0.055903 13.8091 7.97268 1.38254
69 1 3 -0.0559 21.7402 3.39366 7.85825
70 1 3 -0.0559 14.7918 17.6981 7.05587
71 1 3 -0.055903 13.8091 17.1307 7.85825
72 1 3 -0.055903 22.7229 3.96103 7.05587
73 1 3 -0.055901 22.7229 17.1307 7.85825
74 1 3 -0.055901 13.8091 3.96103 7.05587
75 1 3 -0.055903 14.7918 3.39366 7.85825
76 1 3 -0.055903 21.7402 17.6981 7.05587
77 1 3 -0.0559 21.7402 8.54005 0.580159
78 1 3 -0.0559 14.7918 12.5517 14.334
79 1 3 -0.055903 13.8091 13.1191 13.5316
80 1 3 -0.055903 22.7229 7.97268 1.38254
81 1 4 -1.26215 27.399 15.8188 11.1856
82 1 4 -1.26215 9.13299 5.27293 3.72853
83 1 4 -0.60118 27.399 18.9383 11.9641
84 1 4 -0.60118 9.13299 2.15347 2.95001
85 1 4 -0.601179 27.399 17.5926 13.8671
86 1 4 -0.601179 9.13299 3.49912 1.04697
87 1 4 -0.601179 26.2336 13.3722 9.45555
88 1 4 -0.601179 10.2984 7.71958 5.45857
89 1 4 -0.60118 28.5643 13.3722 9.45555
90 1 4 -0.60118 7.96762 7.71958 5.45857
91 1 4 -0.60118 25.8628 14.9319 13.8671
92 1 4 -0.60118 10.6692 6.15984 1.04697
93 1 4 -0.601179 24.6974 14.2591 11.9641
94 1 4 -0.601179 11.8345 6.83267 2.95001
95 1 4 -0.60118 28.9351 18.0514 9.45555
96 1 4 -0.60118 7.59682 3.04037 5.45857
97 1 4 -0.601179 30.1005 16.0329 9.45555
98 1 4 -0.601179 6.43145 5.05885 5.45857
99 1 4 -0.601179 24.6974 16.0329 9.45555
100 1 4 -0.601179 11.8345 5.05885 5.45857
101 1 4 -0.60118 25.8628 18.0514 9.45555
102 1 4 -0.60118 10.6692 3.04037 5.45857
103 1 4 -0.60118 28.9351 14.9319 13.8671
104 1 4 -0.60118 7.59682 6.15984 1.04697
105 1 4 -0.60118 30.1005 14.2591 11.9641
106 1 4 -0.60118 6.43145 6.83267 2.95001
ITEM: TIMESTEP
83000
ITEM: NUMBER OF ATOMS
106
ITEM: BOX BOUNDS xy xz yz pp pp pp
0.0000000000000000e+00 3.6531964750000000e+01 9.1329911900000003e+00
0.0000000000000000e+00 2.1091739680000000e+01 9.1329911900000003e+00
0.0000000000000000e+00 1.4914112149999999e+01 5.2729349200000000e+00
ITEM: ATOMS id mol type q x y z
1 1 1 1.10383 27.399 17.6496 10.5383
2 1 1 1.10383 9.13299 3.44217 4.3758
3 1 1 1.10383 27.399 15.8188 13.1274
4 1 1 1.10383 9.13299 5.27293 1.78671
5 1 1 1.10383 25.8135 14.9034 10.5383
6 1 1 1.10383 10.7185 6.18832 4.3758
7 1 1 1.10383 28.9845 14.9034 10.5383
8 1 1 1.10383 7.5475 6.18832 4.3758
9 1 2 0.115889 18.266 5.48596 12.6084
10 1 2 0.115889 18.266 15.6058 2.30572
11 1 2 0.115888 18.266 13.716 0.969417
12 1 2 0.115888 18.266 7.37578 13.9447
13 1 2 0.11589 25.3934 11.4908 8.12521
14 1 2 0.11589 11.1386 9.60096 6.7889
15 1 2 0.115888 11.1386 11.4908 8.12521
16 1 2 0.115888 25.3934 9.60096 6.7889
17 1 2 0.115889 15.5206 8.96083 0.969417
18 1 2 0.115889 21.0114 12.1309 13.9447
19 1 2 0.115888 22.648 13.0758 12.6084
20 1 2 0.115888 13.884 8.01592 2.30572
21 1 2 0.115889 21.0114 3.90092 8.12521
22 1 2 0.115889 15.5206 17.1908 6.7889
23 1 2 0.115887 13.884 16.2459 8.12521
24 1 2 0.115887 22.648 4.84583 6.7889
25 1 2 0.115889 22.648 16.2459 8.12521
26 1 2 0.115889 13.884 4.84583 6.7889
27 1 2 0.115887 15.5206 3.90092 8.12521
28 1 2 0.115887 21.0114 17.1908 6.7889
29 1 2 0.115889 21.0114 8.96083 0.969417
30 1 2 0.115889 15.5206 12.1309 13.9447
31 1 2 0.115887 13.884 13.0758 12.6084
32 1 2 0.115887 22.648 8.01592 2.30572
33 1 3 0.671939 27.399 18.7442 13.2542
34 1 3 0.671939 9.13299 2.34751 1.65994
35 1 3 0.671939 27.399 12.8934 9.117
36 1 3 0.671939 9.13299 8.19836 5.79712
37 1 3 0.67194 24.8655 14.3561 13.2542
38 1 3 0.67194 11.6665 6.73565 1.65994
39 1 3 0.67194 29.9325 17.2815 9.117
40 1 3 0.67194 6.5995 3.81022 5.79712
41 1 3 0.67194 24.8655 17.2815 9.117
42 1 3 0.67194 11.6665 3.81022 5.79712
43 1 3 0.67194 29.9325 14.3561 13.2542
44 1 3 0.67194 6.5995 6.73565 1.65994
45 1 3 -0.11508 27.399 19.957 14.1117
46 1 3 -0.11508 9.13299 1.13474 0.802379
47 1 3 -0.11508 27.399 11.6806 8.25944
48 1 3 -0.11508 9.13299 9.41113 6.65468
49 1 3 -0.11508 23.8152 13.7497 14.1117
50 1 3 -0.11508 12.7168 7.34203 0.802379
51 1 3 -0.11508 30.9828 17.8879 8.25944
52 1 3 -0.11508 5.54921 3.20384 6.65468
53 1 3 -0.11508 23.8152 17.8879 8.25944
54 1 3 -0.11508 12.7168 3.20384 6.65468
55 1 3 -0.11508 30.9828 13.7497 14.1117
56 1 3 -0.11508 5.54921 7.34203 0.802379
57 1 3 -0.0559 18.266 5.39949 13.5316
58 1 3 -0.0559 18.266 15.6923 1.38254
59 1 3 -0.055903 18.266 14.5575 0.580159
60 1 3 -0.055903 18.266 6.53422 14.334
61 1 3 -0.0559 26.1971 11.1132 7.85825
62 1 3 -0.0559 10.3349 9.9785 7.05587
63 1 3 -0.055903 10.3349 11.1132 7.85825
64 1 3 -0.055903 26.1971 9.9785 7.05587
65 1 3 -0.0559 14.7918 8.54005 0.580159
66 1 3 -0.0559 21.7402 12.5517 14.334
67 1 3 -0.055903 22.7229 13.1191 13.5316
68 1 3 -0.055903 13.8091 7.97268 1.38254
69 1 3 -0.0559 21.7402 3.39366 7.85825
70 1 3 -0.0559 14.7918 17.6981 7.05587
71 1 3 -0.055903 13.8091 17.1307 7.85825
72 1 3 -0.055903 22.7229 3.96103 7.05587
73 1 3 -0.055901 22.7229 17.1307 7.85825
74 1 3 -0.055901 13.8091 3.96103 7.05587
75 1 3 -0.055903 14.7918 3.39366 7.85825
76 1 3 -0.055903 21.7402 17.6981 7.05587
77 1 3 -0.0559 21.7402 8.54005 0.580159
78 1 3 -0.0559 14.7918 12.5517 14.334
79 1 3 -0.055903 13.8091 13.1191 13.5316
80 1 3 -0.055903 22.7229 7.97268 1.38254
81 1 4 -1.26215 27.399 15.8188 11.1856
82 1 4 -1.26215 9.13299 5.27293 3.72853
83 1 4 -0.60118 27.399 18.9383 11.9641
84 1 4 -0.60118 9.13299 2.15347 2.95001
85 1 4 -0.601179 27.399 17.5926 13.8671
86 1 4 -0.601179 9.13299 3.49912 1.04697
87 1 4 -0.601179 26.2336 13.3722 9.45555
88 1 4 -0.601179 10.2984 7.71958 5.45857
89 1 4 -0.60118 28.5643 13.3722 9.45555
90 1 4 -0.60118 7.96762 7.71958 5.45857
91 1 4 -0.60118 25.8628 14.9319 13.8671
92 1 4 -0.60118 10.6692 6.15984 1.04697
93 1 4 -0.601179 24.6974 14.2591 11.9641
94 1 4 -0.601179 11.8345 6.83267 2.95001
95 1 4 -0.60118 28.9351 18.0514 9.45555
96 1 4 -0.60118 7.59682 3.04037 5.45857
97 1 4 -0.601179 30.1005 16.0329 9.45555
98 1 4 -0.601179 6.43145 5.05885 5.45857
99 1 4 -0.601179 24.6974 16.0329 9.45555
100 1 4 -0.601179 11.8345 5.05885 5.45857
101 1 4 -0.60118 25.8628 18.0514 9.45555
102 1 4 -0.60118 10.6692 3.04037 5.45857
103 1 4 -0.60118 28.9351 14.9319 13.8671
104 1 4 -0.60118 7.59682 6.15984 1.04697
105 1 4 -0.60118 30.1005 14.2591 11.9641
106 1 4 -0.60118 6.43145 6.83267 2.95001
ITEM: TIMESTEP
84000
ITEM: NUMBER OF ATOMS
106
ITEM: BOX BOUNDS xy xz yz pp pp pp
0.0000000000000000e+00 3.6531964750000000e+01 9.1329911900000003e+00
0.0000000000000000e+00 2.1091739680000000e+01 9.1329911900000003e+00
0.0000000000000000e+00 1.4914112149999999e+01 5.2729349200000000e+00
ITEM: ATOMS id mol type q x y z
1 1 1 1.10383 27.399 17.6496 10.5383
2 1 1 1.10383 9.13299 3.44217 4.3758
3 1 1 1.10383 27.399 15.8188 13.1274
4 1 1 1.10383 9.13299 5.27293 1.78671
5 1 1 1.10383 25.8135 14.9034 10.5383
6 1 1 1.10383 10.7185 6.18832 4.3758
7 1 1 1.10383 28.9845 14.9034 10.5383
8 1 1 1.10383 7.5475 6.18832 4.3758
9 1 2 0.115889 18.266 5.48596 12.6084
10 1 2 0.115889 18.266 15.6058 2.30572
11 1 2 0.115888 18.266 13.716 0.969417
12 1 2 0.115888 18.266 7.37578 13.9447
13 1 2 0.11589 25.3934 11.4908 8.12521
14 1 2 0.11589 11.1386 9.60096 6.7889
15 1 2 0.115888 11.1386 11.4908 8.12521
16 1 2 0.115888 25.3934 9.60096 6.7889
17 1 2 0.115889 15.5206 8.96083 0.969417
18 1 2 0.115889 21.0114 12.1309 13.9447
19 1 2 0.115888 22.648 13.0758 12.6084
20 1 2 0.115888 13.884 8.01592 2.30572
21 1 2 0.115889 21.0114 3.90092 8.12521
22 1 2 0.115889 15.5206 17.1908 6.7889
23 1 2 0.115887 13.884 16.2459 8.12521
24 1 2 0.115887 22.648 4.84583 6.7889
25 1 2 0.115889 22.648 16.2459 8.12521
26 1 2 0.115889 13.884 4.84583 6.7889
27 1 2 0.115887 15.5206 3.90092 8.12521
28 1 2 0.115887 21.0114 17.1908 6.7889
29 1 2 0.115889 21.0114 8.96083 0.969417
30 1 2 0.115889 15.5206 12.1309 13.9447
31 1 2 0.115887 13.884 13.0758 12.6084
32 1 2 0.115887 22.648 8.01592 2.30572
33 1 3 0.671939 27.399 18.7442 13.2542
34 1 3 0.671939 9.13299 2.34751 1.65994
35 1 3 0.671939 27.399 12.8934 9.117
36 1 3 0.671939 9.13299 8.19836 5.79712
37 1 3 0.67194 24.8655 14.3561 13.2542
38 1 3 0.67194 11.6665 6.73565 1.65994
39 1 3 0.67194 29.9325 17.2815 9.117
40 1 3 0.67194 6.5995 3.81022 5.79712
41 1 3 0.67194 24.8655 17.2815 9.117
42 1 3 0.67194 11.6665 3.81022 5.79712
43 1 3 0.67194 29.9325 14.3561 13.2542
44 1 3 0.67194 6.5995 6.73565 1.65994
45 1 3 -0.11508 27.399 19.957 14.1117
46 1 3 -0.11508 9.13299 1.13474 0.802379
47 1 3 -0.11508 27.399 11.6806 8.25944
48 1 3 -0.11508 9.13299 9.41113 6.65468
49 1 3 -0.11508 23.8152 13.7497 14.1117
50 1 3 -0.11508 12.7168 7.34203 0.802379
51 1 3 -0.11508 30.9828 17.8879 8.25944
52 1 3 -0.11508 5.54921 3.20384 6.65468
53 1 3 -0.11508 23.8152 17.8879 8.25944
54 1 3 -0.11508 12.7168 3.20384 6.65468
55 1 3 -0.11508 30.9828 13.7497 14.1117
56 1 3 -0.11508 5.54921 7.34203 0.802379
57 1 3 -0.0559 18.266 5.39949 13.5316
58 1 3 -0.0559 18.266 15.6923 1.38254
59 1 3 -0.055903 18.266 14.5575 0.580159
60 1 3 -0.055903 18.266 6.53422 14.334
61 1 3 -0.0559 26.1971 11.1132 7.85825
62 1 3 -0.0559 10.3349 9.9785 7.05587
63 1 3 -0.055903 10.3349 11.1132 7.85825
64 1 3 -0.055903 26.1971 9.9785 7.05587
65 1 3 -0.0559 14.7918 8.54005 0.580159
66 1 3 -0.0559 21.7402 12.5517 14.334
67 1 3 -0.055903 22.7229 13.1191 13.5316
68 1 3 -0.055903 13.8091 7.97268 1.38254
69 1 3 -0.0559 21.7402 3.39366 7.85825
70 1 3 -0.0559 14.7918 17.6981 7.05587
71 1 3 -0.055903 13.8091 17.1307 7.85825
72 1 3 -0.055903 22.7229 3.96103 7.05587
73 1 3 -0.055901 22.7229 17.1307 7.85825
74 1 3 -0.055901 13.8091 3.96103 7.05587
75 1 3 -0.055903 14.7918 3.39366 7.85825
76 1 3 -0.055903 21.7402 17.6981 7.05587
77 1 3 -0.0559 21.7402 8.54005 0.580159
78 1 3 -0.0559 14.7918 12.5517 14.334
79 1 3 -0.055903 13.8091 13.1191 13.5316
80 1 3 -0.055903 22.7229 7.97268 1.38254
81 1 4 -1.26215 27.399 15.8188 11.1856
82 1 4 -1.26215 9.13299 5.27293 3.72853
83 1 4 -0.60118 27.399 18.9383 11.9641
84 1 4 -0.60118 9.13299 2.15347 2.95001
85 1 4 -0.601179 27.399 17.5926 13.8671
86 1 4 -0.601179 9.13299 3.49912 1.04697
87 1 4 -0.601179 26.2336 13.3722 9.45555
88 1 4 -0.601179 10.2984 7.71958 5.45857
89 1 4 -0.60118 28.5643 13.3722 9.45555
90 1 4 -0.60118 7.96762 7.71958 5.45857
91 1 4 -0.60118 25.8628 14.9319 13.8671
92 1 4 -0.60118 10.6692 6.15984 1.04697
93 1 4 -0.601179 24.6974 14.2591 11.9641
94 1 4 -0.601179 11.8345 6.83267 2.95001
95 1 4 -0.60118 28.9351 18.0514 9.45555
96 1 4 -0.60118 7.59682 3.04037 5.45857
97 1 4 -0.601179 30.1005 16.0329 9.45555
98 1 4 -0.601179 6.43145 5.05885 5.45857
99 1 4 -0.601179 24.6974 16.0329 9.45555
100 1 4 -0.601179 11.8345 5.05885 5.45857
101 1 4 -0.60118 25.8628 18.0514 9.45555
102 1 4 -0.60118 10.6692 3.04037 5.45857
103 1 4 -0.60118 28.9351 14.9319 13.8671
104 1 4 -0.60118 7.59682 6.15984 1.04697
105 1 4 -0.60118 30.1005 14.2591 11.9641
106 1 4 -0.60118 6.43145 6.83267 2.95001
ITEM: TIMESTEP
85000
ITEM: NUMBER OF ATOMS
109
ITEM: BOX BOUNDS xy xz yz pp pp pp
0.0000000000000000e+00 3.6531964750000000e+01 9.1329911900000003e+00
0.0000000000000000e+00 2.1091739680000000e+01 9.1329911900000003e+00
0.0000000000000000e+00 1.4914112149999999e+01 5.2729349200000000e+00
ITEM: ATOMS id mol type q x y z
1 1 1 1.10383 27.399 17.6496 10.5383
2 1 1 1.10383 9.13299 3.44217 4.3758
3 1 1 1.10383 27.399 15.8188 13.1274
4 1 1 1.10383 9.13299 5.27293 1.78671
5 1 1 1.10383 25.8135 14.9034 10.5383
6 1 1 1.10383 10.7185 6.18832 4.3758
7 1 1 1.10383 28.9845 14.9034 10.5383
8 1 1 1.10383 7.5475 6.18832 4.3758
9 1 2 0.115889 18.266 5.48596 12.6084
10 1 2 0.115889 18.266 15.6058 2.30572
11 1 2 0.115888 18.266 13.716 0.969417
12 1 2 0.115888 18.266 7.37578 13.9447
13 1 2 0.11589 25.3934 11.4908 8.12521
14 1 2 0.11589 11.1386 9.60096 6.7889
15 1 2 0.115888 11.1386 11.4908 8.12521
16 1 2 0.115888 25.3934 9.60096 6.7889
17 1 2 0.115889 15.5206 8.96083 0.969417
18 1 2 0.115889 21.0114 12.1309 13.9447
19 1 2 0.115888 22.648 13.0758 12.6084
20 1 2 0.115888 13.884 8.01592 2.30572
21 1 2 0.115889 21.0114 3.90092 8.12521
22 1 2 0.115889 15.5206 17.1908 6.7889
23 1 2 0.115887 13.884 16.2459 8.12521
24 1 2 0.115887 22.648 4.84583 6.7889
25 1 2 0.115889 22.648 16.2459 8.12521
26 1 2 0.115889 13.884 4.84583 6.7889
27 1 2 0.115887 15.5206 3.90092 8.12521
28 1 2 0.115887 21.0114 17.1908 6.7889
29 1 2 0.115889 21.0114 8.96083 0.969417
30 1 2 0.115889 15.5206 12.1309 13.9447
31 1 2 0.115887 13.884 13.0758 12.6084
32 1 2 0.115887 22.648 8.01592 2.30572
33 1 3 0.671939 27.399 18.7442 13.2542
34 1 3 0.671939 9.13299 2.34751 1.65994
35 1 3 0.671939 27.399 12.8934 9.117
36 1 3 0.671939 9.13299 8.19836 5.79712
37 1 3 0.67194 24.8655 14.3561 13.2542
38 1 3 0.67194 11.6665 6.73565 1.65994
39 1 3 0.67194 29.9325 17.2815 9.117
40 1 3 0.67194 6.5995 3.81022 5.79712
41 1 3 0.67194 24.8655 17.2815 9.117
42 1 3 0.67194 11.6665 3.81022 5.79712
43 1 3 0.67194 29.9325 14.3561 13.2542
44 1 3 0.67194 6.5995 6.73565 1.65994
45 1 3 -0.11508 27.399 19.957 14.1117
46 1 3 -0.11508 9.13299 1.13474 0.802379
47 1 3 -0.11508 27.399 11.6806 8.25944
48 1 3 -0.11508 9.13299 9.41113 6.65468
49 1 3 -0.11508 23.8152 13.7497 14.1117
50 1 3 -0.11508 12.7168 7.34203 0.802379
51 1 3 -0.11508 30.9828 17.8879 8.25944
52 1 3 -0.11508 5.54921 3.20384 6.65468
53 1 3 -0.11508 23.8152 17.8879 8.25944
54 1 3 -0.11508 12.7168 3.20384 6.65468
55 1 3 -0.11508 30.9828 13.7497 14.1117
56 1 3 -0.11508 5.54921 7.34203 0.802379
57 1 3 -0.0559 18.266 5.39949 13.5316
58 1 3 -0.0559 18.266 15.6923 1.38254
59 1 3 -0.055903 18.266 14.5575 0.580159
60 1 3 -0.055903 18.266 6.53422 14.334
61 1 3 -0.0559 26.1971 11.1132 7.85825
62 1 3 -0.0559 10.3349 9.9785 7.05587
63 1 3 -0.055903 10.3349 11.1132 7.85825
64 1 3 -0.055903 26.1971 9.9785 7.05587
65 1 3 -0.0559 14.7918 8.54005 0.580159
66 1 3 -0.0559 21.7402 12.5517 14.334
67 1 3 -0.055903 22.7229 13.1191 13.5316
68 1 3 -0.055903 13.8091 7.97268 1.38254
69 1 3 -0.0559 21.7402 3.39366 7.85825
70 1 3 -0.0559 14.7918 17.6981 7.05587
71 1 3 -0.055903 13.8091 17.1307 7.85825
72 1 3 -0.055903 22.7229 3.96103 7.05587
73 1 3 -0.055901 22.7229 17.1307 7.85825
74 1 3 -0.055901 13.8091 3.96103 7.05587
75 1 3 -0.055903 14.7918 3.39366 7.85825
76 1 3 -0.055903 21.7402 17.6981 7.05587
77 1 3 -0.0559 21.7402 8.54005 0.580159
78 1 3 -0.0559 14.7918 12.5517 14.334
79 1 3 -0.055903 13.8091 13.1191 13.5316
80 1 3 -0.055903 22.7229 7.97268 1.38254
81 1 4 -1.26215 27.399 15.8188 11.1856
82 1 4 -1.26215 9.13299 5.27293 3.72853
83 1 4 -0.60118 27.399 18.9383 11.9641
84 1 4 -0.60118 9.13299 2.15347 2.95001
85 1 4 -0.601179 27.399 17.5926 13.8671
86 1 4 -0.601179 9.13299 3.49912 1.04697
87 1 4 -0.601179 26.2336 13.3722 9.45555
88 1 4 -0.601179 10.2984 7.71958 5.45857
89 1 4 -0.60118 28.5643 13.3722 9.45555
90 1 4 -0.60118 7.96762 7.71958 5.45857
91 1 4 -0.60118 25.8628 14.9319 13.8671
92 1 4 -0.60118 10.6692 6.15984 1.04697
93 1 4 -0.601179 24.6974 14.2591 11.9641
94 1 4 -0.601179 11.8345 6.83267 2.95001
95 1 4 -0.60118 28.9351 18.0514 9.45555
96 1 4 -0.60118 7.59682 3.04037 5.45857
97 1 4 -0.601179 30.1005 16.0329 9.45555
98 1 4 -0.601179 6.43145 5.05885 5.45857
99 1 4 -0.601179 24.6974 16.0329 9.45555
100 1 4 -0.601179 11.8345 5.05885 5.45857
101 1 4 -0.60118 25.8628 18.0514 9.45555
102 1 4 -0.60118 10.6692 3.04037 5.45857
103 1 4 -0.60118 28.9351 14.9319 13.8671
104 1 4 -0.60118 7.59682 6.15984 1.04697
105 1 4 -0.60118 30.1005 14.2591 11.9641
106 1 4 -0.60118 6.43145 6.83267 2.95001
107 2 5 -0.35 15.8983 6.90126 6.67571
108 2 6 0.7 16.1265 6.95769 5.53979
109 2 5 -0.35 16.3548 7.01413 4.40386
ITEM: TIMESTEP
86000
ITEM: NUMBER OF ATOMS
106
ITEM: BOX BOUNDS xy xz yz pp pp pp
0.0000000000000000e+00 3.6531964750000000e+01 9.1329911900000003e+00
0.0000000000000000e+00 2.1091739680000000e+01 9.1329911900000003e+00
0.0000000000000000e+00 1.4914112149999999e+01 5.2729349200000000e+00
ITEM: ATOMS id mol type q x y z
1 1 1 1.10383 27.399 17.6496 10.5383
2 1 1 1.10383 9.13299 3.44217 4.3758
3 1 1 1.10383 27.399 15.8188 13.1274
4 1 1 1.10383 9.13299 5.27293 1.78671
5 1 1 1.10383 25.8135 14.9034 10.5383
6 1 1 1.10383 10.7185 6.18832 4.3758
7 1 1 1.10383 28.9845 14.9034 10.5383
8 1 1 1.10383 7.5475 6.18832 4.3758
9 1 2 0.115889 18.266 5.48596 12.6084
10 1 2 0.115889 18.266 15.6058 2.30572
11 1 2 0.115888 18.266 13.716 0.969417
12 1 2 0.115888 18.266 7.37578 13.9447
13 1 2 0.11589 25.3934 11.4908 8.12521
14 1 2 0.11589 11.1386 9.60096 6.7889
15 1 2 0.115888 11.1386 11.4908 8.12521
16 1 2 0.115888 25.3934 9.60096 6.7889
17 1 2 0.115889 15.5206 8.96083 0.969417
18 1 2 0.115889 21.0114 12.1309 13.9447
19 1 2 0.115888 22.648 13.0758 12.6084
20 1 2 0.115888 13.884 8.01592 2.30572
21 1 2 0.115889 21.0114 3.90092 8.12521
22 1 2 0.115889 15.5206 17.1908 6.7889
23 1 2 0.115887 13.884 16.2459 8.12521
24 1 2 0.115887 22.648 4.84583 6.7889
25 1 2 0.115889 22.648 16.2459 8.12521
26 1 2 0.115889 13.884 4.84583 6.7889
27 1 2 0.115887 15.5206 3.90092 8.12521
28 1 2 0.115887 21.0114 17.1908 6.7889
29 1 2 0.115889 21.0114 8.96083 0.969417
30 1 2 0.115889 15.5206 12.1309 13.9447
31 1 2 0.115887 13.884 13.0758 12.6084
32 1 2 0.115887 22.648 8.01592 2.30572
33 1 3 0.671939 27.399 18.7442 13.2542
34 1 3 0.671939 9.13299 2.34751 1.65994
35 1 3 0.671939 27.399 12.8934 9.117
36 1 3 0.671939 9.13299 8.19836 5.79712
37 1 3 0.67194 24.8655 14.3561 13.2542
38 1 3 0.67194 11.6665 6.73565 1.65994
39 1 3 0.67194 29.9325 17.2815 9.117
40 1 3 0.67194 6.5995 3.81022 5.79712
41 1 3 0.67194 24.8655 17.2815 9.117
42 1 3 0.67194 11.6665 3.81022 5.79712
43 1 3 0.67194 29.9325 14.3561 13.2542
44 1 3 0.67194 6.5995 6.73565 1.65994
45 1 3 -0.11508 27.399 19.957 14.1117
46 1 3 -0.11508 9.13299 1.13474 0.802379
47 1 3 -0.11508 27.399 11.6806 8.25944
48 1 3 -0.11508 9.13299 9.41113 6.65468
49 1 3 -0.11508 23.8152 13.7497 14.1117
50 1 3 -0.11508 12.7168 7.34203 0.802379
51 1 3 -0.11508 30.9828 17.8879 8.25944
52 1 3 -0.11508 5.54921 3.20384 6.65468
53 1 3 -0.11508 23.8152 17.8879 8.25944
54 1 3 -0.11508 12.7168 3.20384 6.65468
55 1 3 -0.11508 30.9828 13.7497 14.1117
56 1 3 -0.11508 5.54921 7.34203 0.802379
57 1 3 -0.0559 18.266 5.39949 13.5316
58 1 3 -0.0559 18.266 15.6923 1.38254
59 1 3 -0.055903 18.266 14.5575 0.580159
60 1 3 -0.055903 18.266 6.53422 14.334
61 1 3 -0.0559 26.1971 11.1132 7.85825
62 1 3 -0.0559 10.3349 9.9785 7.05587
63 1 3 -0.055903 10.3349 11.1132 7.85825
64 1 3 -0.055903 26.1971 9.9785 7.05587
65 1 3 -0.0559 14.7918 8.54005 0.580159
66 1 3 -0.0559 21.7402 12.5517 14.334
67 1 3 -0.055903 22.7229 13.1191 13.5316
68 1 3 -0.055903 13.8091 7.97268 1.38254
69 1 3 -0.0559 21.7402 3.39366 7.85825
70 1 3 -0.0559 14.7918 17.6981 7.05587
71 1 3 -0.055903 13.8091 17.1307 7.85825
72 1 3 -0.055903 22.7229 3.96103 7.05587
73 1 3 -0.055901 22.7229 17.1307 7.85825
74 1 3 -0.055901 13.8091 3.96103 7.05587
75 1 3 -0.055903 14.7918 3.39366 7.85825
76 1 3 -0.055903 21.7402 17.6981 7.05587
77 1 3 -0.0559 21.7402 8.54005 0.580159
78 1 3 -0.0559 14.7918 12.5517 14.334
79 1 3 -0.055903 13.8091 13.1191 13.5316
80 1 3 -0.055903 22.7229 7.97268 1.38254
81 1 4 -1.26215 27.399 15.8188 11.1856
82 1 4 -1.26215 9.13299 5.27293 3.72853
83 1 4 -0.60118 27.399 18.9383 11.9641
84 1 4 -0.60118 9.13299 2.15347 2.95001
85 1 4 -0.601179 27.399 17.5926 13.8671
86 1 4 -0.601179 9.13299 3.49912 1.04697
87 1 4 -0.601179 26.2336 13.3722 9.45555
88 1 4 -0.601179 10.2984 7.71958 5.45857
89 1 4 -0.60118 28.5643 13.3722 9.45555
90 1 4 -0.60118 7.96762 7.71958 5.45857
91 1 4 -0.60118 25.8628 14.9319 13.8671
92 1 4 -0.60118 10.6692 6.15984 1.04697
93 1 4 -0.601179 24.6974 14.2591 11.9641
94 1 4 -0.601179 11.8345 6.83267 2.95001
95 1 4 -0.60118 28.9351 18.0514 9.45555
96 1 4 -0.60118 7.59682 3.04037 5.45857
97 1 4 -0.601179 30.1005 16.0329 9.45555
98 1 4 -0.601179 6.43145 5.05885 5.45857
99 1 4 -0.601179 24.6974 16.0329 9.45555
100 1 4 -0.601179 11.8345 5.05885 5.45857
101 1 4 -0.60118 25.8628 18.0514 9.45555
102 1 4 -0.60118 10.6692 3.04037 5.45857
103 1 4 -0.60118 28.9351 14.9319 13.8671
104 1 4 -0.60118 7.59682 6.15984 1.04697
105 1 4 -0.60118 30.1005 14.2591 11.9641
106 1 4 -0.60118 6.43145 6.83267 2.95001
ITEM: TIMESTEP
87000
ITEM: NUMBER OF ATOMS
106
ITEM: BOX BOUNDS xy xz yz pp pp pp
0.0000000000000000e+00 3.6531964750000000e+01 9.1329911900000003e+00
0.0000000000000000e+00 2.1091739680000000e+01 9.1329911900000003e+00
0.0000000000000000e+00 1.4914112149999999e+01 5.2729349200000000e+00
ITEM: ATOMS id mol type q x y z
1 1 1 1.10383 27.399 17.6496 10.5383
2 1 1 1.10383 9.13299 3.44217 4.3758
3 1 1 1.10383 27.399 15.8188 13.1274
4 1 1 1.10383 9.13299 5.27293 1.78671
5 1 1 1.10383 25.8135 14.9034 10.5383
6 1 1 1.10383 10.7185 6.18832 4.3758
7 1 1 1.10383 28.9845 14.9034 10.5383
8 1 1 1.10383 7.5475 6.18832 4.3758
9 1 2 0.115889 18.266 5.48596 12.6084
10 1 2 0.115889 18.266 15.6058 2.30572
11 1 2 0.115888 18.266 13.716 0.969417
12 1 2 0.115888 18.266 7.37578 13.9447
13 1 2 0.11589 25.3934 11.4908 8.12521
14 1 2 0.11589 11.1386 9.60096 6.7889
15 1 2 0.115888 11.1386 11.4908 8.12521
16 1 2 0.115888 25.3934 9.60096 6.7889
17 1 2 0.115889 15.5206 8.96083 0.969417
18 1 2 0.115889 21.0114 12.1309 13.9447
19 1 2 0.115888 22.648 13.0758 12.6084
20 1 2 0.115888 13.884 8.01592 2.30572
21 1 2 0.115889 21.0114 3.90092 8.12521
22 1 2 0.115889 15.5206 17.1908 6.7889
23 1 2 0.115887 13.884 16.2459 8.12521
24 1 2 0.115887 22.648 4.84583 6.7889
25 1 2 0.115889 22.648 16.2459 8.12521
26 1 2 0.115889 13.884 4.84583 6.7889
27 1 2 0.115887 15.5206 3.90092 8.12521
28 1 2 0.115887 21.0114 17.1908 6.7889
29 1 2 0.115889 21.0114 8.96083 0.969417
30 1 2 0.115889 15.5206 12.1309 13.9447
31 1 2 0.115887 13.884 13.0758 12.6084
32 1 2 0.115887 22.648 8.01592 2.30572
33 1 3 0.671939 27.399 18.7442 13.2542
34 1 3 0.671939 9.13299 2.34751 1.65994
35 1 3 0.671939 27.399 12.8934 9.117
36 1 3 0.671939 9.13299 8.19836 5.79712
37 1 3 0.67194 24.8655 14.3561 13.2542
38 1 3 0.67194 11.6665 6.73565 1.65994
39 1 3 0.67194 29.9325 17.2815 9.117
40 1 3 0.67194 6.5995 3.81022 5.79712
41 1 3 0.67194 24.8655 17.2815 9.117
42 1 3 0.67194 11.6665 3.81022 5.79712
43 1 3 0.67194 29.9325 14.3561 13.2542
44 1 3 0.67194 6.5995 6.73565 1.65994
45 1 3 -0.11508 27.399 19.957 14.1117
46 1 3 -0.11508 9.13299 1.13474 0.802379
47 1 3 -0.11508 27.399 11.6806 8.25944
48 1 3 -0.11508 9.13299 9.41113 6.65468
49 1 3 -0.11508 23.8152 13.7497 14.1117
50 1 3 -0.11508 12.7168 7.34203 0.802379
51 1 3 -0.11508 30.9828 17.8879 8.25944
52 1 3 -0.11508 5.54921 3.20384 6.65468
53 1 3 -0.11508 23.8152 17.8879 8.25944
54 1 3 -0.11508 12.7168 3.20384 6.65468
55 1 3 -0.11508 30.9828 13.7497 14.1117
56 1 3 -0.11508 5.54921 7.34203 0.802379
57 1 3 -0.0559 18.266 5.39949 13.5316
58 1 3 -0.0559 18.266 15.6923 1.38254
59 1 3 -0.055903 18.266 14.5575 0.580159
60 1 3 -0.055903 18.266 6.53422 14.334
61 1 3 -0.0559 26.1971 11.1132 7.85825
62 1 3 -0.0559 10.3349 9.9785 7.05587
63 1 3 -0.055903 10.3349 11.1132 7.85825
64 1 3 -0.055903 26.1971 9.9785 7.05587
65 1 3 -0.0559 14.7918 8.54005 0.580159
66 1 3 -0.0559 21.7402 12.5517 14.334
67 1 3 -0.055903 22.7229 13.1191 13.5316
68 1 3 -0.055903 13.8091 7.97268 1.38254
69 1 3 -0.0559 21.7402 3.39366 7.85825
70 1 3 -0.0559 14.7918 17.6981 7.05587
71 1 3 -0.055903 13.8091 17.1307 7.85825
72 1 3 -0.055903 22.7229 3.96103 7.05587
73 1 3 -0.055901 22.7229 17.1307 7.85825
74 1 3 -0.055901 13.8091 3.96103 7.05587
75 1 3 -0.055903 14.7918 3.39366 7.85825
76 1 3 -0.055903 21.7402 17.6981 7.05587
77 1 3 -0.0559 21.7402 8.54005 0.580159
78 1 3 -0.0559 14.7918 12.5517 14.334
79 1 3 -0.055903 13.8091 13.1191 13.5316
80 1 3 -0.055903 22.7229 7.97268 1.38254
81 1 4 -1.26215 27.399 15.8188 11.1856
82 1 4 -1.26215 9.13299 5.27293 3.72853
83 1 4 -0.60118 27.399 18.9383 11.9641
84 1 4 -0.60118 9.13299 2.15347 2.95001
85 1 4 -0.601179 27.399 17.5926 13.8671
86 1 4 -0.601179 9.13299 3.49912 1.04697
87 1 4 -0.601179 26.2336 13.3722 9.45555
88 1 4 -0.601179 10.2984 7.71958 5.45857
89 1 4 -0.60118 28.5643 13.3722 9.45555
90 1 4 -0.60118 7.96762 7.71958 5.45857
91 1 4 -0.60118 25.8628 14.9319 13.8671
92 1 4 -0.60118 10.6692 6.15984 1.04697
93 1 4 -0.601179 24.6974 14.2591 11.9641
94 1 4 -0.601179 11.8345 6.83267 2.95001
95 1 4 -0.60118 28.9351 18.0514 9.45555
96 1 4 -0.60118 7.59682 3.04037 5.45857
97 1 4 -0.601179 30.1005 16.0329 9.45555
98 1 4 -0.601179 6.43145 5.05885 5.45857
99 1 4 -0.601179 24.6974 16.0329 9.45555
100 1 4 -0.601179 11.8345 5.05885 5.45857
101 1 4 -0.60118 25.8628 18.0514 9.45555
102 1 4 -0.60118 10.6692 3.04037 5.45857
103 1 4 -0.60118 28.9351 14.9319 13.8671
104 1 4 -0.60118 7.59682 6.15984 1.04697
105 1 4 -0.60118 30.1005 14.2591 11.9641
106 1 4 -0.60118 6.43145 6.83267 2.95001
ITEM: TIMESTEP
88000
ITEM: NUMBER OF ATOMS
106
ITEM: BOX BOUNDS xy xz yz pp pp pp
0.0000000000000000e+00 3.6531964750000000e+01 9.1329911900000003e+00
0.0000000000000000e+00 2.1091739680000000e+01 9.1329911900000003e+00
0.0000000000000000e+00 1.4914112149999999e+01 5.2729349200000000e+00
ITEM: ATOMS id mol type q x y z
1 1 1 1.10383 27.399 17.6496 10.5383
2 1 1 1.10383 9.13299 3.44217 4.3758
3 1 1 1.10383 27.399 15.8188 13.1274
4 1 1 1.10383 9.13299 5.27293 1.78671
5 1 1 1.10383 25.8135 14.9034 10.5383
6 1 1 1.10383 10.7185 6.18832 4.3758
7 1 1 1.10383 28.9845 14.9034 10.5383
8 1 1 1.10383 7.5475 6.18832 4.3758
9 1 2 0.115889 18.266 5.48596 12.6084
10 1 2 0.115889 18.266 15.6058 2.30572
11 1 2 0.115888 18.266 13.716 0.969417
12 1 2 0.115888 18.266 7.37578 13.9447
13 1 2 0.11589 25.3934 11.4908 8.12521
14 1 2 0.11589 11.1386 9.60096 6.7889
15 1 2 0.115888 11.1386 11.4908 8.12521
16 1 2 0.115888 25.3934 9.60096 6.7889
17 1 2 0.115889 15.5206 8.96083 0.969417
18 1 2 0.115889 21.0114 12.1309 13.9447
19 1 2 0.115888 22.648 13.0758 12.6084
20 1 2 0.115888 13.884 8.01592 2.30572
21 1 2 0.115889 21.0114 3.90092 8.12521
22 1 2 0.115889 15.5206 17.1908 6.7889
23 1 2 0.115887 13.884 16.2459 8.12521
24 1 2 0.115887 22.648 4.84583 6.7889
25 1 2 0.115889 22.648 16.2459 8.12521
26 1 2 0.115889 13.884 4.84583 6.7889
27 1 2 0.115887 15.5206 3.90092 8.12521
28 1 2 0.115887 21.0114 17.1908 6.7889
29 1 2 0.115889 21.0114 8.96083 0.969417
30 1 2 0.115889 15.5206 12.1309 13.9447
31 1 2 0.115887 13.884 13.0758 12.6084
32 1 2 0.115887 22.648 8.01592 2.30572
33 1 3 0.671939 27.399 18.7442 13.2542
34 1 3 0.671939 9.13299 2.34751 1.65994
35 1 3 0.671939 27.399 12.8934 9.117
36 1 3 0.671939 9.13299 8.19836 5.79712
37 1 3 0.67194 24.8655 14.3561 13.2542
38 1 3 0.67194 11.6665 6.73565 1.65994
39 1 3 0.67194 29.9325 17.2815 9.117
40 1 3 0.67194 6.5995 3.81022 5.79712
41 1 3 0.67194 24.8655 17.2815 9.117
42 1 3 0.67194 11.6665 3.81022 5.79712
43 1 3 0.67194 29.9325 14.3561 13.2542
44 1 3 0.67194 6.5995 6.73565 1.65994
45 1 3 -0.11508 27.399 19.957 14.1117
46 1 3 -0.11508 9.13299 1.13474 0.802379
47 1 3 -0.11508 27.399 11.6806 8.25944
48 1 3 -0.11508 9.13299 9.41113 6.65468
49 1 3 -0.11508 23.8152 13.7497 14.1117
50 1 3 -0.11508 12.7168 7.34203 0.802379
51 1 3 -0.11508 30.9828 17.8879 8.25944
52 1 3 -0.11508 5.54921 3.20384 6.65468
53 1 3 -0.11508 23.8152 17.8879 8.25944
54 1 3 -0.11508 12.7168 3.20384 6.65468
55 1 3 -0.11508 30.9828 13.7497 14.1117
56 1 3 -0.11508 5.54921 7.34203 0.802379
57 1 3 -0.0559 18.266 5.39949 13.5316
58 1 3 -0.0559 18.266 15.6923 1.38254
59 1 3 -0.055903 18.266 14.5575 0.580159
60 1 3 -0.055903 18.266 6.53422 14.334
61 1 3 -0.0559 26.1971 11.1132 7.85825
62 1 3 -0.0559 10.3349 9.9785 7.05587
63 1 3 -0.055903 10.3349 11.1132 7.85825
64 1 3 -0.055903 26.1971 9.9785 7.05587
65 1 3 -0.0559 14.7918 8.54005 0.580159
66 1 3 -0.0559 21.7402 12.5517 14.334
67 1 3 -0.055903 22.7229 13.1191 13.5316
68 1 3 -0.055903 13.8091 7.97268 1.38254
69 1 3 -0.0559 21.7402 3.39366 7.85825
70 1 3 -0.0559 14.7918 17.6981 7.05587
71 1 3 -0.055903 13.8091 17.1307 7.85825
72 1 3 -0.055903 22.7229 3.96103 7.05587
73 1 3 -0.055901 22.7229 17.1307 7.85825
74 1 3 -0.055901 13.8091 3.96103 7.05587
75 1 3 -0.055903 14.7918 3.39366 7.85825
76 1 3 -0.055903 21.7402 17.6981 7.05587
77 1 3 -0.0559 21.7402 8.54005 0.580159
78 1 3 -0.0559 14.7918 12.5517 14.334
79 1 3 -0.055903 13.8091 13.1191 13.5316
80 1 3 -0.055903 22.7229 7.97268 1.38254
81 1 4 -1.26215 27.399 15.8188 11.1856
82 1 4 -1.26215 9.13299 5.27293 3.72853
83 1 4 -0.60118 27.399 18.9383 11.9641
84 1 4 -0.60118 9.13299 2.15347 2.95001
85 1 4 -0.601179 27.399 17.5926 13.8671
86 1 4 -0.601179 9.13299 3.49912 1.04697
87 1 4 -0.601179 26.2336 13.3722 9.45555
88 1 4 -0.601179 10.2984 7.71958 5.45857
89 1 4 -0.60118 28.5643 13.3722 9.45555
90 1 4 -0.60118 7.96762 7.71958 5.45857
91 1 4 -0.60118 25.8628 14.9319 13.8671
92 1 4 -0.60118 10.6692 6.15984 1.04697
93 1 4 -0.601179 24.6974 14.2591 11.9641
94 1 4 -0.601179 11.8345 6.83267 2.95001
95 1 4 -0.60118 28.9351 18.0514 9.45555
96 1 4 -0.60118 7.59682 3.04037 5.45857
97 1 4 -0.601179 30.1005 16.0329 9.45555
98 1 4 -0.601179 6.43145 5.05885 5.45857
99 1 4 -0.601179 24.6974 16.0329 9.45555
100 1 4 -0.601179 11.8345 5.05885 5.45857
101 1 4 -0.60118 25.8628 18.0514 9.45555
102 1 4 -0.60118 10.6692 3.04037 5.45857
103 1 4 -0.60118 28.9351 14.9319 13.8671
104 1 4 -0.60118 7.59682 6.15984 1.04697
105 1 4 -0.60118 30.1005 14.2591 11.9641
106 1 4 -0.60118 6.43145 6.83267 2.95001
ITEM: TIMESTEP
89000
ITEM: NUMBER OF ATOMS
106
ITEM: BOX BOUNDS xy xz yz pp pp pp
0.0000000000000000e+00 3.6531964750000000e+01 9.1329911900000003e+00
0.0000000000000000e+00 2.1091739680000000e+01 9.1329911900000003e+00
0.0000000000000000e+00 1.4914112149999999e+01 5.2729349200000000e+00
ITEM: ATOMS id mol type q x y z
1 1 1 1.10383 27.399 17.6496 10.5383
2 1 1 1.10383 9.13299 3.44217 4.3758
3 1 1 1.10383 27.399 15.8188 13.1274
4 1 1 1.10383 9.13299 5.27293 1.78671
5 1 1 1.10383 25.8135 14.9034 10.5383
6 1 1 1.10383 10.7185 6.18832 4.3758
7 1 1 1.10383 28.9845 14.9034 10.5383
8 1 1 1.10383 7.5475 6.18832 4.3758
9 1 2 0.115889 18.266 5.48596 12.6084
10 1 2 0.115889 18.266 15.6058 2.30572
11 1 2 0.115888 18.266 13.716 0.969417
12 1 2 0.115888 18.266 7.37578 13.9447
13 1 2 0.11589 25.3934 11.4908 8.12521
14 1 2 0.11589 11.1386 9.60096 6.7889
15 1 2 0.115888 11.1386 11.4908 8.12521
16 1 2 0.115888 25.3934 9.60096 6.7889
17 1 2 0.115889 15.5206 8.96083 0.969417
18 1 2 0.115889 21.0114 12.1309 13.9447
19 1 2 0.115888 22.648 13.0758 12.6084
20 1 2 0.115888 13.884 8.01592 2.30572
21 1 2 0.115889 21.0114 3.90092 8.12521
22 1 2 0.115889 15.5206 17.1908 6.7889
23 1 2 0.115887 13.884 16.2459 8.12521
24 1 2 0.115887 22.648 4.84583 6.7889
25 1 2 0.115889 22.648 16.2459 8.12521
26 1 2 0.115889 13.884 4.84583 6.7889
27 1 2 0.115887 15.5206 3.90092 8.12521
28 1 2 0.115887 21.0114 17.1908 6.7889
29 1 2 0.115889 21.0114 8.96083 0.969417
30 1 2 0.115889 15.5206 12.1309 13.9447
31 1 2 0.115887 13.884 13.0758 12.6084
32 1 2 0.115887 22.648 8.01592 2.30572
33 1 3 0.671939 27.399 18.7442 13.2542
34 1 3 0.671939 9.13299 2.34751 1.65994
35 1 3 0.671939 27.399 12.8934 9.117
36 1 3 0.671939 9.13299 8.19836 5.79712
37 1 3 0.67194 24.8655 14.3561 13.2542
38 1 3 0.67194 11.6665 6.73565 1.65994
39 1 3 0.67194 29.9325 17.2815 9.117
40 1 3 0.67194 6.5995 3.81022 5.79712
41 1 3 0.67194 24.8655 17.2815 9.117
42 1 3 0.67194 11.6665 3.81022 5.79712
43 1 3 0.67194 29.9325 14.3561 13.2542
44 1 3 0.67194 6.5995 6.73565 1.65994
45 1 3 -0.11508 27.399 19.957 14.1117
46 1 3 -0.11508 9.13299 1.13474 0.802379
47 1 3 -0.11508 27.399 11.6806 8.25944
48 1 3 -0.11508 9.13299 9.41113 6.65468
49 1 3 -0.11508 23.8152 13.7497 14.1117
50 1 3 -0.11508 12.7168 7.34203 0.802379
51 1 3 -0.11508 30.9828 17.8879 8.25944
52 1 3 -0.11508 5.54921 3.20384 6.65468
53 1 3 -0.11508 23.8152 17.8879 8.25944
54 1 3 -0.11508 12.7168 3.20384 6.65468
55 1 3 -0.11508 30.9828 13.7497 14.1117
56 1 3 -0.11508 5.54921 7.34203 0.802379
57 1 3 -0.0559 18.266 5.39949 13.5316
58 1 3 -0.0559 18.266 15.6923 1.38254
59 1 3 -0.055903 18.266 14.5575 0.580159
60 1 3 -0.055903 18.266 6.53422 14.334
61 1 3 -0.0559 26.1971 11.1132 7.85825
62 1 3 -0.0559 10.3349 9.9785 7.05587
63 1 3 -0.055903 10.3349 11.1132 7.85825
64 1 3 -0.055903 26.1971 9.9785 7.05587
65 1 3 -0.0559 14.7918 8.54005 0.580159
66 1 3 -0.0559 21.7402 12.5517 14.334
67 1 3 -0.055903 22.7229 13.1191 13.5316
68 1 3 -0.055903 13.8091 7.97268 1.38254
69 1 3 -0.0559 21.7402 3.39366 7.85825
70 1 3 -0.0559 14.7918 17.6981 7.05587
71 1 3 -0.055903 13.8091 17.1307 7.85825
72 1 3 -0.055903 22.7229 3.96103 7.05587
73 1 3 -0.055901 22.7229 17.1307 7.85825
74 1 3 -0.055901 13.8091 3.96103 7.05587
75 1 3 -0.055903 14.7918 3.39366 7.85825
76 1 3 -0.055903 21.7402 17.6981 7.05587
77 1 3 -0.0559 21.7402 8.54005 0.580159
78 1 3 -0.0559 14.7918 12.5517 14.334
79 1 3 -0.055903 13.8091 13.1191 13.5316
80 1 3 -0.055903 22.7229 7.97268 1.38254
81 1 4 -1.26215 27.399 15.8188 11.1856
82 1 4 -1.26215 9.13299 5.27293 3.72853
83 1 4 -0.60118 27.399 18.9383 11.9641
84 1 4 -0.60118 9.13299 2.15347 2.95001
85 1 4 -0.601179 27.399 17.5926 13.8671
86 1 4 -0.601179 9.13299 3.49912 1.04697
87 1 4 -0.601179 26.2336 13.3722 9.45555
88 1 4 -0.601179 10.2984 7.71958 5.45857
89 1 4 -0.60118 28.5643 13.3722 9.45555
90 1 4 -0.60118 7.96762 7.71958 5.45857
91 1 4 -0.60118 25.8628 14.9319 13.8671
92 1 4 -0.60118 10.6692 6.15984 1.04697
93 1 4 -0.601179 24.6974 14.2591 11.9641
94 1 4 -0.601179 11.8345 6.83267 2.95001
95 1 4 -0.60118 28.9351 18.0514 9.45555
96 1 4 -0.60118 7.59682 3.04037 5.45857
97 1 4 -0.601179 30.1005 16.0329 9.45555
98 1 4 -0.601179 6.43145 5.05885 5.45857
99 1 4 -0.601179 24.6974 16.0329 9.45555
100 1 4 -0.601179 11.8345 5.05885 5.45857
101 1 4 -0.60118 25.8628 18.0514 9.45555
102 1 4 -0.60118 10.6692 3.04037 5.45857
103 1 4 -0.60118 28.9351 14.9319 13.8671
104 1 4 -0.60118 7.59682 6.15984 1.04697
105 1 4 -0.60118 30.1005 14.2591 11.9641
106 1 4 -0.60118 6.43145 6.83267 2.95001
ITEM: TIMESTEP
90000
ITEM: NUMBER OF ATOMS
106
ITEM: BOX BOUNDS xy xz yz pp pp pp
0.0000000000000000e+00 3.6531964750000000e+01 9.1329911900000003e+00
0.0000000000000000e+00 2.1091739680000000e+01 9.1329911900000003e+00
0.0000000000000000e+00 1.4914112149999999e+01 5.2729349200000000e+00
ITEM: ATOMS id mol type q x y z
1 1 1 1.10383 27.399 17.6496 10.5383
2 1 1 1.10383 9.13299 3.44217 4.3758
3 1 1 1.10383 27.399 15.8188 13.1274
4 1 1 1.10383 9.13299 5.27293 1.78671
5 1 1 1.10383 25.8135 14.9034 10.5383
6 1 1 1.10383 10.7185 6.18832 4.3758
7 1 1 1.10383 28.9845 14.9034 10.5383
8 1 1 1.10383 7.5475 6.18832 4.3758
9 1 2 0.115889 18.266 5.48596 12.6084
10 1 2 0.115889 18.266 15.6058 2.30572
11 1 2 0.115888 18.266 13.716 0.969417
12 1 2 0.115888 18.266 7.37578 13.9447
13 1 2 0.11589 25.3934 11.4908 8.12521
14 1 2 0.11589 11.1386 9.60096 6.7889
15 1 2 0.115888 11.1386 11.4908 8.12521
16 1 2 0.115888 25.3934 9.60096 6.7889
17 1 2 0.115889 15.5206 8.96083 0.969417
18 1 2 0.115889 21.0114 12.1309 13.9447
19 1 2 0.115888 22.648 13.0758 12.6084
20 1 2 0.115888 13.884 8.01592 2.30572
21 1 2 0.115889 21.0114 3.90092 8.12521
22 1 2 0.115889 15.5206 17.1908 6.7889
23 1 2 0.115887 13.884 16.2459 8.12521
24 1 2 0.115887 22.648 4.84583 6.7889
25 1 2 0.115889 22.648 16.2459 8.12521
26 1 2 0.115889 13.884 4.84583 6.7889
27 1 2 0.115887 15.5206 3.90092 8.12521
28 1 2 0.115887 21.0114 17.1908 6.7889
29 1 2 0.115889 21.0114 8.96083 0.969417
30 1 2 0.115889 15.5206 12.1309 13.9447
31 1 2 0.115887 13.884 13.0758 12.6084
32 1 2 0.115887 22.648 8.01592 2.30572
33 1 3 0.671939 27.399 18.7442 13.2542
34 1 3 0.671939 9.13299 2.34751 1.65994
35 1 3 0.671939 27.399 12.8934 9.117
36 1 3 0.671939 9.13299 8.19836 5.79712
37 1 3 0.67194 24.8655 14.3561 13.2542
38 1 3 0.67194 11.6665 6.73565 1.65994
39 1 3 0.67194 29.9325 17.2815 9.117
40 1 3 0.67194 6.5995 3.81022 5.79712
41 1 3 0.67194 24.8655 17.2815 9.117
42 1 3 0.67194 11.6665 3.81022 5.79712
43 1 3 0.67194 29.9325 14.3561 13.2542
44 1 3 0.67194 6.5995 6.73565 1.65994
45 1 3 -0.11508 27.399 19.957 14.1117
46 1 3 -0.11508 9.13299 1.13474 0.802379
47 1 3 -0.11508 27.399 11.6806 8.25944
48 1 3 -0.11508 9.13299 9.41113 6.65468
49 1 3 -0.11508 23.8152 13.7497 14.1117
50 1 3 -0.11508 12.7168 7.34203 0.802379
51 1 3 -0.11508 30.9828 17.8879 8.25944
52 1 3 -0.11508 5.54921 3.20384 6.65468
53 1 3 -0.11508 23.8152 17.8879 8.25944
54 1 3 -0.11508 12.7168 3.20384 6.65468
55 1 3 -0.11508 30.9828 13.7497 14.1117
56 1 3 -0.11508 5.54921 7.34203 0.802379
57 1 3 -0.0559 18.266 5.39949 13.5316
58 1 3 -0.0559 18.266 15.6923 1.38254
59 1 3 -0.055903 18.266 14.5575 0.580159
60 1 3 -0.055903 18.266 6.53422 14.334
61 1 3 -0.0559 26.1971 11.1132 7.85825
62 1 3 -0.0559 10.3349 9.9785 7.05587
63 1 3 -0.055903 10.3349 11.1132 7.85825
64 1 3 -0.055903 26.1971 9.9785 7.05587
65 1 3 -0.0559 14.7918 8.54005 0.580159
66 1 3 -0.0559 21.7402 12.5517 14.334
67 1 3 -0.055903 22.7229 13.1191 13.5316
68 1 3 -0.055903 13.8091 7.97268 1.38254
69 1 3 -0.0559 21.7402 3.39366 7.85825
70 1 3 -0.0559 14.7918 17.6981 7.05587
71 1 3 -0.055903 13.8091 17.1307 7.85825
72 1 3 -0.055903 22.7229 3.96103 7.05587
73 1 3 -0.055901 22.7229 17.1307 7.85825
74 1 3 -0.055901 13.8091 3.96103 7.05587
75 1 3 -0.055903 14.7918 3.39366 7.85825
76 1 3 -0.055903 21.7402 17.6981 7.05587
77 1 3 -0.0559 21.7402 8.54005 0.580159
78 1 3 -0.0559 14.7918 12.5517 14.334
79 1 3 -0.055903 13.8091 13.1191 13.5316
80 1 3 -0.055903 22.7229 7.97268 1.38254
81 1 4 -1.26215 27.399 15.8188 11.1856
82 1 4 -1.26215 9.13299 5.27293 3.72853
83 1 4 -0.60118 27.399 18.9383 11.9641
84 1 4 -0.60118 9.13299 2.15347 2.95001
85 1 4 -0.601179 27.399 17.5926 13.8671
86 1 4 -0.601179 9.13299 3.49912 1.04697
87 1 4 -0.601179 26.2336 13.3722 9.45555
88 1 4 -0.601179 10.2984 7.71958 5.45857
89 1 4 -0.60118 28.5643 13.3722 9.45555
90 1 4 -0.60118 7.96762 7.71958 5.45857
91 1 4 -0.60118 25.8628 14.9319 13.8671
92 1 4 -0.60118 10.6692 6.15984 1.04697
93 1 4 -0.601179 24.6974 14.2591 11.9641
94 1 4 -0.601179 11.8345 6.83267 2.95001
95 1 4 -0.60118 28.9351 18.0514 9.45555
96 1 4 -0.60118 7.59682 3.04037 5.45857
97 1 4 -0.601179 30.1005 16.0329 9.45555
98 1 4 -0.601179 6.43145 5.05885 5.45857
99 1 4 -0.601179 24.6974 16.0329 9.45555
100 1 4 -0.601179 11.8345 5.05885 5.45857
101 1 4 -0.60118 25.8628 18.0514 9.45555
102 1 4 -0.60118 10.6692 3.04037 5.45857
103 1 4 -0.60118 28.9351 14.9319 13.8671
104 1 4 -0.60118 7.59682 6.15984 1.04697
105 1 4 -0.60118 30.1005 14.2591 11.9641
106 1 4 -0.60118 6.43145 6.83267 2.95001
ITEM: TIMESTEP
91000
ITEM: NUMBER OF ATOMS
106
ITEM: BOX BOUNDS xy xz yz pp pp pp
0.0000000000000000e+00 3.6531964750000000e+01 9.1329911900000003e+00
0.0000000000000000e+00 2.1091739680000000e+01 9.1329911900000003e+00
0.0000000000000000e+00 1.4914112149999999e+01 5.2729349200000000e+00
ITEM: ATOMS id mol type q x y z
1 1 1 1.10383 27.399 17.6496 10.5383
2 1 1 1.10383 9.13299 3.44217 4.3758
3 1 1 1.10383 27.399 15.8188 13.1274
4 1 1 1.10383 9.13299 5.27293 1.78671
5 1 1 1.10383 25.8135 14.9034 10.5383
6 1 1 1.10383 10.7185 6.18832 4.3758
7 1 1 1.10383 28.9845 14.9034 10.5383
8 1 1 1.10383 7.5475 6.18832 4.3758
9 1 2 0.115889 18.266 5.48596 12.6084
10 1 2 0.115889 18.266 15.6058 2.30572
11 1 2 0.115888 18.266 13.716 0.969417
12 1 2 0.115888 18.266 7.37578 13.9447
13 1 2 0.11589 25.3934 11.4908 8.12521
14 1 2 0.11589 11.1386 9.60096 6.7889
15 1 2 0.115888 11.1386 11.4908 8.12521
16 1 2 0.115888 25.3934 9.60096 6.7889
17 1 2 0.115889 15.5206 8.96083 0.969417
18 1 2 0.115889 21.0114 12.1309 13.9447
19 1 2 0.115888 22.648 13.0758 12.6084
20 1 2 0.115888 13.884 8.01592 2.30572
21 1 2 0.115889 21.0114 3.90092 8.12521
22 1 2 0.115889 15.5206 17.1908 6.7889
23 1 2 0.115887 13.884 16.2459 8.12521
24 1 2 0.115887 22.648 4.84583 6.7889
25 1 2 0.115889 22.648 16.2459 8.12521
26 1 2 0.115889 13.884 4.84583 6.7889
27 1 2 0.115887 15.5206 3.90092 8.12521
28 1 2 0.115887 21.0114 17.1908 6.7889
29 1 2 0.115889 21.0114 8.96083 0.969417
30 1 2 0.115889 15.5206 12.1309 13.9447
31 1 2 0.115887 13.884 13.0758 12.6084
32 1 2 0.115887 22.648 8.01592 2.30572
33 1 3 0.671939 27.399 18.7442 13.2542
34 1 3 0.671939 9.13299 2.34751 1.65994
35 1 3 0.671939 27.399 12.8934 9.117
36 1 3 0.671939 9.13299 8.19836 5.79712
37 1 3 0.67194 24.8655 14.3561 13.2542
38 1 3 0.67194 11.6665 6.73565 1.65994
39 1 3 0.67194 29.9325 17.2815 9.117
40 1 3 0.67194 6.5995 3.81022 5.79712
41 1 3 0.67194 24.8655 17.2815 9.117
42 1 3 0.67194 11.6665 3.81022 5.79712
43 1 3 0.67194 29.9325 14.3561 13.2542
44 1 3 0.67194 6.5995 6.73565 1.65994
45 1 3 -0.11508 27.399 19.957 14.1117
46 1 3 -0.11508 9.13299 1.13474 0.802379
47 1 3 -0.11508 27.399 11.6806 8.25944
48 1 3 -0.11508 9.13299 9.41113 6.65468
49 1 3 -0.11508 23.8152 13.7497 14.1117
50 1 3 -0.11508 12.7168 7.34203 0.802379
51 1 3 -0.11508 30.9828 17.8879 8.25944
52 1 3 -0.11508 5.54921 3.20384 6.65468
53 1 3 -0.11508 23.8152 17.8879 8.25944
54 1 3 -0.11508 12.7168 3.20384 6.65468
55 1 3 -0.11508 30.9828 13.7497 14.1117
56 1 3 -0.11508 5.54921 7.34203 0.802379
57 1 3 -0.0559 18.266 5.39949 13.5316
58 1 3 -0.0559 18.266 15.6923 1.38254
59 1 3 -0.055903 18.266 14.5575 0.580159
60 1 3 -0.055903 18.266 6.53422 14.334
61 1 3 -0.0559 26.1971 11.1132 7.85825
62 1 3 -0.0559 10.3349 9.9785 7.05587
63 1 3 -0.055903 10.3349 11.1132 7.85825
64 1 3 -0.055903 26.1971 9.9785 7.05587
65 1 3 -0.0559 14.7918 8.54005 0.580159
66 1 3 -0.0559 21.7402 12.5517 14.334
67 1 3 -0.055903 22.7229 13.1191 13.5316
68 1 3 -0.055903 13.8091 7.97268 1.38254
69 1 3 -0.0559 21.7402 3.39366 7.85825
70 1 3 -0.0559 14.7918 17.6981 7.05587
71 1 3 -0.055903 13.8091 17.1307 7.85825
72 1 3 -0.055903 22.7229 3.96103 7.05587
73 1 3 -0.055901 22.7229 17.1307 7.85825
74 1 3 -0.055901 13.8091 3.96103 7.05587
75 1 3 -0.055903 14.7918 3.39366 7.85825
76 1 3 -0.055903 21.7402 17.6981 7.05587
77 1 3 -0.0559 21.7402 8.54005 0.580159
78 1 3 -0.0559 14.7918 12.5517 14.334
79 1 3 -0.055903 13.8091 13.1191 13.5316
80 1 3 -0.055903 22.7229 7.97268 1.38254
81 1 4 -1.26215 27.399 15.8188 11.1856
82 1 4 -1.26215 9.13299 5.27293 3.72853
83 1 4 -0.60118 27.399 18.9383 11.9641
84 1 4 -0.60118 9.13299 2.15347 2.95001
85 1 4 -0.601179 27.399 17.5926 13.8671
86 1 4 -0.601179 9.13299 3.49912 1.04697
87 1 4 -0.601179 26.2336 13.3722 9.45555
88 1 4 -0.601179 10.2984 7.71958 5.45857
89 1 4 -0.60118 28.5643 13.3722 9.45555
90 1 4 -0.60118 7.96762 7.71958 5.45857
91 1 4 -0.60118 25.8628 14.9319 13.8671
92 1 4 -0.60118 10.6692 6.15984 1.04697
93 1 4 -0.601179 24.6974 14.2591 11.9641
94 1 4 -0.601179 11.8345 6.83267 2.95001
95 1 4 -0.60118 28.9351 18.0514 9.45555
96 1 4 -0.60118 7.59682 3.04037 5.45857
97 1 4 -0.601179 30.1005 16.0329 9.45555
98 1 4 -0.601179 6.43145 5.05885 5.45857
99 1 4 -0.601179 24.6974 16.0329 9.45555
100 1 4 -0.601179 11.8345 5.05885 5.45857
101 1 4 -0.60118 25.8628 18.0514 9.45555
102 1 4 -0.60118 10.6692 3.04037 5.45857
103 1 4 -0.60118 28.9351 14.9319 13.8671
104 1 4 -0.60118 7.59682 6.15984 1.04697
105 1 4 -0.60118 30.1005 14.2591 11.9641
106 1 4 -0.60118 6.43145 6.83267 2.95001
ITEM: TIMESTEP
92000
ITEM: NUMBER OF ATOMS
106
ITEM: BOX BOUNDS xy xz yz pp pp pp
0.0000000000000000e+00 3.6531964750000000e+01 9.1329911900000003e+00
0.0000000000000000e+00 2.1091739680000000e+01 9.1329911900000003e+00
0.0000000000000000e+00 1.4914112149999999e+01 5.2729349200000000e+00
ITEM: ATOMS id mol type q x y z
1 1 1 1.10383 27.399 17.6496 10.5383
2 1 1 1.10383 9.13299 3.44217 4.3758
3 1 1 1.10383 27.399 15.8188 13.1274
4 1 1 1.10383 9.13299 5.27293 1.78671
5 1 1 1.10383 25.8135 14.9034 10.5383
6 1 1 1.10383 10.7185 6.18832 4.3758
7 1 1 1.10383 28.9845 14.9034 10.5383
8 1 1 1.10383 7.5475 6.18832 4.3758
9 1 2 0.115889 18.266 5.48596 12.6084
10 1 2 0.115889 18.266 15.6058 2.30572
11 1 2 0.115888 18.266 13.716 0.969417
12 1 2 0.115888 18.266 7.37578 13.9447
13 1 2 0.11589 25.3934 11.4908 8.12521
14 1 2 0.11589 11.1386 9.60096 6.7889
15 1 2 0.115888 11.1386 11.4908 8.12521
16 1 2 0.115888 25.3934 9.60096 6.7889
17 1 2 0.115889 15.5206 8.96083 0.969417
18 1 2 0.115889 21.0114 12.1309 13.9447
19 1 2 0.115888 22.648 13.0758 12.6084
20 1 2 0.115888 13.884 8.01592 2.30572
21 1 2 0.115889 21.0114 3.90092 8.12521
22 1 2 0.115889 15.5206 17.1908 6.7889
23 1 2 0.115887 13.884 16.2459 8.12521
24 1 2 0.115887 22.648 4.84583 6.7889
25 1 2 0.115889 22.648 16.2459 8.12521
26 1 2 0.115889 13.884 4.84583 6.7889
27 1 2 0.115887 15.5206 3.90092 8.12521
28 1 2 0.115887 21.0114 17.1908 6.7889
29 1 2 0.115889 21.0114 8.96083 0.969417
30 1 2 0.115889 15.5206 12.1309 13.9447
31 1 2 0.115887 13.884 13.0758 12.6084
32 1 2 0.115887 22.648 8.01592 2.30572
33 1 3 0.671939 27.399 18.7442 13.2542
34 1 3 0.671939 9.13299 2.34751 1.65994
35 1 3 0.671939 27.399 12.8934 9.117
36 1 3 0.671939 9.13299 8.19836 5.79712
37 1 3 0.67194 24.8655 14.3561 13.2542
38 1 3 0.67194 11.6665 6.73565 1.65994
39 1 3 0.67194 29.9325 17.2815 9.117
40 1 3 0.67194 6.5995 3.81022 5.79712
41 1 3 0.67194 24.8655 17.2815 9.117
42 1 3 0.67194 11.6665 3.81022 5.79712
43 1 3 0.67194 29.9325 14.3561 13.2542
44 1 3 0.67194 6.5995 6.73565 1.65994
45 1 3 -0.11508 27.399 19.957 14.1117
46 1 3 -0.11508 9.13299 1.13474 0.802379
47 1 3 -0.11508 27.399 11.6806 8.25944
48 1 3 -0.11508 9.13299 9.41113 6.65468
49 1 3 -0.11508 23.8152 13.7497 14.1117
50 1 3 -0.11508 12.7168 7.34203 0.802379
51 1 3 -0.11508 30.9828 17.8879 8.25944
52 1 3 -0.11508 5.54921 3.20384 6.65468
53 1 3 -0.11508 23.8152 17.8879 8.25944
54 1 3 -0.11508 12.7168 3.20384 6.65468
55 1 3 -0.11508 30.9828 13.7497 14.1117
56 1 3 -0.11508 5.54921 7.34203 0.802379
57 1 3 -0.0559 18.266 5.39949 13.5316
58 1 3 -0.0559 18.266 15.6923 1.38254
59 1 3 -0.055903 18.266 14.5575 0.580159
60 1 3 -0.055903 18.266 6.53422 14.334
61 1 3 -0.0559 26.1971 11.1132 7.85825
62 1 3 -0.0559 10.3349 9.9785 7.05587
63 1 3 -0.055903 10.3349 11.1132 7.85825
64 1 3 -0.055903 26.1971 9.9785 7.05587
65 1 3 -0.0559 14.7918 8.54005 0.580159
66 1 3 -0.0559 21.7402 12.5517 14.334
67 1 3 -0.055903 22.7229 13.1191 13.5316
68 1 3 -0.055903 13.8091 7.97268 1.38254
69 1 3 -0.0559 21.7402 3.39366 7.85825
70 1 3 -0.0559 14.7918 17.6981 7.05587
71 1 3 -0.055903 13.8091 17.1307 7.85825
72 1 3 -0.055903 22.7229 3.96103 7.05587
73 1 3 -0.055901 22.7229 17.1307 7.85825
74 1 3 -0.055901 13.8091 3.96103 7.05587
75 1 3 -0.055903 14.7918 3.39366 7.85825
76 1 3 -0.055903 21.7402 17.6981 7.05587
77 1 3 -0.0559 21.7402 8.54005 0.580159
78 1 3 -0.0559 14.7918 12.5517 14.334
79 1 3 -0.055903 13.8091 13.1191 13.5316
80 1 3 -0.055903 22.7229 7.97268 1.38254
81 1 4 -1.26215 27.399 15.8188 11.1856
82 1 4 -1.26215 9.13299 5.27293 3.72853
83 1 4 -0.60118 27.399 18.9383 11.9641
84 1 4 -0.60118 9.13299 2.15347 2.95001
85 1 4 -0.601179 27.399 17.5926 13.8671
86 1 4 -0.601179 9.13299 3.49912 1.04697
87 1 4 -0.601179 26.2336 13.3722 9.45555
88 1 4 -0.601179 10.2984 7.71958 5.45857
89 1 4 -0.60118 28.5643 13.3722 9.45555
90 1 4 -0.60118 7.96762 7.71958 5.45857
91 1 4 -0.60118 25.8628 14.9319 13.8671
92 1 4 -0.60118 10.6692 6.15984 1.04697
93 1 4 -0.601179 24.6974 14.2591 11.9641
94 1 4 -0.601179 11.8345 6.83267 2.95001
95 1 4 -0.60118 28.9351 18.0514 9.45555
96 1 4 -0.60118 7.59682 3.04037 5.45857
97 1 4 -0.601179 30.1005 16.0329 9.45555
98 1 4 -0.601179 6.43145 5.05885 5.45857
99 1 4 -0.601179 24.6974 16.0329 9.45555
100 1 4 -0.601179 11.8345 5.05885 5.45857
101 1 4 -0.60118 25.8628 18.0514 9.45555
102 1 4 -0.60118 10.6692 3.04037 5.45857
103 1 4 -0.60118 28.9351 14.9319 13.8671
104 1 4 -0.60118 7.59682 6.15984 1.04697
105 1 4 -0.60118 30.1005 14.2591 11.9641
106 1 4 -0.60118 6.43145 6.83267 2.95001
ITEM: TIMESTEP
93000
ITEM: NUMBER OF ATOMS
106
ITEM: BOX BOUNDS xy xz yz pp pp pp
0.0000000000000000e+00 3.6531964750000000e+01 9.1329911900000003e+00
0.0000000000000000e+00 2.1091739680000000e+01 9.1329911900000003e+00
0.0000000000000000e+00 1.4914112149999999e+01 5.2729349200000000e+00
ITEM: ATOMS id mol type q x y z
1 1 1 1.10383 27.399 17.6496 10.5383
2 1 1 1.10383 9.13299 3.44217 4.3758
3 1 1 1.10383 27.399 15.8188 13.1274
4 1 1 1.10383 9.13299 5.27293 1.78671
5 1 1 1.10383 25.8135 14.9034 10.5383
6 1 1 1.10383 10.7185 6.18832 4.3758
7 1 1 1.10383 28.9845 14.9034 10.5383
8 1 1 1.10383 7.5475 6.18832 4.3758
9 1 2 0.115889 18.266 5.48596 12.6084
10 1 2 0.115889 18.266 15.6058 2.30572
11 1 2 0.115888 18.266 13.716 0.969417
12 1 2 0.115888 18.266 7.37578 13.9447
13 1 2 0.11589 25.3934 11.4908 8.12521
14 1 2 0.11589 11.1386 9.60096 6.7889
15 1 2 0.115888 11.1386 11.4908 8.12521
16 1 2 0.115888 25.3934 9.60096 6.7889
17 1 2 0.115889 15.5206 8.96083 0.969417
18 1 2 0.115889 21.0114 12.1309 13.9447
19 1 2 0.115888 22.648 13.0758 12.6084
20 1 2 0.115888 13.884 8.01592 2.30572
21 1 2 0.115889 21.0114 3.90092 8.12521
22 1 2 0.115889 15.5206 17.1908 6.7889
23 1 2 0.115887 13.884 16.2459 8.12521
24 1 2 0.115887 22.648 4.84583 6.7889
25 1 2 0.115889 22.648 16.2459 8.12521
26 1 2 0.115889 13.884 4.84583 6.7889
27 1 2 0.115887 15.5206 3.90092 8.12521
28 1 2 0.115887 21.0114 17.1908 6.7889
29 1 2 0.115889 21.0114 8.96083 0.969417
30 1 2 0.115889 15.5206 12.1309 13.9447
31 1 2 0.115887 13.884 13.0758 12.6084
32 1 2 0.115887 22.648 8.01592 2.30572
33 1 3 0.671939 27.399 18.7442 13.2542
34 1 3 0.671939 9.13299 2.34751 1.65994
35 1 3 0.671939 27.399 12.8934 9.117
36 1 3 0.671939 9.13299 8.19836 5.79712
37 1 3 0.67194 24.8655 14.3561 13.2542
38 1 3 0.67194 11.6665 6.73565 1.65994
39 1 3 0.67194 29.9325 17.2815 9.117
40 1 3 0.67194 6.5995 3.81022 5.79712
41 1 3 0.67194 24.8655 17.2815 9.117
42 1 3 0.67194 11.6665 3.81022 5.79712
43 1 3 0.67194 29.9325 14.3561 13.2542
44 1 3 0.67194 6.5995 6.73565 1.65994
45 1 3 -0.11508 27.399 19.957 14.1117
46 1 3 -0.11508 9.13299 1.13474 0.802379
47 1 3 -0.11508 27.399 11.6806 8.25944
48 1 3 -0.11508 9.13299 9.41113 6.65468
49 1 3 -0.11508 23.8152 13.7497 14.1117
50 1 3 -0.11508 12.7168 7.34203 0.802379
51 1 3 -0.11508 30.9828 17.8879 8.25944
52 1 3 -0.11508 5.54921 3.20384 6.65468
53 1 3 -0.11508 23.8152 17.8879 8.25944
54 1 3 -0.11508 12.7168 3.20384 6.65468
55 1 3 -0.11508 30.9828 13.7497 14.1117
56 1 3 -0.11508 5.54921 7.34203 0.802379
57 1 3 -0.0559 18.266 5.39949 13.5316
58 1 3 -0.0559 18.266 15.6923 1.38254
59 1 3 -0.055903 18.266 14.5575 0.580159
60 1 3 -0.055903 18.266 6.53422 14.334
61 1 3 -0.0559 26.1971 11.1132 7.85825
62 1 3 -0.0559 10.3349 9.9785 7.05587
63 1 3 -0.055903 10.3349 11.1132 7.85825
64 1 3 -0.055903 26.1971 9.9785 7.05587
65 1 3 -0.0559 14.7918 8.54005 0.580159
66 1 3 -0.0559 21.7402 12.5517 14.334
67 1 3 -0.055903 22.7229 13.1191 13.5316
68 1 3 -0.055903 13.8091 7.97268 1.38254
69 1 3 -0.0559 21.7402 3.39366 7.85825
70 1 3 -0.0559 14.7918 17.6981 7.05587
71 1 3 -0.055903 13.8091 17.1307 7.85825
72 1 3 -0.055903 22.7229 3.96103 7.05587
73 1 3 -0.055901 22.7229 17.1307 7.85825
74 1 3 -0.055901 13.8091 3.96103 7.05587
75 1 3 -0.055903 14.7918 3.39366 7.85825
76 1 3 -0.055903 21.7402 17.6981 7.05587
77 1 3 -0.0559 21.7402 8.54005 0.580159
78 1 3 -0.0559 14.7918 12.5517 14.334
79 1 3 -0.055903 13.8091 13.1191 13.5316
80 1 3 -0.055903 22.7229 7.97268 1.38254
81 1 4 -1.26215 27.399 15.8188 11.1856
82 1 4 -1.26215 9.13299 5.27293 3.72853
83 1 4 -0.60118 27.399 18.9383 11.9641
84 1 4 -0.60118 9.13299 2.15347 2.95001
85 1 4 -0.601179 27.399 17.5926 13.8671
86 1 4 -0.601179 9.13299 3.49912 1.04697
87 1 4 -0.601179 26.2336 13.3722 9.45555
88 1 4 -0.601179 10.2984 7.71958 5.45857
89 1 4 -0.60118 28.5643 13.3722 9.45555
90 1 4 -0.60118 7.96762 7.71958 5.45857
91 1 4 -0.60118 25.8628 14.9319 13.8671
92 1 4 -0.60118 10.6692 6.15984 1.04697
93 1 4 -0.601179 24.6974 14.2591 11.9641
94 1 4 -0.601179 11.8345 6.83267 2.95001
95 1 4 -0.60118 28.9351 18.0514 9.45555
96 1 4 -0.60118 7.59682 3.04037 5.45857
97 1 4 -0.601179 30.1005 16.0329 9.45555
98 1 4 -0.601179 6.43145 5.05885 5.45857
99 1 4 -0.601179 24.6974 16.0329 9.45555
100 1 4 -0.601179 11.8345 5.05885 5.45857
101 1 4 -0.60118 25.8628 18.0514 9.45555
102 1 4 -0.60118 10.6692 3.04037 5.45857
103 1 4 -0.60118 28.9351 14.9319 13.8671
104 1 4 -0.60118 7.59682 6.15984 1.04697
105 1 4 -0.60118 30.1005 14.2591 11.9641
106 1 4 -0.60118 6.43145 6.83267 2.95001
ITEM: TIMESTEP
94000
ITEM: NUMBER OF ATOMS
106
ITEM: BOX BOUNDS xy xz yz pp pp pp
0.0000000000000000e+00 3.6531964750000000e+01 9.1329911900000003e+00
0.0000000000000000e+00 2.1091739680000000e+01 9.1329911900000003e+00
0.0000000000000000e+00 1.4914112149999999e+01 5.2729349200000000e+00
ITEM: ATOMS id mol type q x y z
1 1 1 1.10383 27.399 17.6496 10.5383
2 1 1 1.10383 9.13299 3.44217 4.3758
3 1 1 1.10383 27.399 15.8188 13.1274
4 1 1 1.10383 9.13299 5.27293 1.78671
5 1 1 1.10383 25.8135 14.9034 10.5383
6 1 1 1.10383 10.7185 6.18832 4.3758
7 1 1 1.10383 28.9845 14.9034 10.5383
8 1 1 1.10383 7.5475 6.18832 4.3758
9 1 2 0.115889 18.266 5.48596 12.6084
10 1 2 0.115889 18.266 15.6058 2.30572
11 1 2 0.115888 18.266 13.716 0.969417
12 1 2 0.115888 18.266 7.37578 13.9447
13 1 2 0.11589 25.3934 11.4908 8.12521
14 1 2 0.11589 11.1386 9.60096 6.7889
15 1 2 0.115888 11.1386 11.4908 8.12521
16 1 2 0.115888 25.3934 9.60096 6.7889
17 1 2 0.115889 15.5206 8.96083 0.969417
18 1 2 0.115889 21.0114 12.1309 13.9447
19 1 2 0.115888 22.648 13.0758 12.6084
20 1 2 0.115888 13.884 8.01592 2.30572
21 1 2 0.115889 21.0114 3.90092 8.12521
22 1 2 0.115889 15.5206 17.1908 6.7889
23 1 2 0.115887 13.884 16.2459 8.12521
24 1 2 0.115887 22.648 4.84583 6.7889
25 1 2 0.115889 22.648 16.2459 8.12521
26 1 2 0.115889 13.884 4.84583 6.7889
27 1 2 0.115887 15.5206 3.90092 8.12521
28 1 2 0.115887 21.0114 17.1908 6.7889
29 1 2 0.115889 21.0114 8.96083 0.969417
30 1 2 0.115889 15.5206 12.1309 13.9447
31 1 2 0.115887 13.884 13.0758 12.6084
32 1 2 0.115887 22.648 8.01592 2.30572
33 1 3 0.671939 27.399 18.7442 13.2542
34 1 3 0.671939 9.13299 2.34751 1.65994
35 1 3 0.671939 27.399 12.8934 9.117
36 1 3 0.671939 9.13299 8.19836 5.79712
37 1 3 0.67194 24.8655 14.3561 13.2542
38 1 3 0.67194 11.6665 6.73565 1.65994
39 1 3 0.67194 29.9325 17.2815 9.117
40 1 3 0.67194 6.5995 3.81022 5.79712
41 1 3 0.67194 24.8655 17.2815 9.117
42 1 3 0.67194 11.6665 3.81022 5.79712
43 1 3 0.67194 29.9325 14.3561 13.2542
44 1 3 0.67194 6.5995 6.73565 1.65994
45 1 3 -0.11508 27.399 19.957 14.1117
46 1 3 -0.11508 9.13299 1.13474 0.802379
47 1 3 -0.11508 27.399 11.6806 8.25944
48 1 3 -0.11508 9.13299 9.41113 6.65468
49 1 3 -0.11508 23.8152 13.7497 14.1117
50 1 3 -0.11508 12.7168 7.34203 0.802379
51 1 3 -0.11508 30.9828 17.8879 8.25944
52 1 3 -0.11508 5.54921 3.20384 6.65468
53 1 3 -0.11508 23.8152 17.8879 8.25944
54 1 3 -0.11508 12.7168 3.20384 6.65468
55 1 3 -0.11508 30.9828 13.7497 14.1117
56 1 3 -0.11508 5.54921 7.34203 0.802379
57 1 3 -0.0559 18.266 5.39949 13.5316
58 1 3 -0.0559 18.266 15.6923 1.38254
59 1 3 -0.055903 18.266 14.5575 0.580159
60 1 3 -0.055903 18.266 6.53422 14.334
61 1 3 -0.0559 26.1971 11.1132 7.85825
62 1 3 -0.0559 10.3349 9.9785 7.05587
63 1 3 -0.055903 10.3349 11.1132 7.85825
64 1 3 -0.055903 26.1971 9.9785 7.05587
65 1 3 -0.0559 14.7918 8.54005 0.580159
66 1 3 -0.0559 21.7402 12.5517 14.334
67 1 3 -0.055903 22.7229 13.1191 13.5316
68 1 3 -0.055903 13.8091 7.97268 1.38254
69 1 3 -0.0559 21.7402 3.39366 7.85825
70 1 3 -0.0559 14.7918 17.6981 7.05587
71 1 3 -0.055903 13.8091 17.1307 7.85825
72 1 3 -0.055903 22.7229 3.96103 7.05587
73 1 3 -0.055901 22.7229 17.1307 7.85825
74 1 3 -0.055901 13.8091 3.96103 7.05587
75 1 3 -0.055903 14.7918 3.39366 7.85825
76 1 3 -0.055903 21.7402 17.6981 7.05587
77 1 3 -0.0559 21.7402 8.54005 0.580159
78 1 3 -0.0559 14.7918 12.5517 14.334
79 1 3 -0.055903 13.8091 13.1191 13.5316
80 1 3 -0.055903 22.7229 7.97268 1.38254
81 1 4 -1.26215 27.399 15.8188 11.1856
82 1 4 -1.26215 9.13299 5.27293 3.72853
83 1 4 -0.60118 27.399 18.9383 11.9641
84 1 4 -0.60118 9.13299 2.15347 2.95001
85 1 4 -0.601179 27.399 17.5926 13.8671
86 1 4 -0.601179 9.13299 3.49912 1.04697
87 1 4 -0.601179 26.2336 13.3722 9.45555
88 1 4 -0.601179 10.2984 7.71958 5.45857
89 1 4 -0.60118 28.5643 13.3722 9.45555
90 1 4 -0.60118 7.96762 7.71958 5.45857
91 1 4 -0.60118 25.8628 14.9319 13.8671
92 1 4 -0.60118 10.6692 6.15984 1.04697
93 1 4 -0.601179 24.6974 14.2591 11.9641
94 1 4 -0.601179 11.8345 6.83267 2.95001
95 1 4 -0.60118 28.9351 18.0514 9.45555
96 1 4 -0.60118 7.59682 3.04037 5.45857
97 1 4 -0.601179 30.1005 16.0329 9.45555
98 1 4 -0.601179 6.43145 5.05885 5.45857
99 1 4 -0.601179 24.6974 16.0329 9.45555
100 1 4 -0.601179 11.8345 5.05885 5.45857
101 1 4 -0.60118 25.8628 18.0514 9.45555
102 1 4 -0.60118 10.6692 3.04037 5.45857
103 1 4 -0.60118 28.9351 14.9319 13.8671
104 1 4 -0.60118 7.59682 6.15984 1.04697
105 1 4 -0.60118 30.1005 14.2591 11.9641
106 1 4 -0.60118 6.43145 6.83267 2.95001
ITEM: TIMESTEP
95000
ITEM: NUMBER OF ATOMS
106
ITEM: BOX BOUNDS xy xz yz pp pp pp
0.0000000000000000e+00 3.6531964750000000e+01 9.1329911900000003e+00
0.0000000000000000e+00 2.1091739680000000e+01 9.1329911900000003e+00
0.0000000000000000e+00 1.4914112149999999e+01 5.2729349200000000e+00
ITEM: ATOMS id mol type q x y z
1 1 1 1.10383 27.399 17.6496 10.5383
2 1 1 1.10383 9.13299 3.44217 4.3758
3 1 1 1.10383 27.399 15.8188 13.1274
4 1 1 1.10383 9.13299 5.27293 1.78671
5 1 1 1.10383 25.8135 14.9034 10.5383
6 1 1 1.10383 10.7185 6.18832 4.3758
7 1 1 1.10383 28.9845 14.9034 10.5383
8 1 1 1.10383 7.5475 6.18832 4.3758
9 1 2 0.115889 18.266 5.48596 12.6084
10 1 2 0.115889 18.266 15.6058 2.30572
11 1 2 0.115888 18.266 13.716 0.969417
12 1 2 0.115888 18.266 7.37578 13.9447
13 1 2 0.11589 25.3934 11.4908 8.12521
14 1 2 0.11589 11.1386 9.60096 6.7889
15 1 2 0.115888 11.1386 11.4908 8.12521
16 1 2 0.115888 25.3934 9.60096 6.7889
17 1 2 0.115889 15.5206 8.96083 0.969417
18 1 2 0.115889 21.0114 12.1309 13.9447
19 1 2 0.115888 22.648 13.0758 12.6084
20 1 2 0.115888 13.884 8.01592 2.30572
21 1 2 0.115889 21.0114 3.90092 8.12521
22 1 2 0.115889 15.5206 17.1908 6.7889
23 1 2 0.115887 13.884 16.2459 8.12521
24 1 2 0.115887 22.648 4.84583 6.7889
25 1 2 0.115889 22.648 16.2459 8.12521
26 1 2 0.115889 13.884 4.84583 6.7889
27 1 2 0.115887 15.5206 3.90092 8.12521
28 1 2 0.115887 21.0114 17.1908 6.7889
29 1 2 0.115889 21.0114 8.96083 0.969417
30 1 2 0.115889 15.5206 12.1309 13.9447
31 1 2 0.115887 13.884 13.0758 12.6084
32 1 2 0.115887 22.648 8.01592 2.30572
33 1 3 0.671939 27.399 18.7442 13.2542
34 1 3 0.671939 9.13299 2.34751 1.65994
35 1 3 0.671939 27.399 12.8934 9.117
36 1 3 0.671939 9.13299 8.19836 5.79712
37 1 3 0.67194 24.8655 14.3561 13.2542
38 1 3 0.67194 11.6665 6.73565 1.65994
39 1 3 0.67194 29.9325 17.2815 9.117
40 1 3 0.67194 6.5995 3.81022 5.79712
41 1 3 0.67194 24.8655 17.2815 9.117
42 1 3 0.67194 11.6665 3.81022 5.79712
43 1 3 0.67194 29.9325 14.3561 13.2542
44 1 3 0.67194 6.5995 6.73565 1.65994
45 1 3 -0.11508 27.399 19.957 14.1117
46 1 3 -0.11508 9.13299 1.13474 0.802379
47 1 3 -0.11508 27.399 11.6806 8.25944
48 1 3 -0.11508 9.13299 9.41113 6.65468
49 1 3 -0.11508 23.8152 13.7497 14.1117
50 1 3 -0.11508 12.7168 7.34203 0.802379
51 1 3 -0.11508 30.9828 17.8879 8.25944
52 1 3 -0.11508 5.54921 3.20384 6.65468
53 1 3 -0.11508 23.8152 17.8879 8.25944
54 1 3 -0.11508 12.7168 3.20384 6.65468
55 1 3 -0.11508 30.9828 13.7497 14.1117
56 1 3 -0.11508 5.54921 7.34203 0.802379
57 1 3 -0.0559 18.266 5.39949 13.5316
58 1 3 -0.0559 18.266 15.6923 1.38254
59 1 3 -0.055903 18.266 14.5575 0.580159
60 1 3 -0.055903 18.266 6.53422 14.334
61 1 3 -0.0559 26.1971 11.1132 7.85825
62 1 3 -0.0559 10.3349 9.9785 7.05587
63 1 3 -0.055903 10.3349 11.1132 7.85825
64 1 3 -0.055903 26.1971 9.9785 7.05587
65 1 3 -0.0559 14.7918 8.54005 0.580159
66 1 3 -0.0559 21.7402 12.5517 14.334
67 1 3 -0.055903 22.7229 13.1191 13.5316
68 1 3 -0.055903 13.8091 7.97268 1.38254
69 1 3 -0.0559 21.7402 3.39366 7.85825
70 1 3 -0.0559 14.7918 17.6981 7.05587
71 1 3 -0.055903 13.8091 17.1307 7.85825
72 1 3 -0.055903 22.7229 3.96103 7.05587
73 1 3 -0.055901 22.7229 17.1307 7.85825
74 1 3 -0.055901 13.8091 3.96103 7.05587
75 1 3 -0.055903 14.7918 3.39366 7.85825
76 1 3 -0.055903 21.7402 17.6981 7.05587
77 1 3 -0.0559 21.7402 8.54005 0.580159
78 1 3 -0.0559 14.7918 12.5517 14.334
79 1 3 -0.055903 13.8091 13.1191 13.5316
80 1 3 -0.055903 22.7229 7.97268 1.38254
81 1 4 -1.26215 27.399 15.8188 11.1856
82 1 4 -1.26215 9.13299 5.27293 3.72853
83 1 4 -0.60118 27.399 18.9383 11.9641
84 1 4 -0.60118 9.13299 2.15347 2.95001
85 1 4 -0.601179 27.399 17.5926 13.8671
86 1 4 -0.601179 9.13299 3.49912 1.04697
87 1 4 -0.601179 26.2336 13.3722 9.45555
88 1 4 -0.601179 10.2984 7.71958 5.45857
89 1 4 -0.60118 28.5643 13.3722 9.45555
90 1 4 -0.60118 7.96762 7.71958 5.45857
91 1 4 -0.60118 25.8628 14.9319 13.8671
92 1 4 -0.60118 10.6692 6.15984 1.04697
93 1 4 -0.601179 24.6974 14.2591 11.9641
94 1 4 -0.601179 11.8345 6.83267 2.95001
95 1 4 -0.60118 28.9351 18.0514 9.45555
96 1 4 -0.60118 7.59682 3.04037 5.45857
97 1 4 -0.601179 30.1005 16.0329 9.45555
98 1 4 -0.601179 6.43145 5.05885 5.45857
99 1 4 -0.601179 24.6974 16.0329 9.45555
100 1 4 -0.601179 11.8345 5.05885 5.45857
101 1 4 -0.60118 25.8628 18.0514 9.45555
102 1 4 -0.60118 10.6692 3.04037 5.45857
103 1 4 -0.60118 28.9351 14.9319 13.8671
104 1 4 -0.60118 7.59682 6.15984 1.04697
105 1 4 -0.60118 30.1005 14.2591 11.9641
106 1 4 -0.60118 6.43145 6.83267 2.95001
ITEM: TIMESTEP
96000
ITEM: NUMBER OF ATOMS
106
ITEM: BOX BOUNDS xy xz yz pp pp pp
0.0000000000000000e+00 3.6531964750000000e+01 9.1329911900000003e+00
0.0000000000000000e+00 2.1091739680000000e+01 9.1329911900000003e+00
0.0000000000000000e+00 1.4914112149999999e+01 5.2729349200000000e+00
ITEM: ATOMS id mol type q x y z
1 1 1 1.10383 27.399 17.6496 10.5383
2 1 1 1.10383 9.13299 3.44217 4.3758
3 1 1 1.10383 27.399 15.8188 13.1274
4 1 1 1.10383 9.13299 5.27293 1.78671
5 1 1 1.10383 25.8135 14.9034 10.5383
6 1 1 1.10383 10.7185 6.18832 4.3758
7 1 1 1.10383 28.9845 14.9034 10.5383
8 1 1 1.10383 7.5475 6.18832 4.3758
9 1 2 0.115889 18.266 5.48596 12.6084
10 1 2 0.115889 18.266 15.6058 2.30572
11 1 2 0.115888 18.266 13.716 0.969417
12 1 2 0.115888 18.266 7.37578 13.9447
13 1 2 0.11589 25.3934 11.4908 8.12521
14 1 2 0.11589 11.1386 9.60096 6.7889
15 1 2 0.115888 11.1386 11.4908 8.12521
16 1 2 0.115888 25.3934 9.60096 6.7889
17 1 2 0.115889 15.5206 8.96083 0.969417
18 1 2 0.115889 21.0114 12.1309 13.9447
19 1 2 0.115888 22.648 13.0758 12.6084
20 1 2 0.115888 13.884 8.01592 2.30572
21 1 2 0.115889 21.0114 3.90092 8.12521
22 1 2 0.115889 15.5206 17.1908 6.7889
23 1 2 0.115887 13.884 16.2459 8.12521
24 1 2 0.115887 22.648 4.84583 6.7889
25 1 2 0.115889 22.648 16.2459 8.12521
26 1 2 0.115889 13.884 4.84583 6.7889
27 1 2 0.115887 15.5206 3.90092 8.12521
28 1 2 0.115887 21.0114 17.1908 6.7889
29 1 2 0.115889 21.0114 8.96083 0.969417
30 1 2 0.115889 15.5206 12.1309 13.9447
31 1 2 0.115887 13.884 13.0758 12.6084
32 1 2 0.115887 22.648 8.01592 2.30572
33 1 3 0.671939 27.399 18.7442 13.2542
34 1 3 0.671939 9.13299 2.34751 1.65994
35 1 3 0.671939 27.399 12.8934 9.117
36 1 3 0.671939 9.13299 8.19836 5.79712
37 1 3 0.67194 24.8655 14.3561 13.2542
38 1 3 0.67194 11.6665 6.73565 1.65994
39 1 3 0.67194 29.9325 17.2815 9.117
40 1 3 0.67194 6.5995 3.81022 5.79712
41 1 3 0.67194 24.8655 17.2815 9.117
42 1 3 0.67194 11.6665 3.81022 5.79712
43 1 3 0.67194 29.9325 14.3561 13.2542
44 1 3 0.67194 6.5995 6.73565 1.65994
45 1 3 -0.11508 27.399 19.957 14.1117
46 1 3 -0.11508 9.13299 1.13474 0.802379
47 1 3 -0.11508 27.399 11.6806 8.25944
48 1 3 -0.11508 9.13299 9.41113 6.65468
49 1 3 -0.11508 23.8152 13.7497 14.1117
50 1 3 -0.11508 12.7168 7.34203 0.802379
51 1 3 -0.11508 30.9828 17.8879 8.25944
52 1 3 -0.11508 5.54921 3.20384 6.65468
53 1 3 -0.11508 23.8152 17.8879 8.25944
54 1 3 -0.11508 12.7168 3.20384 6.65468
55 1 3 -0.11508 30.9828 13.7497 14.1117
56 1 3 -0.11508 5.54921 7.34203 0.802379
57 1 3 -0.0559 18.266 5.39949 13.5316
58 1 3 -0.0559 18.266 15.6923 1.38254
59 1 3 -0.055903 18.266 14.5575 0.580159
60 1 3 -0.055903 18.266 6.53422 14.334
61 1 3 -0.0559 26.1971 11.1132 7.85825
62 1 3 -0.0559 10.3349 9.9785 7.05587
63 1 3 -0.055903 10.3349 11.1132 7.85825
64 1 3 -0.055903 26.1971 9.9785 7.05587
65 1 3 -0.0559 14.7918 8.54005 0.580159
66 1 3 -0.0559 21.7402 12.5517 14.334
67 1 3 -0.055903 22.7229 13.1191 13.5316
68 1 3 -0.055903 13.8091 7.97268 1.38254
69 1 3 -0.0559 21.7402 3.39366 7.85825
70 1 3 -0.0559 14.7918 17.6981 7.05587
71 1 3 -0.055903 13.8091 17.1307 7.85825
72 1 3 -0.055903 22.7229 3.96103 7.05587
73 1 3 -0.055901 22.7229 17.1307 7.85825
74 1 3 -0.055901 13.8091 3.96103 7.05587
75 1 3 -0.055903 14.7918 3.39366 7.85825
76 1 3 -0.055903 21.7402 17.6981 7.05587
77 1 3 -0.0559 21.7402 8.54005 0.580159
78 1 3 -0.0559 14.7918 12.5517 14.334
79 1 3 -0.055903 13.8091 13.1191 13.5316
80 1 3 -0.055903 22.7229 7.97268 1.38254
81 1 4 -1.26215 27.399 15.8188 11.1856
82 1 4 -1.26215 9.13299 5.27293 3.72853
83 1 4 -0.60118 27.399 18.9383 11.9641
84 1 4 -0.60118 9.13299 2.15347 2.95001
85 1 4 -0.601179 27.399 17.5926 13.8671
86 1 4 -0.601179 9.13299 3.49912 1.04697
87 1 4 -0.601179 26.2336 13.3722 9.45555
88 1 4 -0.601179 10.2984 7.71958 5.45857
89 1 4 -0.60118 28.5643 13.3722 9.45555
90 1 4 -0.60118 7.96762 7.71958 5.45857
91 1 4 -0.60118 25.8628 14.9319 13.8671
92 1 4 -0.60118 10.6692 6.15984 1.04697
93 1 4 -0.601179 24.6974 14.2591 11.9641
94 1 4 -0.601179 11.8345 6.83267 2.95001
95 1 4 -0.60118 28.9351 18.0514 9.45555
96 1 4 -0.60118 7.59682 3.04037 5.45857
97 1 4 -0.601179 30.1005 16.0329 9.45555
98 1 4 -0.601179 6.43145 5.05885 5.45857
99 1 4 -0.601179 24.6974 16.0329 9.45555
100 1 4 -0.601179 11.8345 5.05885 5.45857
101 1 4 -0.60118 25.8628 18.0514 9.45555
102 1 4 -0.60118 10.6692 3.04037 5.45857
103 1 4 -0.60118 28.9351 14.9319 13.8671
104 1 4 -0.60118 7.59682 6.15984 1.04697
105 1 4 -0.60118 30.1005 14.2591 11.9641
106 1 4 -0.60118 6.43145 6.83267 2.95001
ITEM: TIMESTEP
97000
ITEM: NUMBER OF ATOMS
106
ITEM: BOX BOUNDS xy xz yz pp pp pp
0.0000000000000000e+00 3.6531964750000000e+01 9.1329911900000003e+00
0.0000000000000000e+00 2.1091739680000000e+01 9.1329911900000003e+00
0.0000000000000000e+00 1.4914112149999999e+01 5.2729349200000000e+00
ITEM: ATOMS id mol type q x y z
1 1 1 1.10383 27.399 17.6496 10.5383
2 1 1 1.10383 9.13299 3.44217 4.3758
3 1 1 1.10383 27.399 15.8188 13.1274
4 1 1 1.10383 9.13299 5.27293 1.78671
5 1 1 1.10383 25.8135 14.9034 10.5383
6 1 1 1.10383 10.7185 6.18832 4.3758
7 1 1 1.10383 28.9845 14.9034 10.5383
8 1 1 1.10383 7.5475 6.18832 4.3758
9 1 2 0.115889 18.266 5.48596 12.6084
10 1 2 0.115889 18.266 15.6058 2.30572
11 1 2 0.115888 18.266 13.716 0.969417
12 1 2 0.115888 18.266 7.37578 13.9447
13 1 2 0.11589 25.3934 11.4908 8.12521
14 1 2 0.11589 11.1386 9.60096 6.7889
15 1 2 0.115888 11.1386 11.4908 8.12521
16 1 2 0.115888 25.3934 9.60096 6.7889
17 1 2 0.115889 15.5206 8.96083 0.969417
18 1 2 0.115889 21.0114 12.1309 13.9447
19 1 2 0.115888 22.648 13.0758 12.6084
20 1 2 0.115888 13.884 8.01592 2.30572
21 1 2 0.115889 21.0114 3.90092 8.12521
22 1 2 0.115889 15.5206 17.1908 6.7889
23 1 2 0.115887 13.884 16.2459 8.12521
24 1 2 0.115887 22.648 4.84583 6.7889
25 1 2 0.115889 22.648 16.2459 8.12521
26 1 2 0.115889 13.884 4.84583 6.7889
27 1 2 0.115887 15.5206 3.90092 8.12521
28 1 2 0.115887 21.0114 17.1908 6.7889
29 1 2 0.115889 21.0114 8.96083 0.969417
30 1 2 0.115889 15.5206 12.1309 13.9447
31 1 2 0.115887 13.884 13.0758 12.6084
32 1 2 0.115887 22.648 8.01592 2.30572
33 1 3 0.671939 27.399 18.7442 13.2542
34 1 3 0.671939 9.13299 2.34751 1.65994
35 1 3 0.671939 27.399 12.8934 9.117
36 1 3 0.671939 9.13299 8.19836 5.79712
37 1 3 0.67194 24.8655 14.3561 13.2542
38 1 3 0.67194 11.6665 6.73565 1.65994
39 1 3 0.67194 29.9325 17.2815 9.117
40 1 3 0.67194 6.5995 3.81022 5.79712
41 1 3 0.67194 24.8655 17.2815 9.117
42 1 3 0.67194 11.6665 3.81022 5.79712
43 1 3 0.67194 29.9325 14.3561 13.2542
44 1 3 0.67194 6.5995 6.73565 1.65994
45 1 3 -0.11508 27.399 19.957 14.1117
46 1 3 -0.11508 9.13299 1.13474 0.802379
47 1 3 -0.11508 27.399 11.6806 8.25944
48 1 3 -0.11508 9.13299 9.41113 6.65468
49 1 3 -0.11508 23.8152 13.7497 14.1117
50 1 3 -0.11508 12.7168 7.34203 0.802379
51 1 3 -0.11508 30.9828 17.8879 8.25944
52 1 3 -0.11508 5.54921 3.20384 6.65468
53 1 3 -0.11508 23.8152 17.8879 8.25944
54 1 3 -0.11508 12.7168 3.20384 6.65468
55 1 3 -0.11508 30.9828 13.7497 14.1117
56 1 3 -0.11508 5.54921 7.34203 0.802379
57 1 3 -0.0559 18.266 5.39949 13.5316
58 1 3 -0.0559 18.266 15.6923 1.38254
59 1 3 -0.055903 18.266 14.5575 0.580159
60 1 3 -0.055903 18.266 6.53422 14.334
61 1 3 -0.0559 26.1971 11.1132 7.85825
62 1 3 -0.0559 10.3349 9.9785 7.05587
63 1 3 -0.055903 10.3349 11.1132 7.85825
64 1 3 -0.055903 26.1971 9.9785 7.05587
65 1 3 -0.0559 14.7918 8.54005 0.580159
66 1 3 -0.0559 21.7402 12.5517 14.334
67 1 3 -0.055903 22.7229 13.1191 13.5316
68 1 3 -0.055903 13.8091 7.97268 1.38254
69 1 3 -0.0559 21.7402 3.39366 7.85825
70 1 3 -0.0559 14.7918 17.6981 7.05587
71 1 3 -0.055903 13.8091 17.1307 7.85825
72 1 3 -0.055903 22.7229 3.96103 7.05587
73 1 3 -0.055901 22.7229 17.1307 7.85825
74 1 3 -0.055901 13.8091 3.96103 7.05587
75 1 3 -0.055903 14.7918 3.39366 7.85825
76 1 3 -0.055903 21.7402 17.6981 7.05587
77 1 3 -0.0559 21.7402 8.54005 0.580159
78 1 3 -0.0559 14.7918 12.5517 14.334
79 1 3 -0.055903 13.8091 13.1191 13.5316
80 1 3 -0.055903 22.7229 7.97268 1.38254
81 1 4 -1.26215 27.399 15.8188 11.1856
82 1 4 -1.26215 9.13299 5.27293 3.72853
83 1 4 -0.60118 27.399 18.9383 11.9641
84 1 4 -0.60118 9.13299 2.15347 2.95001
85 1 4 -0.601179 27.399 17.5926 13.8671
86 1 4 -0.601179 9.13299 3.49912 1.04697
87 1 4 -0.601179 26.2336 13.3722 9.45555
88 1 4 -0.601179 10.2984 7.71958 5.45857
89 1 4 -0.60118 28.5643 13.3722 9.45555
90 1 4 -0.60118 7.96762 7.71958 5.45857
91 1 4 -0.60118 25.8628 14.9319 13.8671
92 1 4 -0.60118 10.6692 6.15984 1.04697
93 1 4 -0.601179 24.6974 14.2591 11.9641
94 1 4 -0.601179 11.8345 6.83267 2.95001
95 1 4 -0.60118 28.9351 18.0514 9.45555
96 1 4 -0.60118 7.59682 3.04037 5.45857
97 1 4 -0.601179 30.1005 16.0329 9.45555
98 1 4 -0.601179 6.43145 5.05885 5.45857
99 1 4 -0.601179 24.6974 16.0329 9.45555
100 1 4 -0.601179 11.8345 5.05885 5.45857
101 1 4 -0.60118 25.8628 18.0514 9.45555
102 1 4 -0.60118 10.6692 3.04037 5.45857
103 1 4 -0.60118 28.9351 14.9319 13.8671
104 1 4 -0.60118 7.59682 6.15984 1.04697
105 1 4 -0.60118 30.1005 14.2591 11.9641
106 1 4 -0.60118 6.43145 6.83267 2.95001
ITEM: TIMESTEP
98000
ITEM: NUMBER OF ATOMS
106
ITEM: BOX BOUNDS xy xz yz pp pp pp
0.0000000000000000e+00 3.6531964750000000e+01 9.1329911900000003e+00
0.0000000000000000e+00 2.1091739680000000e+01 9.1329911900000003e+00
0.0000000000000000e+00 1.4914112149999999e+01 5.2729349200000000e+00
ITEM: ATOMS id mol type q x y z
1 1 1 1.10383 27.399 17.6496 10.5383
2 1 1 1.10383 9.13299 3.44217 4.3758
3 1 1 1.10383 27.399 15.8188 13.1274
4 1 1 1.10383 9.13299 5.27293 1.78671
5 1 1 1.10383 25.8135 14.9034 10.5383
6 1 1 1.10383 10.7185 6.18832 4.3758
7 1 1 1.10383 28.9845 14.9034 10.5383
8 1 1 1.10383 7.5475 6.18832 4.3758
9 1 2 0.115889 18.266 5.48596 12.6084
10 1 2 0.115889 18.266 15.6058 2.30572
11 1 2 0.115888 18.266 13.716 0.969417
12 1 2 0.115888 18.266 7.37578 13.9447
13 1 2 0.11589 25.3934 11.4908 8.12521
14 1 2 0.11589 11.1386 9.60096 6.7889
15 1 2 0.115888 11.1386 11.4908 8.12521
16 1 2 0.115888 25.3934 9.60096 6.7889
17 1 2 0.115889 15.5206 8.96083 0.969417
18 1 2 0.115889 21.0114 12.1309 13.9447
19 1 2 0.115888 22.648 13.0758 12.6084
20 1 2 0.115888 13.884 8.01592 2.30572
21 1 2 0.115889 21.0114 3.90092 8.12521
22 1 2 0.115889 15.5206 17.1908 6.7889
23 1 2 0.115887 13.884 16.2459 8.12521
24 1 2 0.115887 22.648 4.84583 6.7889
25 1 2 0.115889 22.648 16.2459 8.12521
26 1 2 0.115889 13.884 4.84583 6.7889
27 1 2 0.115887 15.5206 3.90092 8.12521
28 1 2 0.115887 21.0114 17.1908 6.7889
29 1 2 0.115889 21.0114 8.96083 0.969417
30 1 2 0.115889 15.5206 12.1309 13.9447
31 1 2 0.115887 13.884 13.0758 12.6084
32 1 2 0.115887 22.648 8.01592 2.30572
33 1 3 0.671939 27.399 18.7442 13.2542
34 1 3 0.671939 9.13299 2.34751 1.65994
35 1 3 0.671939 27.399 12.8934 9.117
36 1 3 0.671939 9.13299 8.19836 5.79712
37 1 3 0.67194 24.8655 14.3561 13.2542
38 1 3 0.67194 11.6665 6.73565 1.65994
39 1 3 0.67194 29.9325 17.2815 9.117
40 1 3 0.67194 6.5995 3.81022 5.79712
41 1 3 0.67194 24.8655 17.2815 9.117
42 1 3 0.67194 11.6665 3.81022 5.79712
43 1 3 0.67194 29.9325 14.3561 13.2542
44 1 3 0.67194 6.5995 6.73565 1.65994
45 1 3 -0.11508 27.399 19.957 14.1117
46 1 3 -0.11508 9.13299 1.13474 0.802379
47 1 3 -0.11508 27.399 11.6806 8.25944
48 1 3 -0.11508 9.13299 9.41113 6.65468
49 1 3 -0.11508 23.8152 13.7497 14.1117
50 1 3 -0.11508 12.7168 7.34203 0.802379
51 1 3 -0.11508 30.9828 17.8879 8.25944
52 1 3 -0.11508 5.54921 3.20384 6.65468
53 1 3 -0.11508 23.8152 17.8879 8.25944
54 1 3 -0.11508 12.7168 3.20384 6.65468
55 1 3 -0.11508 30.9828 13.7497 14.1117
56 1 3 -0.11508 5.54921 7.34203 0.802379
57 1 3 -0.0559 18.266 5.39949 13.5316
58 1 3 -0.0559 18.266 15.6923 1.38254
59 1 3 -0.055903 18.266 14.5575 0.580159
60 1 3 -0.055903 18.266 6.53422 14.334
61 1 3 -0.0559 26.1971 11.1132 7.85825
62 1 3 -0.0559 10.3349 9.9785 7.05587
63 1 3 -0.055903 10.3349 11.1132 7.85825
64 1 3 -0.055903 26.1971 9.9785 7.05587
65 1 3 -0.0559 14.7918 8.54005 0.580159
66 1 3 -0.0559 21.7402 12.5517 14.334
67 1 3 -0.055903 22.7229 13.1191 13.5316
68 1 3 -0.055903 13.8091 7.97268 1.38254
69 1 3 -0.0559 21.7402 3.39366 7.85825
70 1 3 -0.0559 14.7918 17.6981 7.05587
71 1 3 -0.055903 13.8091 17.1307 7.85825
72 1 3 -0.055903 22.7229 3.96103 7.05587
73 1 3 -0.055901 22.7229 17.1307 7.85825
74 1 3 -0.055901 13.8091 3.96103 7.05587
75 1 3 -0.055903 14.7918 3.39366 7.85825
76 1 3 -0.055903 21.7402 17.6981 7.05587
77 1 3 -0.0559 21.7402 8.54005 0.580159
78 1 3 -0.0559 14.7918 12.5517 14.334
79 1 3 -0.055903 13.8091 13.1191 13.5316
80 1 3 -0.055903 22.7229 7.97268 1.38254
81 1 4 -1.26215 27.399 15.8188 11.1856
82 1 4 -1.26215 9.13299 5.27293 3.72853
83 1 4 -0.60118 27.399 18.9383 11.9641
84 1 4 -0.60118 9.13299 2.15347 2.95001
85 1 4 -0.601179 27.399 17.5926 13.8671
86 1 4 -0.601179 9.13299 3.49912 1.04697
87 1 4 -0.601179 26.2336 13.3722 9.45555
88 1 4 -0.601179 10.2984 7.71958 5.45857
89 1 4 -0.60118 28.5643 13.3722 9.45555
90 1 4 -0.60118 7.96762 7.71958 5.45857
91 1 4 -0.60118 25.8628 14.9319 13.8671
92 1 4 -0.60118 10.6692 6.15984 1.04697
93 1 4 -0.601179 24.6974 14.2591 11.9641
94 1 4 -0.601179 11.8345 6.83267 2.95001
95 1 4 -0.60118 28.9351 18.0514 9.45555
96 1 4 -0.60118 7.59682 3.04037 5.45857
97 1 4 -0.601179 30.1005 16.0329 9.45555
98 1 4 -0.601179 6.43145 5.05885 5.45857
99 1 4 -0.601179 24.6974 16.0329 9.45555
100 1 4 -0.601179 11.8345 5.05885 5.45857
101 1 4 -0.60118 25.8628 18.0514 9.45555
102 1 4 -0.60118 10.6692 3.04037 5.45857
103 1 4 -0.60118 28.9351 14.9319 13.8671
104 1 4 -0.60118 7.59682 6.15984 1.04697
105 1 4 -0.60118 30.1005 14.2591 11.9641
106 1 4 -0.60118 6.43145 6.83267 2.95001
ITEM: TIMESTEP
99000
ITEM: NUMBER OF ATOMS
106
ITEM: BOX BOUNDS xy xz yz pp pp pp
0.0000000000000000e+00 3.6531964750000000e+01 9.1329911900000003e+00
0.0000000000000000e+00 2.1091739680000000e+01 9.1329911900000003e+00
0.0000000000000000e+00 1.4914112149999999e+01 5.2729349200000000e+00
ITEM: ATOMS id mol type q x y z
1 1 1 1.10383 27.399 17.6496 10.5383
2 1 1 1.10383 9.13299 3.44217 4.3758
3 1 1 1.10383 27.399 15.8188 13.1274
4 1 1 1.10383 9.13299 5.27293 1.78671
5 1 1 1.10383 25.8135 14.9034 10.5383
6 1 1 1.10383 10.7185 6.18832 4.3758
7 1 1 1.10383 28.9845 14.9034 10.5383
8 1 1 1.10383 7.5475 6.18832 4.3758
9 1 2 0.115889 18.266 5.48596 12.6084
10 1 2 0.115889 18.266 15.6058 2.30572
11 1 2 0.115888 18.266 13.716 0.969417
12 1 2 0.115888 18.266 7.37578 13.9447
13 1 2 0.11589 25.3934 11.4908 8.12521
14 1 2 0.11589 11.1386 9.60096 6.7889
15 1 2 0.115888 11.1386 11.4908 8.12521
16 1 2 0.115888 25.3934 9.60096 6.7889
17 1 2 0.115889 15.5206 8.96083 0.969417
18 1 2 0.115889 21.0114 12.1309 13.9447
19 1 2 0.115888 22.648 13.0758 12.6084
20 1 2 0.115888 13.884 8.01592 2.30572
21 1 2 0.115889 21.0114 3.90092 8.12521
22 1 2 0.115889 15.5206 17.1908 6.7889
23 1 2 0.115887 13.884 16.2459 8.12521
24 1 2 0.115887 22.648 4.84583 6.7889
25 1 2 0.115889 22.648 16.2459 8.12521
26 1 2 0.115889 13.884 4.84583 6.7889
27 1 2 0.115887 15.5206 3.90092 8.12521
28 1 2 0.115887 21.0114 17.1908 6.7889
29 1 2 0.115889 21.0114 8.96083 0.969417
30 1 2 0.115889 15.5206 12.1309 13.9447
31 1 2 0.115887 13.884 13.0758 12.6084
32 1 2 0.115887 22.648 8.01592 2.30572
33 1 3 0.671939 27.399 18.7442 13.2542
34 1 3 0.671939 9.13299 2.34751 1.65994
35 1 3 0.671939 27.399 12.8934 9.117
36 1 3 0.671939 9.13299 8.19836 5.79712
37 1 3 0.67194 24.8655 14.3561 13.2542
38 1 3 0.67194 11.6665 6.73565 1.65994
39 1 3 0.67194 29.9325 17.2815 9.117
40 1 3 0.67194 6.5995 3.81022 5.79712
41 1 3 0.67194 24.8655 17.2815 9.117
42 1 3 0.67194 11.6665 3.81022 5.79712
43 1 3 0.67194 29.9325 14.3561 13.2542
44 1 3 0.67194 6.5995 6.73565 1.65994
45 1 3 -0.11508 27.399 19.957 14.1117
46 1 3 -0.11508 9.13299 1.13474 0.802379
47 1 3 -0.11508 27.399 11.6806 8.25944
48 1 3 -0.11508 9.13299 9.41113 6.65468
49 1 3 -0.11508 23.8152 13.7497 14.1117
50 1 3 -0.11508 12.7168 7.34203 0.802379
51 1 3 -0.11508 30.9828 17.8879 8.25944
52 1 3 -0.11508 5.54921 3.20384 6.65468
53 1 3 -0.11508 23.8152 17.8879 8.25944
54 1 3 -0.11508 12.7168 3.20384 6.65468
55 1 3 -0.11508 30.9828 13.7497 14.1117
56 1 3 -0.11508 5.54921 7.34203 0.802379
57 1 3 -0.0559 18.266 5.39949 13.5316
58 1 3 -0.0559 18.266 15.6923 1.38254
59 1 3 -0.055903 18.266 14.5575 0.580159
60 1 3 -0.055903 18.266 6.53422 14.334
61 1 3 -0.0559 26.1971 11.1132 7.85825
62 1 3 -0.0559 10.3349 9.9785 7.05587
63 1 3 -0.055903 10.3349 11.1132 7.85825
64 1 3 -0.055903 26.1971 9.9785 7.05587
65 1 3 -0.0559 14.7918 8.54005 0.580159
66 1 3 -0.0559 21.7402 12.5517 14.334
67 1 3 -0.055903 22.7229 13.1191 13.5316
68 1 3 -0.055903 13.8091 7.97268 1.38254
69 1 3 -0.0559 21.7402 3.39366 7.85825
70 1 3 -0.0559 14.7918 17.6981 7.05587
71 1 3 -0.055903 13.8091 17.1307 7.85825
72 1 3 -0.055903 22.7229 3.96103 7.05587
73 1 3 -0.055901 22.7229 17.1307 7.85825
74 1 3 -0.055901 13.8091 3.96103 7.05587
75 1 3 -0.055903 14.7918 3.39366 7.85825
76 1 3 -0.055903 21.7402 17.6981 7.05587
77 1 3 -0.0559 21.7402 8.54005 0.580159
78 1 3 -0.0559 14.7918 12.5517 14.334
79 1 3 -0.055903 13.8091 13.1191 13.5316
80 1 3 -0.055903 22.7229 7.97268 1.38254
81 1 4 -1.26215 27.399 15.8188 11.1856
82 1 4 -1.26215 9.13299 5.27293 3.72853
83 1 4 -0.60118 27.399 18.9383 11.9641
84 1 4 -0.60118 9.13299 2.15347 2.95001
85 1 4 -0.601179 27.399 17.5926 13.8671
86 1 4 -0.601179 9.13299 3.49912 1.04697
87 1 4 -0.601179 26.2336 13.3722 9.45555
88 1 4 -0.601179 10.2984 7.71958 5.45857
89 1 4 -0.60118 28.5643 13.3722 9.45555
90 1 4 -0.60118 7.96762 7.71958 5.45857
91 1 4 -0.60118 25.8628 14.9319 13.8671
92 1 4 -0.60118 10.6692 6.15984 1.04697
93 1 4 -0.601179 24.6974 14.2591 11.9641
94 1 4 -0.601179 11.8345 6.83267 2.95001
95 1 4 -0.60118 28.9351 18.0514 9.45555
96 1 4 -0.60118 7.59682 3.04037 5.45857
97 1 4 -0.601179 30.1005 16.0329 9.45555
98 1 4 -0.601179 6.43145 5.05885 5.45857
99 1 4 -0.601179 24.6974 16.0329 9.45555
100 1 4 -0.601179 11.8345 5.05885 5.45857
101 1 4 -0.60118 25.8628 18.0514 9.45555
102 1 4 -0.60118 10.6692 3.04037 5.45857
103 1 4 -0.60118 28.9351 14.9319 13.8671
104 1 4 -0.60118 7.59682 6.15984 1.04697
105 1 4 -0.60118 30.1005 14.2591 11.9641
106 1 4 -0.60118 6.43145 6.83267 2.95001
ITEM: TIMESTEP
100000
ITEM: NUMBER OF ATOMS
106
ITEM: BOX BOUNDS xy xz yz pp pp pp
0.0000000000000000e+00 3.6531964750000000e+01 9.1329911900000003e+00
0.0000000000000000e+00 2.1091739680000000e+01 9.1329911900000003e+00
0.0000000000000000e+00 1.4914112149999999e+01 5.2729349200000000e+00
ITEM: ATOMS id mol type q x y z
1 1 1 1.10383 27.399 17.6496 10.5383
2 1 1 1.10383 9.13299 3.44217 4.3758
3 1 1 1.10383 27.399 15.8188 13.1274
4 1 1 1.10383 9.13299 5.27293 1.78671
5 1 1 1.10383 25.8135 14.9034 10.5383
6 1 1 1.10383 10.7185 6.18832 4.3758
7 1 1 1.10383 28.9845 14.9034 10.5383
8 1 1 1.10383 7.5475 6.18832 4.3758
9 1 2 0.115889 18.266 5.48596 12.6084
10 1 2 0.115889 18.266 15.6058 2.30572
11 1 2 0.115888 18.266 13.716 0.969417
12 1 2 0.115888 18.266 7.37578 13.9447
13 1 2 0.11589 25.3934 11.4908 8.12521
14 1 2 0.11589 11.1386 9.60096 6.7889
15 1 2 0.115888 11.1386 11.4908 8.12521
16 1 2 0.115888 25.3934 9.60096 6.7889
17 1 2 0.115889 15.5206 8.96083 0.969417
18 1 2 0.115889 21.0114 12.1309 13.9447
19 1 2 0.115888 22.648 13.0758 12.6084
20 1 2 0.115888 13.884 8.01592 2.30572
21 1 2 0.115889 21.0114 3.90092 8.12521
22 1 2 0.115889 15.5206 17.1908 6.7889
23 1 2 0.115887 13.884 16.2459 8.12521
24 1 2 0.115887 22.648 4.84583 6.7889
25 1 2 0.115889 22.648 16.2459 8.12521
26 1 2 0.115889 13.884 4.84583 6.7889
27 1 2 0.115887 15.5206 3.90092 8.12521
28 1 2 0.115887 21.0114 17.1908 6.7889
29 1 2 0.115889 21.0114 8.96083 0.969417
30 1 2 0.115889 15.5206 12.1309 13.9447
31 1 2 0.115887 13.884 13.0758 12.6084
32 1 2 0.115887 22.648 8.01592 2.30572
33 1 3 0.671939 27.399 18.7442 13.2542
34 1 3 0.671939 9.13299 2.34751 1.65994
35 1 3 0.671939 27.399 12.8934 9.117
36 1 3 0.671939 9.13299 8.19836 5.79712
37 1 3 0.67194 24.8655 14.3561 13.2542
38 1 3 0.67194 11.6665 6.73565 1.65994
39 1 3 0.67194 29.9325 17.2815 9.117
40 1 3 0.67194 6.5995 3.81022 5.79712
41 1 3 0.67194 24.8655 17.2815 9.117
42 1 3 0.67194 11.6665 3.81022 5.79712
43 1 3 0.67194 29.9325 14.3561 13.2542
44 1 3 0.67194 6.5995 6.73565 1.65994
45 1 3 -0.11508 27.399 19.957 14.1117
46 1 3 -0.11508 9.13299 1.13474 0.802379
47 1 3 -0.11508 27.399 11.6806 8.25944
48 1 3 -0.11508 9.13299 9.41113 6.65468
49 1 3 -0.11508 23.8152 13.7497 14.1117
50 1 3 -0.11508 12.7168 7.34203 0.802379
51 1 3 -0.11508 30.9828 17.8879 8.25944
52 1 3 -0.11508 5.54921 3.20384 6.65468
53 1 3 -0.11508 23.8152 17.8879 8.25944
54 1 3 -0.11508 12.7168 3.20384 6.65468
55 1 3 -0.11508 30.9828 13.7497 14.1117
56 1 3 -0.11508 5.54921 7.34203 0.802379
57 1 3 -0.0559 18.266 5.39949 13.5316
58 1 3 -0.0559 18.266 15.6923 1.38254
59 1 3 -0.055903 18.266 14.5575 0.580159
60 1 3 -0.055903 18.266 6.53422 14.334
61 1 3 -0.0559 26.1971 11.1132 7.85825
62 1 3 -0.0559 10.3349 9.9785 7.05587
63 1 3 -0.055903 10.3349 11.1132 7.85825
64 1 3 -0.055903 26.1971 9.9785 7.05587
65 1 3 -0.0559 14.7918 8.54005 0.580159
66 1 3 -0.0559 21.7402 12.5517 14.334
67 1 3 -0.055903 22.7229 13.1191 13.5316
68 1 3 -0.055903 13.8091 7.97268 1.38254
69 1 3 -0.0559 21.7402 3.39366 7.85825
70 1 3 -0.0559 14.7918 17.6981 7.05587
71 1 3 -0.055903 13.8091 17.1307 7.85825
72 1 3 -0.055903 22.7229 3.96103 7.05587
73 1 3 -0.055901 22.7229 17.1307 7.85825
74 1 3 -0.055901 13.8091 3.96103 7.05587
75 1 3 -0.055903 14.7918 3.39366 7.85825
76 1 3 -0.055903 21.7402 17.6981 7.05587
77 1 3 -0.0559 21.7402 8.54005 0.580159
78 1 3 -0.0559 14.7918 12.5517 14.334
79 1 3 -0.055903 13.8091 13.1191 13.5316
80 1 3 -0.055903 22.7229 7.97268 1.38254
81 1 4 -1.26215 27.399 15.8188 11.1856
82 1 4 -1.26215 9.13299 5.27293 3.72853
83 1 4 -0.60118 27.399 18.9383 11.9641
84 1 4 -0.60118 9.13299 2.15347 2.95001
85 1 4 -0.601179 27.399 17.5926 13.8671
86 1 4 -0.601179 9.13299 3.49912 1.04697
87 1 4 -0.601179 26.2336 13.3722 9.45555
88 1 4 -0.601179 10.2984 7.71958 5.45857
89 1 4 -0.60118 28.5643 13.3722 9.45555
90 1 4 -0.60118 7.96762 7.71958 5.45857
91 1 4 -0.60118 25.8628 14.9319 13.8671
92 1 4 -0.60118 10.6692 6.15984 1.04697
93 1 4 -0.601179 24.6974 14.2591 11.9641
94 1 4 -0.601179 11.8345 6.83267 2.95001
95 1 4 -0.60118 28.9351 18.0514 9.45555
96 1 4 -0.60118 7.59682 3.04037 5.45857
97 1 4 -0.601179 30.1005 16.0329 9.45555
98 1 4 -0.601179 6.43145 5.05885 5.45857
99 1 4 -0.601179 24.6974 16.0329 9.45555
100 1 4 -0.601179 11.8345 5.05885 5.45857
101 1 4 -0.60118 25.8628 18.0514 9.45555
102 1 4 -0.60118 10.6692 3.04037 5.45857
103 1 4 -0.60118 28.9351 14.9319 13.8671
104 1 4 -0.60118 7.59682 6.15984 1.04697
105 1 4 -0.60118 30.1005 14.2591 11.9641
106 1 4 -0.60118 6.43145 6.83267 2.95001
