ITEM: TIMESTEP
0
ITEM: NUMBER OF ATOMS
106
ITEM: BOX BOUNDS xy xz yz pp pp pp
0.0000000000000000e+00 3.6531964750000000e+01 9.1329911900000003e+00
0.0000000000000000e+00 2.1091739680000000e+01 9.1329911900000003e+00
0.0000000000000000e+00 1.4914112149999999e+01 5.2729349200000000e+00
ITEM: ATOMS id mol type q x y z
1 1 1 1.10383 27.399 17.6496 10.5383
2 1 1 1.10383 9.13299 3.44217 4.3758
3 1 1 1.10383 27.399 15.8188 13.1274
4 1 1 1.10383 9.13299 5.27293 1.78671
5 1 1 1.10383 25.8135 14.9034 10.5383
6 1 1 1.10383 10.7185 6.18832 4.3758
7 1 1 1.10383 28.9845 14.9034 10.5383
8 1 1 1.10383 7.5475 6.18832 4.3758
9 1 2 0.115889 18.266 5.48596 12.6084
10 1 2 0.115889 18.266 15.6058 2.30572
11 1 2 0.115888 18.266 13.716 0.969417
12 1 2 0.115888 18.266 7.37578 13.9447
13 1 2 0.11589 25.3934 11.4908 8.12521
14 1 2 0.11589 11.1386 9.60096 6.7889
15 1 2 0.115888 11.1386 11.4908 8.12521
16 1 2 0.115888 25.3934 9.60096 6.7889
17 1 2 0.115889 15.5206 8.96083 0.969417
18 1 2 0.115889 21.0114 12.1309 13.9447
19 1 2 0.115888 22.648 13.0758 12.6084
20 1 2 0.115888 13.884 8.01592 2.30572
21 1 2 0.115889 21.0114 3.90092 8.12521
22 1 2 0.115889 15.5206 17.1908 6.7889
23 1 2 0.115887 13.884 16.2459 8.12521
24 1 2 0.115887 22.648 4.84583 6.7889
25 1 2 0.115889 22.648 16.2459 8.12521
26 1 2 0.115889 13.884 4.84583 6.7889
27 1 2 0.115887 15.5206 3.90092 8.12521
28 1 2 0.115887 21.0114 17.1908 6.7889
29 1 2 0.115889 21.0114 8.96083 0.969417
30 1 2 0.115889 15.5206 12.1309 13.9447
31 1 2 0.115887 13.884 13.0758 12.6084
32 1 2 0.115887 22.648 8.01592 2.30572
33 1 3 0.671939 27.399 18.7442 13.2542
34 1 3 0.671939 9.13299 2.34751 1.65994
35 1 3 0.671939 27.399 12.8934 9.117
36 1 3 0.671939 9.13299 8.19836 5.79712
37 1 3 0.67194 24.8655 14.3561 13.2542
38 1 3 0.67194 11.6665 6.73565 1.65994
39 1 3 0.67194 29.9325 17.2815 9.117
40 1 3 0.67194 6.5995 3.81022 5.79712
41 1 3 0.67194 24.8655 17.2815 9.117
42 1 3 0.67194 11.6665 3.81022 5.79712
43 1 3 0.67194 29.9325 14.3561 13.2542
44 1 3 0.67194 6.5995 6.73565 1.65994
45 1 3 -0.11508 27.399 19.957 14.1117
46 1 3 -0.11508 9.13299 1.13474 0.802379
47 1 3 -0.11508 27.399 11.6806 8.25944
48 1 3 -0.11508 9.13299 9.41113 6.65468
49 1 3 -0.11508 23.8152 13.7497 14.1117
50 1 3 -0.11508 12.7168 7.34203 0.802379
51 1 3 -0.11508 30.9828 17.8879 8.25944
52 1 3 -0.11508 5.54921 3.20384 6.65468
53 1 3 -0.11508 23.8152 17.8879 8.25944
54 1 3 -0.11508 12.7168 3.20384 6.65468
55 1 3 -0.11508 30.9828 13.7497 14.1117
56 1 3 -0.11508 5.54921 7.34203 0.802379
57 1 3 -0.0559 18.266 5.39949 13.5316
58 1 3 -0.0559 18.266 15.6923 1.38254
59 1 3 -0.055903 18.266 14.5575 0.580159
60 1 3 -0.055903 18.266 6.53422 14.334
61 1 3 -0.0559 26.1971 11.1132 7.85825
62 1 3 -0.0559 10.3349 9.9785 7.05587
63 1 3 -0.055903 10.3349 11.1132 7.85825
64 1 3 -0.055903 26.1971 9.9785 7.05587
65 1 3 -0.0559 14.7918 8.54005 0.580159
66 1 3 -0.0559 21.7402 12.5517 14.334
67 1 3 -0.055903 22.7229 13.1191 13.5316
68 1 3 -0.055903 13.8091 7.97268 1.38254
69 1 3 -0.0559 21.7402 3.39366 7.85825
70 1 3 -0.0559 14.7918 17.6981 7.05587
71 1 3 -0.055903 13.8091 17.1307 7.85825
72 1 3 -0.055903 22.7229 3.96103 7.05587
73 1 3 -0.055901 22.7229 17.1307 7.85825
74 1 3 -0.055901 13.8091 3.96103 7.05587
75 1 3 -0.055903 14.7918 3.39366 7.85825
76 1 3 -0.055903 21.7402 17.6981 7.05587
77 1 3 -0.0559 21.7402 8.54005 0.580159
78 1 3 -0.0559 14.7918 12.5517 14.334
79 1 3 -0.055903 13.8091 13.1191 13.5316
80 1 3 -0.055903 22.7229 7.97268 1.38254
81 1 4 -1.26215 27.399 15.8188 11.1856
82 1 4 -1.26215 9.13299 5.27293 3.72853
83 1 4 -0.60118 27.399 18.9383 11.9641
84 1 4 -0.60118 9.13299 2.15347 2.95001
85 1 4 -0.601179 27.399 17.5926 13.8671
86 1 4 -0.601179 9.13299 3.49912 1.04697
87 1 4 -0.601179 26.2336 13.3722 9.45555
88 1 4 -0.601179 10.2984 7.71958 5.45857
89 1 4 -0.60118 28.5643 13.3722 9.45555
90 1 4 -0.60118 7.96762 7.71958 5.45857
91 1 4 -0.60118 25.8628 14.9319 13.8671
92 1 4 -0.60118 10.6692 6.15984 1.04697
93 1 4 -0.601179 24.6974 14.2591 11.9641
94 1 4 -0.601179 11.8345 6.83267 2.95001
95 1 4 -0.60118 28.9351 18.0514 9.45555
96 1 4 -0.60118 7.59682 3.04037 5.45857
97 1 4 -0.601179 30.1005 16.0329 9.45555
98 1 4 -0.601179 6.43145 5.05885 5.45857
99 1 4 -0.601179 24.6974 16.0329 9.45555
100 1 4 -0.601179 11.8345 5.05885 5.45857
101 1 4 -0.60118 25.8628 18.0514 9.45555
102 1 4 -0.60118 10.6692 3.04037 5.45857
103 1 4 -0.60118 28.9351 14.9319 13.8671
104 1 4 -0.60118 7.59682 6.15984 1.04697
105 1 4 -0.60118 30.1005 14.2591 11.9641
106 1 4 -0.60118 6.43145 6.83267 2.95001
ITEM: TIMESTEP
1000
ITEM: NUMBER OF ATOMS
121
ITEM: BOX BOUNDS xy xz yz pp pp pp
0.0000000000000000e+00 3.6531964750000000e+01 9.1329911900000003e+00
0.0000000000000000e+00 2.1091739680000000e+01 9.1329911900000003e+00
0.0000000000000000e+00 1.4914112149999999e+01 5.2729349200000000e+00
ITEM: ATOMS id mol type q x y z
1 1 1 1.10383 27.399 17.6496 10.5383
2 1 1 1.10383 9.13299 3.44217 4.3758
3 1 1 1.10383 27.399 15.8188 13.1274
4 1 1 1.10383 9.13299 5.27293 1.78671
5 1 1 1.10383 25.8135 14.9034 10.5383
6 1 1 1.10383 10.7185 6.18832 4.3758
7 1 1 1.10383 28.9845 14.9034 10.5383
8 1 1 1.10383 7.5475 6.18832 4.3758
9 1 2 0.115889 18.266 5.48596 12.6084
10 1 2 0.115889 18.266 15.6058 2.30572
11 1 2 0.115888 18.266 13.716 0.969417
12 1 2 0.115888 18.266 7.37578 13.9447
13 1 2 0.11589 25.3934 11.4908 8.12521
14 1 2 0.11589 11.1386 9.60096 6.7889
15 1 2 0.115888 11.1386 11.4908 8.12521
16 1 2 0.115888 25.3934 9.60096 6.7889
17 1 2 0.115889 15.5206 8.96083 0.969417
18 1 2 0.115889 21.0114 12.1309 13.9447
19 1 2 0.115888 22.648 13.0758 12.6084
20 1 2 0.115888 13.884 8.01592 2.30572
21 1 2 0.115889 21.0114 3.90092 8.12521
22 1 2 0.115889 15.5206 17.1908 6.7889
23 1 2 0.115887 13.884 16.2459 8.12521
24 1 2 0.115887 22.648 4.84583 6.7889
25 1 2 0.115889 22.648 16.2459 8.12521
26 1 2 0.115889 13.884 4.84583 6.7889
27 1 2 0.115887 15.5206 3.90092 8.12521
28 1 2 0.115887 21.0114 17.1908 6.7889
29 1 2 0.115889 21.0114 8.96083 0.969417
30 1 2 0.115889 15.5206 12.1309 13.9447
31 1 2 0.115887 13.884 13.0758 12.6084
32 1 2 0.115887 22.648 8.01592 2.30572
33 1 3 0.671939 27.399 18.7442 13.2542
34 1 3 0.671939 9.13299 2.34751 1.65994
35 1 3 0.671939 27.399 12.8934 9.117
36 1 3 0.671939 9.13299 8.19836 5.79712
37 1 3 0.67194 24.8655 14.3561 13.2542
38 1 3 0.67194 11.6665 6.73565 1.65994
39 1 3 0.67194 29.9325 17.2815 9.117
40 1 3 0.67194 6.5995 3.81022 5.79712
41 1 3 0.67194 24.8655 17.2815 9.117
42 1 3 0.67194 11.6665 3.81022 5.79712
43 1 3 0.67194 29.9325 14.3561 13.2542
44 1 3 0.67194 6.5995 6.73565 1.65994
45 1 3 -0.11508 27.399 19.957 14.1117
46 1 3 -0.11508 9.13299 1.13474 0.802379
47 1 3 -0.11508 27.399 11.6806 8.25944
48 1 3 -0.11508 9.13299 9.41113 6.65468
49 1 3 -0.11508 23.8152 13.7497 14.1117
50 1 3 -0.11508 12.7168 7.34203 0.802379
51 1 3 -0.11508 30.9828 17.8879 8.25944
52 1 3 -0.11508 5.54921 3.20384 6.65468
53 1 3 -0.11508 23.8152 17.8879 8.25944
54 1 3 -0.11508 12.7168 3.20384 6.65468
55 1 3 -0.11508 30.9828 13.7497 14.1117
56 1 3 -0.11508 5.54921 7.34203 0.802379
57 1 3 -0.0559 18.266 5.39949 13.5316
58 1 3 -0.0559 18.266 15.6923 1.38254
59 1 3 -0.055903 18.266 14.5575 0.580159
60 1 3 -0.055903 18.266 6.53422 14.334
61 1 3 -0.0559 26.1971 11.1132 7.85825
62 1 3 -0.0559 10.3349 9.9785 7.05587
63 1 3 -0.055903 10.3349 11.1132 7.85825
64 1 3 -0.055903 26.1971 9.9785 7.05587
65 1 3 -0.0559 14.7918 8.54005 0.580159
66 1 3 -0.0559 21.7402 12.5517 14.334
67 1 3 -0.055903 22.7229 13.1191 13.5316
68 1 3 -0.055903 13.8091 7.97268 1.38254
69 1 3 -0.0559 21.7402 3.39366 7.85825
70 1 3 -0.0559 14.7918 17.6981 7.05587
71 1 3 -0.055903 13.8091 17.1307 7.85825
72 1 3 -0.055903 22.7229 3.96103 7.05587
73 1 3 -0.055901 22.7229 17.1307 7.85825
74 1 3 -0.055901 13.8091 3.96103 7.05587
75 1 3 -0.055903 14.7918 3.39366 7.85825
76 1 3 -0.055903 21.7402 17.6981 7.05587
77 1 3 -0.0559 21.7402 8.54005 0.580159
78 1 3 -0.0559 14.7918 12.5517 14.334
79 1 3 -0.055903 13.8091 13.1191 13.5316
80 1 3 -0.055903 22.7229 7.97268 1.38254
81 1 4 -1.26215 27.399 15.8188 11.1856
82 1 4 -1.26215 9.13299 5.27293 3.72853
83 1 4 -0.60118 27.399 18.9383 11.9641
84 1 4 -0.60118 9.13299 2.15347 2.95001
85 1 4 -0.601179 27.399 17.5926 13.8671
86 1 4 -0.601179 9.13299 3.49912 1.04697
87 1 4 -0.601179 26.2336 13.3722 9.45555
88 1 4 -0.601179 10.2984 7.71958 5.45857
89 1 4 -0.60118 28.5643 13.3722 9.45555
90 1 4 -0.60118 7.96762 7.71958 5.45857
91 1 4 -0.60118 25.8628 14.9319 13.8671
92 1 4 -0.60118 10.6692 6.15984 1.04697
93 1 4 -0.601179 24.6974 14.2591 11.9641
94 1 4 -0.601179 11.8345 6.83267 2.95001
95 1 4 -0.60118 28.9351 18.0514 9.45555
96 1 4 -0.60118 7.59682 3.04037 5.45857
97 1 4 -0.601179 30.1005 16.0329 9.45555
98 1 4 -0.601179 6.43145 5.05885 5.45857
99 1 4 -0.601179 24.6974 16.0329 9.45555
100 1 4 -0.601179 11.8345 5.05885 5.45857
101 1 4 -0.60118 25.8628 18.0514 9.45555
102 1 4 -0.60118 10.6692 3.04037 5.45857
103 1 4 -0.60118 28.9351 14.9319 13.8671
104 1 4 -0.60118 7.59682 6.15984 1.04697
105 1 4 -0.60118 30.1005 14.2591 11.9641
106 1 4 -0.60118 6.43145 6.83267 2.95001
380 93 5 -0.35 19.9508 2.53901 5.27869
381 93 6 0.7 29.1224 17.2292 5.01343
382 93 5 -0.35 29.161 16.1006 4.74818
386 95 5 -0.35 25.9628 15.2492 7.17632
387 95 6 0.7 25.1824 14.5213 6.72167
388 95 5 -0.35 24.402 13.7933 6.26701
425 108 5 -0.35 29.1569 11.0648 12.2959
426 108 6 0.7 11.4661 10.4633 11.4878
427 108 5 -0.35 12.0413 9.86172 10.6798
440 113 5 -0.35 10.6835 10.4281 0.186235
441 113 6 0.7 19.0298 15.4315 14.2916
442 113 5 -0.35 18.2431 15.162 13.4829
446 115 5 -0.35 21.1797 12.0331 0.773253
447 115 6 0.7 30.4399 17.4241 14.5404
448 115 5 -0.35 30.567 17.5421 13.3935
ITEM: TIMESTEP
2000
ITEM: NUMBER OF ATOMS
121
ITEM: BOX BOUNDS xy xz yz pp pp pp
0.0000000000000000e+00 3.6531964750000000e+01 9.1329911900000003e+00
0.0000000000000000e+00 2.1091739680000000e+01 9.1329911900000003e+00
0.0000000000000000e+00 1.4914112149999999e+01 5.2729349200000000e+00
ITEM: ATOMS id mol type q x y z
1 1 1 1.10383 27.399 17.6496 10.5383
2 1 1 1.10383 9.13299 3.44217 4.3758
3 1 1 1.10383 27.399 15.8188 13.1274
4 1 1 1.10383 9.13299 5.27293 1.78671
5 1 1 1.10383 25.8135 14.9034 10.5383
6 1 1 1.10383 10.7185 6.18832 4.3758
7 1 1 1.10383 28.9845 14.9034 10.5383
8 1 1 1.10383 7.5475 6.18832 4.3758
9 1 2 0.115889 18.266 5.48596 12.6084
10 1 2 0.115889 18.266 15.6058 2.30572
11 1 2 0.115888 18.266 13.716 0.969417
12 1 2 0.115888 18.266 7.37578 13.9447
13 1 2 0.11589 25.3934 11.4908 8.12521
14 1 2 0.11589 11.1386 9.60096 6.7889
15 1 2 0.115888 11.1386 11.4908 8.12521
16 1 2 0.115888 25.3934 9.60096 6.7889
17 1 2 0.115889 15.5206 8.96083 0.969417
18 1 2 0.115889 21.0114 12.1309 13.9447
19 1 2 0.115888 22.648 13.0758 12.6084
20 1 2 0.115888 13.884 8.01592 2.30572
21 1 2 0.115889 21.0114 3.90092 8.12521
22 1 2 0.115889 15.5206 17.1908 6.7889
23 1 2 0.115887 13.884 16.2459 8.12521
24 1 2 0.115887 22.648 4.84583 6.7889
25 1 2 0.115889 22.648 16.2459 8.12521
26 1 2 0.115889 13.884 4.84583 6.7889
27 1 2 0.115887 15.5206 3.90092 8.12521
28 1 2 0.115887 21.0114 17.1908 6.7889
29 1 2 0.115889 21.0114 8.96083 0.969417
30 1 2 0.115889 15.5206 12.1309 13.9447
31 1 2 0.115887 13.884 13.0758 12.6084
32 1 2 0.115887 22.648 8.01592 2.30572
33 1 3 0.671939 27.399 18.7442 13.2542
34 1 3 0.671939 9.13299 2.34751 1.65994
35 1 3 0.671939 27.399 12.8934 9.117
36 1 3 0.671939 9.13299 8.19836 5.79712
37 1 3 0.67194 24.8655 14.3561 13.2542
38 1 3 0.67194 11.6665 6.73565 1.65994
39 1 3 0.67194 29.9325 17.2815 9.117
40 1 3 0.67194 6.5995 3.81022 5.79712
41 1 3 0.67194 24.8655 17.2815 9.117
42 1 3 0.67194 11.6665 3.81022 5.79712
43 1 3 0.67194 29.9325 14.3561 13.2542
44 1 3 0.67194 6.5995 6.73565 1.65994
45 1 3 -0.11508 27.399 19.957 14.1117
46 1 3 -0.11508 9.13299 1.13474 0.802379
47 1 3 -0.11508 27.399 11.6806 8.25944
48 1 3 -0.11508 9.13299 9.41113 6.65468
49 1 3 -0.11508 23.8152 13.7497 14.1117
50 1 3 -0.11508 12.7168 7.34203 0.802379
51 1 3 -0.11508 30.9828 17.8879 8.25944
52 1 3 -0.11508 5.54921 3.20384 6.65468
53 1 3 -0.11508 23.8152 17.8879 8.25944
54 1 3 -0.11508 12.7168 3.20384 6.65468
55 1 3 -0.11508 30.9828 13.7497 14.1117
56 1 3 -0.11508 5.54921 7.34203 0.802379
57 1 3 -0.0559 18.266 5.39949 13.5316
58 1 3 -0.0559 18.266 15.6923 1.38254
59 1 3 -0.055903 18.266 14.5575 0.580159
60 1 3 -0.055903 18.266 6.53422 14.334
61 1 3 -0.0559 26.1971 11.1132 7.85825
62 1 3 -0.0559 10.3349 9.9785 7.05587
63 1 3 -0.055903 10.3349 11.1132 7.85825
64 1 3 -0.055903 26.1971 9.9785 7.05587
65 1 3 -0.0559 14.7918 8.54005 0.580159
66 1 3 -0.0559 21.7402 12.5517 14.334
67 1 3 -0.055903 22.7229 13.1191 13.5316
68 1 3 -0.055903 13.8091 7.97268 1.38254
69 1 3 -0.0559 21.7402 3.39366 7.85825
70 1 3 -0.0559 14.7918 17.6981 7.05587
71 1 3 -0.055903 13.8091 17.1307 7.85825
72 1 3 -0.055903 22.7229 3.96103 7.05587
73 1 3 -0.055901 22.7229 17.1307 7.85825
74 1 3 -0.055901 13.8091 3.96103 7.05587
75 1 3 -0.055903 14.7918 3.39366 7.85825
76 1 3 -0.055903 21.7402 17.6981 7.05587
77 1 3 -0.0559 21.7402 8.54005 0.580159
78 1 3 -0.0559 14.7918 12.5517 14.334
79 1 3 -0.055903 13.8091 13.1191 13.5316
80 1 3 -0.055903 22.7229 7.97268 1.38254
81 1 4 -1.26215 27.399 15.8188 11.1856
82 1 4 -1.26215 9.13299 5.27293 3.72853
83 1 4 -0.60118 27.399 18.9383 11.9641
84 1 4 -0.60118 9.13299 2.15347 2.95001
85 1 4 -0.601179 27.399 17.5926 13.8671
86 1 4 -0.601179 9.13299 3.49912 1.04697
87 1 4 -0.601179 26.2336 13.3722 9.45555
88 1 4 -0.601179 10.2984 7.71958 5.45857
89 1 4 -0.60118 28.5643 13.3722 9.45555
90 1 4 -0.60118 7.96762 7.71958 5.45857
91 1 4 -0.60118 25.8628 14.9319 13.8671
92 1 4 -0.60118 10.6692 6.15984 1.04697
93 1 4 -0.601179 24.6974 14.2591 11.9641
94 1 4 -0.601179 11.8345 6.83267 2.95001
95 1 4 -0.60118 28.9351 18.0514 9.45555
96 1 4 -0.60118 7.59682 3.04037 5.45857
97 1 4 -0.601179 30.1005 16.0329 9.45555
98 1 4 -0.601179 6.43145 5.05885 5.45857
99 1 4 -0.601179 24.6974 16.0329 9.45555
100 1 4 -0.601179 11.8345 5.05885 5.45857
101 1 4 -0.60118 25.8628 18.0514 9.45555
102 1 4 -0.60118 10.6692 3.04037 5.45857
103 1 4 -0.60118 28.9351 14.9319 13.8671
104 1 4 -0.60118 7.59682 6.15984 1.04697
105 1 4 -0.60118 30.1005 14.2591 11.9641
106 1 4 -0.60118 6.43145 6.83267 2.95001
1820 573 5 -0.35 22.7389 7.69837 5.91147
1821 573 6 0.7 22.0752 7.09866 5.17288
1822 573 5 -0.35 21.4116 6.49895 4.43429
1850 583 5 -0.35 23.9817 8.27668 9.407
1851 583 6 0.7 24.5893 7.43916 8.88259
1852 583 5 -0.35 25.1969 6.60165 8.35819
1901 600 5 -0.35 29.3009 14.8615 6.08291
1902 600 6 0.7 12.0133 15.0721 5.49623
1903 600 5 -0.35 12.9916 15.2827 4.90954
1916 605 5 -0.35 25.1917 10.2401 11.5318
1917 605 6 0.7 24.0458 10.1016 11.6463
1918 605 5 -0.35 22.8998 9.96302 11.7608
1919 606 5 -0.35 21.3173 9.85753 8.69204
1920 606 6 0.7 22.2488 10.5489 8.6899
1921 606 5 -0.35 23.1803 11.2402 8.68777
ITEM: TIMESTEP
3000
ITEM: NUMBER OF ATOMS
124
ITEM: BOX BOUNDS xy xz yz pp pp pp
0.0000000000000000e+00 3.6531964750000000e+01 9.1329911900000003e+00
0.0000000000000000e+00 2.1091739680000000e+01 9.1329911900000003e+00
0.0000000000000000e+00 1.4914112149999999e+01 5.2729349200000000e+00
ITEM: ATOMS id mol type q x y z
1 1 1 1.10383 27.399 17.6496 10.5383
2 1 1 1.10383 9.13299 3.44217 4.3758
3 1 1 1.10383 27.399 15.8188 13.1274
4 1 1 1.10383 9.13299 5.27293 1.78671
5 1 1 1.10383 25.8135 14.9034 10.5383
6 1 1 1.10383 10.7185 6.18832 4.3758
7 1 1 1.10383 28.9845 14.9034 10.5383
8 1 1 1.10383 7.5475 6.18832 4.3758
9 1 2 0.115889 18.266 5.48596 12.6084
10 1 2 0.115889 18.266 15.6058 2.30572
11 1 2 0.115888 18.266 13.716 0.969417
12 1 2 0.115888 18.266 7.37578 13.9447
13 1 2 0.11589 25.3934 11.4908 8.12521
14 1 2 0.11589 11.1386 9.60096 6.7889
15 1 2 0.115888 11.1386 11.4908 8.12521
16 1 2 0.115888 25.3934 9.60096 6.7889
17 1 2 0.115889 15.5206 8.96083 0.969417
18 1 2 0.115889 21.0114 12.1309 13.9447
19 1 2 0.115888 22.648 13.0758 12.6084
20 1 2 0.115888 13.884 8.01592 2.30572
21 1 2 0.115889 21.0114 3.90092 8.12521
22 1 2 0.115889 15.5206 17.1908 6.7889
23 1 2 0.115887 13.884 16.2459 8.12521
24 1 2 0.115887 22.648 4.84583 6.7889
25 1 2 0.115889 22.648 16.2459 8.12521
26 1 2 0.115889 13.884 4.84583 6.7889
27 1 2 0.115887 15.5206 3.90092 8.12521
28 1 2 0.115887 21.0114 17.1908 6.7889
29 1 2 0.115889 21.0114 8.96083 0.969417
30 1 2 0.115889 15.5206 12.1309 13.9447
31 1 2 0.115887 13.884 13.0758 12.6084
32 1 2 0.115887 22.648 8.01592 2.30572
33 1 3 0.671939 27.399 18.7442 13.2542
34 1 3 0.671939 9.13299 2.34751 1.65994
35 1 3 0.671939 27.399 12.8934 9.117
36 1 3 0.671939 9.13299 8.19836 5.79712
37 1 3 0.67194 24.8655 14.3561 13.2542
38 1 3 0.67194 11.6665 6.73565 1.65994
39 1 3 0.67194 29.9325 17.2815 9.117
40 1 3 0.67194 6.5995 3.81022 5.79712
41 1 3 0.67194 24.8655 17.2815 9.117
42 1 3 0.67194 11.6665 3.81022 5.79712
43 1 3 0.67194 29.9325 14.3561 13.2542
44 1 3 0.67194 6.5995 6.73565 1.65994
45 1 3 -0.11508 27.399 19.957 14.1117
46 1 3 -0.11508 9.13299 1.13474 0.802379
47 1 3 -0.11508 27.399 11.6806 8.25944
48 1 3 -0.11508 9.13299 9.41113 6.65468
49 1 3 -0.11508 23.8152 13.7497 14.1117
50 1 3 -0.11508 12.7168 7.34203 0.802379
51 1 3 -0.11508 30.9828 17.8879 8.25944
52 1 3 -0.11508 5.54921 3.20384 6.65468
53 1 3 -0.11508 23.8152 17.8879 8.25944
54 1 3 -0.11508 12.7168 3.20384 6.65468
55 1 3 -0.11508 30.9828 13.7497 14.1117
56 1 3 -0.11508 5.54921 7.34203 0.802379
57 1 3 -0.0559 18.266 5.39949 13.5316
58 1 3 -0.0559 18.266 15.6923 1.38254
59 1 3 -0.055903 18.266 14.5575 0.580159
60 1 3 -0.055903 18.266 6.53422 14.334
61 1 3 -0.0559 26.1971 11.1132 7.85825
62 1 3 -0.0559 10.3349 9.9785 7.05587
63 1 3 -0.055903 10.3349 11.1132 7.85825
64 1 3 -0.055903 26.1971 9.9785 7.05587
65 1 3 -0.0559 14.7918 8.54005 0.580159
66 1 3 -0.0559 21.7402 12.5517 14.334
67 1 3 -0.055903 22.7229 13.1191 13.5316
68 1 3 -0.055903 13.8091 7.97268 1.38254
69 1 3 -0.0559 21.7402 3.39366 7.85825
70 1 3 -0.0559 14.7918 17.6981 7.05587
71 1 3 -0.055903 13.8091 17.1307 7.85825
72 1 3 -0.055903 22.7229 3.96103 7.05587
73 1 3 -0.055901 22.7229 17.1307 7.85825
74 1 3 -0.055901 13.8091 3.96103 7.05587
75 1 3 -0.055903 14.7918 3.39366 7.85825
76 1 3 -0.055903 21.7402 17.6981 7.05587
77 1 3 -0.0559 21.7402 8.54005 0.580159
78 1 3 -0.0559 14.7918 12.5517 14.334
79 1 3 -0.055903 13.8091 13.1191 13.5316
80 1 3 -0.055903 22.7229 7.97268 1.38254
81 1 4 -1.26215 27.399 15.8188 11.1856
82 1 4 -1.26215 9.13299 5.27293 3.72853
83 1 4 -0.60118 27.399 18.9383 11.9641
84 1 4 -0.60118 9.13299 2.15347 2.95001
85 1 4 -0.601179 27.399 17.5926 13.8671
86 1 4 -0.601179 9.13299 3.49912 1.04697
87 1 4 -0.601179 26.2336 13.3722 9.45555
88 1 4 -0.601179 10.2984 7.71958 5.45857
89 1 4 -0.60118 28.5643 13.3722 9.45555
90 1 4 -0.60118 7.96762 7.71958 5.45857
91 1 4 -0.60118 25.8628 14.9319 13.8671
92 1 4 -0.60118 10.6692 6.15984 1.04697
93 1 4 -0.601179 24.6974 14.2591 11.9641
94 1 4 -0.601179 11.8345 6.83267 2.95001
95 1 4 -0.60118 28.9351 18.0514 9.45555
96 1 4 -0.60118 7.59682 3.04037 5.45857
97 1 4 -0.601179 30.1005 16.0329 9.45555
98 1 4 -0.601179 6.43145 5.05885 5.45857
99 1 4 -0.601179 24.6974 16.0329 9.45555
100 1 4 -0.601179 11.8345 5.05885 5.45857
101 1 4 -0.60118 25.8628 18.0514 9.45555
102 1 4 -0.60118 10.6692 3.04037 5.45857
103 1 4 -0.60118 28.9351 14.9319 13.8671
104 1 4 -0.60118 7.59682 6.15984 1.04697
105 1 4 -0.60118 30.1005 14.2591 11.9641
106 1 4 -0.60118 6.43145 6.83267 2.95001
2969 956 5 -0.35 31.0003 18.0153 14.6826
2970 956 6 0.7 30.9504 17.792 13.5454
2971 956 5 -0.35 30.9004 17.5687 12.4082
3017 972 5 -0.35 7.98319 9.65577 2.44086
3018 972 6 0.7 7.91363 10.5039 3.22919
3019 972 5 -0.35 26.11 11.352 4.01752
3095 998 5 -0.35 23.9752 18.1332 13.3431
3096 998 6 0.7 22.9605 17.8572 12.8533
3097 998 5 -0.35 21.9459 17.5811 12.3635
3098 999 5 -0.35 9.85163 9.45999 0.0602064
3099 999 6 0.7 18.9103 14.3274 13.8901
3100 999 5 -0.35 18.836 13.9218 12.8058
3200 1033 5 -0.35 11.9491 11.465 3.48011
3201 1033 6 0.7 13.033 11.2997 3.10144
3202 1033 5 -0.35 14.1169 11.1344 2.72276
3221 1040 5 -0.35 14.7309 13.3817 6.8025
3222 1040 6 0.7 14.7734 13.8699 5.75112
3223 1040 5 -0.35 14.816 14.3582 4.69974
ITEM: TIMESTEP
4000
ITEM: NUMBER OF ATOMS
136
ITEM: BOX BOUNDS xy xz yz pp pp pp
0.0000000000000000e+00 3.6531964750000000e+01 9.1329911900000003e+00
0.0000000000000000e+00 2.1091739680000000e+01 9.1329911900000003e+00
0.0000000000000000e+00 1.4914112149999999e+01 5.2729349200000000e+00
ITEM: ATOMS id mol type q x y z
1 1 1 1.10383 27.399 17.6496 10.5383
2 1 1 1.10383 9.13299 3.44217 4.3758
3 1 1 1.10383 27.399 15.8188 13.1274
4 1 1 1.10383 9.13299 5.27293 1.78671
5 1 1 1.10383 25.8135 14.9034 10.5383
6 1 1 1.10383 10.7185 6.18832 4.3758
7 1 1 1.10383 28.9845 14.9034 10.5383
8 1 1 1.10383 7.5475 6.18832 4.3758
9 1 2 0.115889 18.266 5.48596 12.6084
10 1 2 0.115889 18.266 15.6058 2.30572
11 1 2 0.115888 18.266 13.716 0.969417
12 1 2 0.115888 18.266 7.37578 13.9447
13 1 2 0.11589 25.3934 11.4908 8.12521
14 1 2 0.11589 11.1386 9.60096 6.7889
15 1 2 0.115888 11.1386 11.4908 8.12521
16 1 2 0.115888 25.3934 9.60096 6.7889
17 1 2 0.115889 15.5206 8.96083 0.969417
18 1 2 0.115889 21.0114 12.1309 13.9447
19 1 2 0.115888 22.648 13.0758 12.6084
20 1 2 0.115888 13.884 8.01592 2.30572
21 1 2 0.115889 21.0114 3.90092 8.12521
22 1 2 0.115889 15.5206 17.1908 6.7889
23 1 2 0.115887 13.884 16.2459 8.12521
24 1 2 0.115887 22.648 4.84583 6.7889
25 1 2 0.115889 22.648 16.2459 8.12521
26 1 2 0.115889 13.884 4.84583 6.7889
27 1 2 0.115887 15.5206 3.90092 8.12521
28 1 2 0.115887 21.0114 17.1908 6.7889
29 1 2 0.115889 21.0114 8.96083 0.969417
30 1 2 0.115889 15.5206 12.1309 13.9447
31 1 2 0.115887 13.884 13.0758 12.6084
32 1 2 0.115887 22.648 8.01592 2.30572
33 1 3 0.671939 27.399 18.7442 13.2542
34 1 3 0.671939 9.13299 2.34751 1.65994
35 1 3 0.671939 27.399 12.8934 9.117
36 1 3 0.671939 9.13299 8.19836 5.79712
37 1 3 0.67194 24.8655 14.3561 13.2542
38 1 3 0.67194 11.6665 6.73565 1.65994
39 1 3 0.67194 29.9325 17.2815 9.117
40 1 3 0.67194 6.5995 3.81022 5.79712
41 1 3 0.67194 24.8655 17.2815 9.117
42 1 3 0.67194 11.6665 3.81022 5.79712
43 1 3 0.67194 29.9325 14.3561 13.2542
44 1 3 0.67194 6.5995 6.73565 1.65994
45 1 3 -0.11508 27.399 19.957 14.1117
46 1 3 -0.11508 9.13299 1.13474 0.802379
47 1 3 -0.11508 27.399 11.6806 8.25944
48 1 3 -0.11508 9.13299 9.41113 6.65468
49 1 3 -0.11508 23.8152 13.7497 14.1117
50 1 3 -0.11508 12.7168 7.34203 0.802379
51 1 3 -0.11508 30.9828 17.8879 8.25944
52 1 3 -0.11508 5.54921 3.20384 6.65468
53 1 3 -0.11508 23.8152 17.8879 8.25944
54 1 3 -0.11508 12.7168 3.20384 6.65468
55 1 3 -0.11508 30.9828 13.7497 14.1117
56 1 3 -0.11508 5.54921 7.34203 0.802379
57 1 3 -0.0559 18.266 5.39949 13.5316
58 1 3 -0.0559 18.266 15.6923 1.38254
59 1 3 -0.055903 18.266 14.5575 0.580159
60 1 3 -0.055903 18.266 6.53422 14.334
61 1 3 -0.0559 26.1971 11.1132 7.85825
62 1 3 -0.0559 10.3349 9.9785 7.05587
63 1 3 -0.055903 10.3349 11.1132 7.85825
64 1 3 -0.055903 26.1971 9.9785 7.05587
65 1 3 -0.0559 14.7918 8.54005 0.580159
66 1 3 -0.0559 21.7402 12.5517 14.334
67 1 3 -0.055903 22.7229 13.1191 13.5316
68 1 3 -0.055903 13.8091 7.97268 1.38254
69 1 3 -0.0559 21.7402 3.39366 7.85825
70 1 3 -0.0559 14.7918 17.6981 7.05587
71 1 3 -0.055903 13.8091 17.1307 7.85825
72 1 3 -0.055903 22.7229 3.96103 7.05587
73 1 3 -0.055901 22.7229 17.1307 7.85825
74 1 3 -0.055901 13.8091 3.96103 7.05587
75 1 3 -0.055903 14.7918 3.39366 7.85825
76 1 3 -0.055903 21.7402 17.6981 7.05587
77 1 3 -0.0559 21.7402 8.54005 0.580159
78 1 3 -0.0559 14.7918 12.5517 14.334
79 1 3 -0.055903 13.8091 13.1191 13.5316
80 1 3 -0.055903 22.7229 7.97268 1.38254
81 1 4 -1.26215 27.399 15.8188 11.1856
82 1 4 -1.26215 9.13299 5.27293 3.72853
83 1 4 -0.60118 27.399 18.9383 11.9641
84 1 4 -0.60118 9.13299 2.15347 2.95001
85 1 4 -0.601179 27.399 17.5926 13.8671
86 1 4 -0.601179 9.13299 3.49912 1.04697
87 1 4 -0.601179 26.2336 13.3722 9.45555
88 1 4 -0.601179 10.2984 7.71958 5.45857
89 1 4 -0.60118 28.5643 13.3722 9.45555
90 1 4 -0.60118 7.96762 7.71958 5.45857
91 1 4 -0.60118 25.8628 14.9319 13.8671
92 1 4 -0.60118 10.6692 6.15984 1.04697
93 1 4 -0.601179 24.6974 14.2591 11.9641
94 1 4 -0.601179 11.8345 6.83267 2.95001
95 1 4 -0.60118 28.9351 18.0514 9.45555
96 1 4 -0.60118 7.59682 3.04037 5.45857
97 1 4 -0.601179 30.1005 16.0329 9.45555
98 1 4 -0.601179 6.43145 5.05885 5.45857
99 1 4 -0.601179 24.6974 16.0329 9.45555
100 1 4 -0.601179 11.8345 5.05885 5.45857
101 1 4 -0.60118 25.8628 18.0514 9.45555
102 1 4 -0.60118 10.6692 3.04037 5.45857
103 1 4 -0.60118 28.9351 14.9319 13.8671
104 1 4 -0.60118 7.59682 6.15984 1.04697
105 1 4 -0.60118 30.1005 14.2591 11.9641
106 1 4 -0.60118 6.43145 6.83267 2.95001
4052 1317 5 -0.35 12.2227 2.9965 1.81843
4053 1317 6 0.7 12.3677 2.81861 0.681353
4054 1317 5 -0.35 21.6457 7.91365 14.4584
4325 1408 5 -0.35 26.5822 11.8006 13.6663
4326 1408 6 0.7 26.6272 11.4206 12.5712
4327 1408 5 -0.35 26.6722 11.0405 11.4762
4334 1411 5 -0.35 3.24953 2.05926 4.33263
4335 1411 6 0.7 3.8597 2.58457 3.49756
4336 1411 5 -0.35 4.46988 3.10987 2.6625
4385 1428 5 -0.35 30.4312 18.353 12.0058
4386 1428 6 0.7 31.2396 19.1427 11.7441
4387 1428 5 -0.35 22.9151 4.11355 11.4824
4388 1429 5 -0.35 13.4176 8.01103 5.7729
4389 1429 6 0.7 13.7159 8.88267 5.06805
4390 1429 5 -0.35 14.0143 9.75431 4.36319
4391 1430 5 -0.35 15.2175 15.9862 11.9573
4392 1430 6 0.7 16.0956 16.6012 11.5142
4393 1430 5 -0.35 16.9738 17.2161 11.0711
4394 1431 5 -0.35 26.9113 17.8339 5.91159
4395 1431 6 0.7 18.0451 2.85191 5.15391
4396 1431 5 -0.35 18.3119 3.68876 4.39622
4409 1436 5 -0.35 24.9355 6.31501 8.6334
4410 1436 6 0.7 23.8586 6.72273 8.49269
4411 1436 5 -0.35 22.7818 7.13044 8.35198
4412 1437 5 -0.35 10.2803 4.23243 9.82383
4413 1437 6 0.7 10.2124 5.19152 9.17489
4414 1437 5 -0.35 10.1444 6.15061 8.52595
4424 1441 5 -0.35 20.263 12.8923 9.75262
4425 1441 6 0.7 19.7452 12.8211 8.71702
4426 1441 5 -0.35 19.2275 12.7499 7.68143
ITEM: TIMESTEP
5000
ITEM: NUMBER OF ATOMS
133
ITEM: BOX BOUNDS xy xz yz pp pp pp
0.0000000000000000e+00 3.6531964750000000e+01 9.1329911900000003e+00
0.0000000000000000e+00 2.1091739680000000e+01 9.1329911900000003e+00
0.0000000000000000e+00 1.4914112149999999e+01 5.2729349200000000e+00
ITEM: ATOMS id mol type q x y z
1 1 1 1.10383 27.399 17.6496 10.5383
2 1 1 1.10383 9.13299 3.44217 4.3758
3 1 1 1.10383 27.399 15.8188 13.1274
4 1 1 1.10383 9.13299 5.27293 1.78671
5 1 1 1.10383 25.8135 14.9034 10.5383
6 1 1 1.10383 10.7185 6.18832 4.3758
7 1 1 1.10383 28.9845 14.9034 10.5383
8 1 1 1.10383 7.5475 6.18832 4.3758
9 1 2 0.115889 18.266 5.48596 12.6084
10 1 2 0.115889 18.266 15.6058 2.30572
11 1 2 0.115888 18.266 13.716 0.969417
12 1 2 0.115888 18.266 7.37578 13.9447
13 1 2 0.11589 25.3934 11.4908 8.12521
14 1 2 0.11589 11.1386 9.60096 6.7889
15 1 2 0.115888 11.1386 11.4908 8.12521
16 1 2 0.115888 25.3934 9.60096 6.7889
17 1 2 0.115889 15.5206 8.96083 0.969417
18 1 2 0.115889 21.0114 12.1309 13.9447
19 1 2 0.115888 22.648 13.0758 12.6084
20 1 2 0.115888 13.884 8.01592 2.30572
21 1 2 0.115889 21.0114 3.90092 8.12521
22 1 2 0.115889 15.5206 17.1908 6.7889
23 1 2 0.115887 13.884 16.2459 8.12521
24 1 2 0.115887 22.648 4.84583 6.7889
25 1 2 0.115889 22.648 16.2459 8.12521
26 1 2 0.115889 13.884 4.84583 6.7889
27 1 2 0.115887 15.5206 3.90092 8.12521
28 1 2 0.115887 21.0114 17.1908 6.7889
29 1 2 0.115889 21.0114 8.96083 0.969417
30 1 2 0.115889 15.5206 12.1309 13.9447
31 1 2 0.115887 13.884 13.0758 12.6084
32 1 2 0.115887 22.648 8.01592 2.30572
33 1 3 0.671939 27.399 18.7442 13.2542
34 1 3 0.671939 9.13299 2.34751 1.65994
35 1 3 0.671939 27.399 12.8934 9.117
36 1 3 0.671939 9.13299 8.19836 5.79712
37 1 3 0.67194 24.8655 14.3561 13.2542
38 1 3 0.67194 11.6665 6.73565 1.65994
39 1 3 0.67194 29.9325 17.2815 9.117
40 1 3 0.67194 6.5995 3.81022 5.79712
41 1 3 0.67194 24.8655 17.2815 9.117
42 1 3 0.67194 11.6665 3.81022 5.79712
43 1 3 0.67194 29.9325 14.3561 13.2542
44 1 3 0.67194 6.5995 6.73565 1.65994
45 1 3 -0.11508 27.399 19.957 14.1117
46 1 3 -0.11508 9.13299 1.13474 0.802379
47 1 3 -0.11508 27.399 11.6806 8.25944
48 1 3 -0.11508 9.13299 9.41113 6.65468
49 1 3 -0.11508 23.8152 13.7497 14.1117
50 1 3 -0.11508 12.7168 7.34203 0.802379
51 1 3 -0.11508 30.9828 17.8879 8.25944
52 1 3 -0.11508 5.54921 3.20384 6.65468
53 1 3 -0.11508 23.8152 17.8879 8.25944
54 1 3 -0.11508 12.7168 3.20384 6.65468
55 1 3 -0.11508 30.9828 13.7497 14.1117
56 1 3 -0.11508 5.54921 7.34203 0.802379
57 1 3 -0.0559 18.266 5.39949 13.5316
58 1 3 -0.0559 18.266 15.6923 1.38254
59 1 3 -0.055903 18.266 14.5575 0.580159
60 1 3 -0.055903 18.266 6.53422 14.334
61 1 3 -0.0559 26.1971 11.1132 7.85825
62 1 3 -0.0559 10.3349 9.9785 7.05587
63 1 3 -0.055903 10.3349 11.1132 7.85825
64 1 3 -0.055903 26.1971 9.9785 7.05587
65 1 3 -0.0559 14.7918 8.54005 0.580159
66 1 3 -0.0559 21.7402 12.5517 14.334
67 1 3 -0.055903 22.7229 13.1191 13.5316
68 1 3 -0.055903 13.8091 7.97268 1.38254
69 1 3 -0.0559 21.7402 3.39366 7.85825
70 1 3 -0.0559 14.7918 17.6981 7.05587
71 1 3 -0.055903 13.8091 17.1307 7.85825
72 1 3 -0.055903 22.7229 3.96103 7.05587
73 1 3 -0.055901 22.7229 17.1307 7.85825
74 1 3 -0.055901 13.8091 3.96103 7.05587
75 1 3 -0.055903 14.7918 3.39366 7.85825
76 1 3 -0.055903 21.7402 17.6981 7.05587
77 1 3 -0.0559 21.7402 8.54005 0.580159
78 1 3 -0.0559 14.7918 12.5517 14.334
79 1 3 -0.055903 13.8091 13.1191 13.5316
80 1 3 -0.055903 22.7229 7.97268 1.38254
81 1 4 -1.26215 27.399 15.8188 11.1856
82 1 4 -1.26215 9.13299 5.27293 3.72853
83 1 4 -0.60118 27.399 18.9383 11.9641
84 1 4 -0.60118 9.13299 2.15347 2.95001
85 1 4 -0.601179 27.399 17.5926 13.8671
86 1 4 -0.601179 9.13299 3.49912 1.04697
87 1 4 -0.601179 26.2336 13.3722 9.45555
88 1 4 -0.601179 10.2984 7.71958 5.45857
89 1 4 -0.60118 28.5643 13.3722 9.45555
90 1 4 -0.60118 7.96762 7.71958 5.45857
91 1 4 -0.60118 25.8628 14.9319 13.8671
92 1 4 -0.60118 10.6692 6.15984 1.04697
93 1 4 -0.601179 24.6974 14.2591 11.9641
94 1 4 -0.601179 11.8345 6.83267 2.95001
95 1 4 -0.60118 28.9351 18.0514 9.45555
96 1 4 -0.60118 7.59682 3.04037 5.45857
97 1 4 -0.601179 30.1005 16.0329 9.45555
98 1 4 -0.601179 6.43145 5.05885 5.45857
99 1 4 -0.601179 24.6974 16.0329 9.45555
100 1 4 -0.601179 11.8345 5.05885 5.45857
101 1 4 -0.60118 25.8628 18.0514 9.45555
102 1 4 -0.60118 10.6692 3.04037 5.45857
103 1 4 -0.60118 28.9351 14.9319 13.8671
104 1 4 -0.60118 7.59682 6.15984 1.04697
105 1 4 -0.60118 30.1005 14.2591 11.9641
106 1 4 -0.60118 6.43145 6.83267 2.95001
5918 1939 5 -0.35 8.33362 3.31685 8.99854
5919 1939 6 0.7 8.71131 4.07292 8.20399
5920 1939 5 -0.35 9.089 4.82899 7.40944
5972 1957 5 -0.35 27.7853 15.8938 6.76847
5973 1957 6 0.7 27.3987 16.7578 6.09784
5974 1957 5 -0.35 27.0121 17.6217 5.42722
6002 1967 5 -0.35 14.4627 3.89371 10.964
6003 1967 6 0.7 15.2909 4.68482 10.7799
6004 1967 5 -0.35 16.1191 5.47594 10.5959
6026 1975 5 -0.35 24.5596 18.0208 13.8779
6027 1975 6 0.7 23.6964 17.8024 14.6214
6028 1975 5 -0.35 13.7002 12.3111 0.450721
6047 1982 5 -0.35 32.2037 16.4758 12.6683
6048 1982 6 0.7 14.815 16.2875 11.9331
6049 1982 5 -0.35 15.6922 16.0991 11.1978
6068 1989 5 -0.35 20.2782 15.2374 9.35219
6069 1989 6 0.7 19.5896 15.1767 8.42071
6070 1989 5 -0.35 18.9009 15.1161 7.48922
6074 1991 5 -0.35 12.2733 8.3738 10.0569
6075 1991 6 0.7 12.2593 7.33657 9.5377
6076 1991 5 -0.35 12.2452 6.29933 9.01852
6077 1992 5 -0.35 17.8327 8.89927 11.3644
6078 1992 6 0.7 18.7939 9.2578 11.9059
6079 1992 5 -0.35 19.755 9.61632 12.4474
6080 1993 5 -0.35 9.47154 12.4714 3.84609
6081 1993 6 0.7 9.30809 11.5569 3.15139
6082 1993 5 -0.35 9.14465 10.6424 2.45669
ITEM: TIMESTEP
6000
ITEM: NUMBER OF ATOMS
154
ITEM: BOX BOUNDS xy xz yz pp pp pp
0.0000000000000000e+00 3.6531964750000000e+01 9.1329911900000003e+00
0.0000000000000000e+00 2.1091739680000000e+01 9.1329911900000003e+00
0.0000000000000000e+00 1.4914112149999999e+01 5.2729349200000000e+00
ITEM: ATOMS id mol type q x y z
1 1 1 1.10383 27.399 17.6496 10.5383
2 1 1 1.10383 9.13299 3.44217 4.3758
3 1 1 1.10383 27.399 15.8188 13.1274
4 1 1 1.10383 9.13299 5.27293 1.78671
5 1 1 1.10383 25.8135 14.9034 10.5383
6 1 1 1.10383 10.7185 6.18832 4.3758
7 1 1 1.10383 28.9845 14.9034 10.5383
8 1 1 1.10383 7.5475 6.18832 4.3758
9 1 2 0.115889 18.266 5.48596 12.6084
10 1 2 0.115889 18.266 15.6058 2.30572
11 1 2 0.115888 18.266 13.716 0.969417
12 1 2 0.115888 18.266 7.37578 13.9447
13 1 2 0.11589 25.3934 11.4908 8.12521
14 1 2 0.11589 11.1386 9.60096 6.7889
15 1 2 0.115888 11.1386 11.4908 8.12521
16 1 2 0.115888 25.3934 9.60096 6.7889
17 1 2 0.115889 15.5206 8.96083 0.969417
18 1 2 0.115889 21.0114 12.1309 13.9447
19 1 2 0.115888 22.648 13.0758 12.6084
20 1 2 0.115888 13.884 8.01592 2.30572
21 1 2 0.115889 21.0114 3.90092 8.12521
22 1 2 0.115889 15.5206 17.1908 6.7889
23 1 2 0.115887 13.884 16.2459 8.12521
24 1 2 0.115887 22.648 4.84583 6.7889
25 1 2 0.115889 22.648 16.2459 8.12521
26 1 2 0.115889 13.884 4.84583 6.7889
27 1 2 0.115887 15.5206 3.90092 8.12521
28 1 2 0.115887 21.0114 17.1908 6.7889
29 1 2 0.115889 21.0114 8.96083 0.969417
30 1 2 0.115889 15.5206 12.1309 13.9447
31 1 2 0.115887 13.884 13.0758 12.6084
32 1 2 0.115887 22.648 8.01592 2.30572
33 1 3 0.671939 27.399 18.7442 13.2542
34 1 3 0.671939 9.13299 2.34751 1.65994
35 1 3 0.671939 27.399 12.8934 9.117
36 1 3 0.671939 9.13299 8.19836 5.79712
37 1 3 0.67194 24.8655 14.3561 13.2542
38 1 3 0.67194 11.6665 6.73565 1.65994
39 1 3 0.67194 29.9325 17.2815 9.117
40 1 3 0.67194 6.5995 3.81022 5.79712
41 1 3 0.67194 24.8655 17.2815 9.117
42 1 3 0.67194 11.6665 3.81022 5.79712
43 1 3 0.67194 29.9325 14.3561 13.2542
44 1 3 0.67194 6.5995 6.73565 1.65994
45 1 3 -0.11508 27.399 19.957 14.1117
46 1 3 -0.11508 9.13299 1.13474 0.802379
47 1 3 -0.11508 27.399 11.6806 8.25944
48 1 3 -0.11508 9.13299 9.41113 6.65468
49 1 3 -0.11508 23.8152 13.7497 14.1117
50 1 3 -0.11508 12.7168 7.34203 0.802379
51 1 3 -0.11508 30.9828 17.8879 8.25944
52 1 3 -0.11508 5.54921 3.20384 6.65468
53 1 3 -0.11508 23.8152 17.8879 8.25944
54 1 3 -0.11508 12.7168 3.20384 6.65468
55 1 3 -0.11508 30.9828 13.7497 14.1117
56 1 3 -0.11508 5.54921 7.34203 0.802379
57 1 3 -0.0559 18.266 5.39949 13.5316
58 1 3 -0.0559 18.266 15.6923 1.38254
59 1 3 -0.055903 18.266 14.5575 0.580159
60 1 3 -0.055903 18.266 6.53422 14.334
61 1 3 -0.0559 26.1971 11.1132 7.85825
62 1 3 -0.0559 10.3349 9.9785 7.05587
63 1 3 -0.055903 10.3349 11.1132 7.85825
64 1 3 -0.055903 26.1971 9.9785 7.05587
65 1 3 -0.0559 14.7918 8.54005 0.580159
66 1 3 -0.0559 21.7402 12.5517 14.334
67 1 3 -0.055903 22.7229 13.1191 13.5316
68 1 3 -0.055903 13.8091 7.97268 1.38254
69 1 3 -0.0559 21.7402 3.39366 7.85825
70 1 3 -0.0559 14.7918 17.6981 7.05587
71 1 3 -0.055903 13.8091 17.1307 7.85825
72 1 3 -0.055903 22.7229 3.96103 7.05587
73 1 3 -0.055901 22.7229 17.1307 7.85825
74 1 3 -0.055901 13.8091 3.96103 7.05587
75 1 3 -0.055903 14.7918 3.39366 7.85825
76 1 3 -0.055903 21.7402 17.6981 7.05587
77 1 3 -0.0559 21.7402 8.54005 0.580159
78 1 3 -0.0559 14.7918 12.5517 14.334
79 1 3 -0.055903 13.8091 13.1191 13.5316
80 1 3 -0.055903 22.7229 7.97268 1.38254
81 1 4 -1.26215 27.399 15.8188 11.1856
82 1 4 -1.26215 9.13299 5.27293 3.72853
83 1 4 -0.60118 27.399 18.9383 11.9641
84 1 4 -0.60118 9.13299 2.15347 2.95001
85 1 4 -0.601179 27.399 17.5926 13.8671
86 1 4 -0.601179 9.13299 3.49912 1.04697
87 1 4 -0.601179 26.2336 13.3722 9.45555
88 1 4 -0.601179 10.2984 7.71958 5.45857
89 1 4 -0.60118 28.5643 13.3722 9.45555
90 1 4 -0.60118 7.96762 7.71958 5.45857
91 1 4 -0.60118 25.8628 14.9319 13.8671
92 1 4 -0.60118 10.6692 6.15984 1.04697
93 1 4 -0.601179 24.6974 14.2591 11.9641
94 1 4 -0.601179 11.8345 6.83267 2.95001
95 1 4 -0.60118 28.9351 18.0514 9.45555
96 1 4 -0.60118 7.59682 3.04037 5.45857
97 1 4 -0.601179 30.1005 16.0329 9.45555
98 1 4 -0.601179 6.43145 5.05885 5.45857
99 1 4 -0.601179 24.6974 16.0329 9.45555
100 1 4 -0.601179 11.8345 5.05885 5.45857
101 1 4 -0.60118 25.8628 18.0514 9.45555
102 1 4 -0.60118 10.6692 3.04037 5.45857
103 1 4 -0.60118 28.9351 14.9319 13.8671
104 1 4 -0.60118 7.59682 6.15984 1.04697
105 1 4 -0.60118 30.1005 14.2591 11.9641
106 1 4 -0.60118 6.43145 6.83267 2.95001
7187 2362 5 -0.35 15.163 12.3957 1.36583
7188 2362 6 0.7 15.1349 12.3785 0.206301
7189 2362 5 -0.35 24.2399 17.6342 13.9609
7235 2378 5 -0.35 16.3912 15.3625 5.31083
7236 2378 6 0.7 15.859 15.339 4.28041
7237 2378 5 -0.35 15.3267 15.3155 3.25
7280 2393 5 -0.35 28.4411 9.96863 14.4148
7281 2393 6 0.7 27.987 10.9345 13.9603
7282 2393 5 -0.35 27.533 11.9003 13.5057
7343 2414 5 -0.35 13.7369 3.22547 0.427069
7344 2414 6 0.7 22.0158 8.45987 14.5572
7345 2414 5 -0.35 21.1618 8.42134 13.7732
7364 2421 5 -0.35 26.0279 10.937 3.65931
7365 2421 6 0.7 7.93378 10.6118 2.55916
7366 2421 5 -0.35 8.10562 10.2866 1.45901
7379 2426 5 -0.35 3.86618 1.24439 2.01947
7380 2426 6 0.7 4.89026 1.78825 2.05231
7381 2426 5 -0.35 5.91434 2.3321 2.08514
7391 2430 5 -0.35 27.5151 16.3598 7.22072
7392 2430 6 0.7 27.6915 16.0926 6.1058
7393 2430 5 -0.35 27.868 15.8253 4.99088
7394 2431 5 -0.35 21.495 5.85886 11.8698
7395 2431 6 0.7 21.509 6.07086 10.7294
7396 2431 5 -0.35 21.5231 6.28286 9.58901
7406 2435 5 -0.35 12.2658 13.1892 4.53837
7407 2435 6 0.7 12.1186 12.4273 3.67615
7408 2435 5 -0.35 11.9715 11.6654 2.81393
7409 2436 5 -0.35 4.00836 4.19812 1.19708
7410 2436 6 0.7 3.91773 4.42022 0.062153
7411 2436 5 -0.35 12.9601 9.91526 13.8413
7415 2438 5 -0.35 30.7094 18.52 12.2405
7416 2438 6 0.7 31.4994 17.7068 12.4857
7417 2438 5 -0.35 32.2895 16.8936 12.7308
7424 2441 5 -0.35 23.558 8.43529 11.0112
7425 2441 6 0.7 24.1192 9.31378 11.52
7426 2441 5 -0.35 24.6804 10.1923 12.0288
7439 2446 5 -0.35 19.5916 14.6474 12.6786
7440 2446 6 0.7 19.2158 15.6426 13.1411
7441 2446 5 -0.35 18.8401 16.6378 13.6037
7442 2447 5 -0.35 12.8361 5.11658 11.6466
7443 2447 6 0.7 13.6728 4.34756 11.4142
7444 2447 5 -0.35 23.6426 19.3974 11.1818
7445 2448 5 -0.35 16.9368 4.52927 2.85277
7446 2448 6 0.7 16.5153 3.44996 2.90779
7447 2448 5 -0.35 16.0938 2.37065 2.96282
7448 2449 5 -0.35 22.6044 10.5854 9.38206
7449 2449 6 0.7 22.0936 11.4877 9.90225
7450 2449 5 -0.35 21.5828 12.39 10.4224
ITEM: TIMESTEP
7000
ITEM: NUMBER OF ATOMS
148
ITEM: BOX BOUNDS xy xz yz pp pp pp
0.0000000000000000e+00 3.6531964750000000e+01 9.1329911900000003e+00
0.0000000000000000e+00 2.1091739680000000e+01 9.1329911900000003e+00
0.0000000000000000e+00 1.4914112149999999e+01 5.2729349200000000e+00
ITEM: ATOMS id mol type q x y z
1 1 1 1.10383 27.399 17.6496 10.5383
2 1 1 1.10383 9.13299 3.44217 4.3758
3 1 1 1.10383 27.399 15.8188 13.1274
4 1 1 1.10383 9.13299 5.27293 1.78671
5 1 1 1.10383 25.8135 14.9034 10.5383
6 1 1 1.10383 10.7185 6.18832 4.3758
7 1 1 1.10383 28.9845 14.9034 10.5383
8 1 1 1.10383 7.5475 6.18832 4.3758
9 1 2 0.115889 18.266 5.48596 12.6084
10 1 2 0.115889 18.266 15.6058 2.30572
11 1 2 0.115888 18.266 13.716 0.969417
12 1 2 0.115888 18.266 7.37578 13.9447
13 1 2 0.11589 25.3934 11.4908 8.12521
14 1 2 0.11589 11.1386 9.60096 6.7889
15 1 2 0.115888 11.1386 11.4908 8.12521
16 1 2 0.115888 25.3934 9.60096 6.7889
17 1 2 0.115889 15.5206 8.96083 0.969417
18 1 2 0.115889 21.0114 12.1309 13.9447
19 1 2 0.115888 22.648 13.0758 12.6084
20 1 2 0.115888 13.884 8.01592 2.30572
21 1 2 0.115889 21.0114 3.90092 8.12521
22 1 2 0.115889 15.5206 17.1908 6.7889
23 1 2 0.115887 13.884 16.2459 8.12521
24 1 2 0.115887 22.648 4.84583 6.7889
25 1 2 0.115889 22.648 16.2459 8.12521
26 1 2 0.115889 13.884 4.84583 6.7889
27 1 2 0.115887 15.5206 3.90092 8.12521
28 1 2 0.115887 21.0114 17.1908 6.7889
29 1 2 0.115889 21.0114 8.96083 0.969417
30 1 2 0.115889 15.5206 12.1309 13.9447
31 1 2 0.115887 13.884 13.0758 12.6084
32 1 2 0.115887 22.648 8.01592 2.30572
33 1 3 0.671939 27.399 18.7442 13.2542
34 1 3 0.671939 9.13299 2.34751 1.65994
35 1 3 0.671939 27.399 12.8934 9.117
36 1 3 0.671939 9.13299 8.19836 5.79712
37 1 3 0.67194 24.8655 14.3561 13.2542
38 1 3 0.67194 11.6665 6.73565 1.65994
39 1 3 0.67194 29.9325 17.2815 9.117
40 1 3 0.67194 6.5995 3.81022 5.79712
41 1 3 0.67194 24.8655 17.2815 9.117
42 1 3 0.67194 11.6665 3.81022 5.79712
43 1 3 0.67194 29.9325 14.3561 13.2542
44 1 3 0.67194 6.5995 6.73565 1.65994
45 1 3 -0.11508 27.399 19.957 14.1117
46 1 3 -0.11508 9.13299 1.13474 0.802379
47 1 3 -0.11508 27.399 11.6806 8.25944
48 1 3 -0.11508 9.13299 9.41113 6.65468
49 1 3 -0.11508 23.8152 13.7497 14.1117
50 1 3 -0.11508 12.7168 7.34203 0.802379
51 1 3 -0.11508 30.9828 17.8879 8.25944
52 1 3 -0.11508 5.54921 3.20384 6.65468
53 1 3 -0.11508 23.8152 17.8879 8.25944
54 1 3 -0.11508 12.7168 3.20384 6.65468
55 1 3 -0.11508 30.9828 13.7497 14.1117
56 1 3 -0.11508 5.54921 7.34203 0.802379
57 1 3 -0.0559 18.266 5.39949 13.5316
58 1 3 -0.0559 18.266 15.6923 1.38254
59 1 3 -0.055903 18.266 14.5575 0.580159
60 1 3 -0.055903 18.266 6.53422 14.334
61 1 3 -0.0559 26.1971 11.1132 7.85825
62 1 3 -0.0559 10.3349 9.9785 7.05587
63 1 3 -0.055903 10.3349 11.1132 7.85825
64 1 3 -0.055903 26.1971 9.9785 7.05587
65 1 3 -0.0559 14.7918 8.54005 0.580159
66 1 3 -0.0559 21.7402 12.5517 14.334
67 1 3 -0.055903 22.7229 13.1191 13.5316
68 1 3 -0.055903 13.8091 7.97268 1.38254
69 1 3 -0.0559 21.7402 3.39366 7.85825
70 1 3 -0.0559 14.7918 17.6981 7.05587
71 1 3 -0.055903 13.8091 17.1307 7.85825
72 1 3 -0.055903 22.7229 3.96103 7.05587
73 1 3 -0.055901 22.7229 17.1307 7.85825
74 1 3 -0.055901 13.8091 3.96103 7.05587
75 1 3 -0.055903 14.7918 3.39366 7.85825
76 1 3 -0.055903 21.7402 17.6981 7.05587
77 1 3 -0.0559 21.7402 8.54005 0.580159
78 1 3 -0.0559 14.7918 12.5517 14.334
79 1 3 -0.055903 13.8091 13.1191 13.5316
80 1 3 -0.055903 22.7229 7.97268 1.38254
81 1 4 -1.26215 27.399 15.8188 11.1856
82 1 4 -1.26215 9.13299 5.27293 3.72853
83 1 4 -0.60118 27.399 18.9383 11.9641
84 1 4 -0.60118 9.13299 2.15347 2.95001
85 1 4 -0.601179 27.399 17.5926 13.8671
86 1 4 -0.601179 9.13299 3.49912 1.04697
87 1 4 -0.601179 26.2336 13.3722 9.45555
88 1 4 -0.601179 10.2984 7.71958 5.45857
89 1 4 -0.60118 28.5643 13.3722 9.45555
90 1 4 -0.60118 7.96762 7.71958 5.45857
91 1 4 -0.60118 25.8628 14.9319 13.8671
92 1 4 -0.60118 10.6692 6.15984 1.04697
93 1 4 -0.601179 24.6974 14.2591 11.9641
94 1 4 -0.601179 11.8345 6.83267 2.95001
95 1 4 -0.60118 28.9351 18.0514 9.45555
96 1 4 -0.60118 7.59682 3.04037 5.45857
97 1 4 -0.601179 30.1005 16.0329 9.45555
98 1 4 -0.601179 6.43145 5.05885 5.45857
99 1 4 -0.601179 24.6974 16.0329 9.45555
100 1 4 -0.601179 11.8345 5.05885 5.45857
101 1 4 -0.60118 25.8628 18.0514 9.45555
102 1 4 -0.60118 10.6692 3.04037 5.45857
103 1 4 -0.60118 28.9351 14.9319 13.8671
104 1 4 -0.60118 7.59682 6.15984 1.04697
105 1 4 -0.60118 30.1005 14.2591 11.9641
106 1 4 -0.60118 6.43145 6.83267 2.95001
8531 2810 5 -0.35 15.9608 15.3101 4.54466
8532 2810 6 0.7 15.1344 15.9049 3.98913
8533 2810 5 -0.35 14.3079 16.4998 3.43359
8573 2824 5 -0.35 13.8725 13.7044 6.24989
8574 2824 6 0.7 14.4447 13.279 7.16487
8575 2824 5 -0.35 15.017 12.8537 8.07985
8591 2830 5 -0.35 30.7339 18.976 13.4838
8592 2830 6 0.7 30.7659 19.3101 12.3734
8593 2830 5 -0.35 30.7978 19.6443 11.263
8609 2836 5 -0.35 5.11785 3.86611 1.05052
8610 2836 6 0.7 4.55294 3.6333 0.0644834
8611 2836 5 -0.35 13.121 8.67343 13.9926
8612 2837 5 -0.35 15.356 4.74664 1.74396
8613 2837 6 0.7 15.9029 4.56038 0.738076
8614 2837 5 -0.35 25.5828 9.64706 14.6463
8633 2844 5 -0.35 15.4122 17.8677 11.4371
8634 2844 6 0.7 16.32 17.1975 11.1679
8635 2844 5 -0.35 17.2278 16.5274 10.8988
8636 2845 5 -0.35 23.5646 18.8654 13.3203
8637 2845 6 0.7 23.7274 19.3367 12.273
8638 2845 5 -0.35 14.7572 3.98924 11.2256
8639 2846 5 -0.35 18.941 7.44377 10.4922
8640 2846 6 0.7 19.1228 6.68343 9.63525
8641 2846 5 -0.35 19.3047 5.92308 8.77828
8648 2849 5 -0.35 12.2134 10.5043 11.7416
8649 2849 6 0.7 11.1767 10.7206 12.215
8650 2849 5 -0.35 28.406 10.9368 12.6885
8657 2852 5 -0.35 28.4269 17.4268 5.20513
8658 2852 6 0.7 28.4738 16.3093 5.51267
8659 2852 5 -0.35 28.5207 15.1918 5.8202
8660 2853 5 -0.35 24.1235 16.8059 3.34559
8661 2853 6 0.7 15.2039 1.18505 2.2227
8662 2853 5 -0.35 15.4173 1.38301 1.09981
8663 2854 5 -0.35 12.3591 6.15637 9.32298
8664 2854 6 0.7 12.0607 5.09935 9.69615
8665 2854 5 -0.35 11.7622 4.04234 10.0693
8666 2855 5 -0.35 10.0501 15.149 0.247827
8667 2855 6 0.7 1.77317 0.112231 0.283409
8668 2855 5 -0.35 2.6292 0.894247 0.318991
8672 2857 5 -0.35 11.6494 11.1185 3.34776
8673 2857 6 0.7 12.0983 11.1372 2.27829
8674 2857 5 -0.35 12.5472 11.1559 1.20882
ITEM: TIMESTEP
8000
ITEM: NUMBER OF ATOMS
130
ITEM: BOX BOUNDS xy xz yz pp pp pp
0.0000000000000000e+00 3.6531964750000000e+01 9.1329911900000003e+00
0.0000000000000000e+00 2.1091739680000000e+01 9.1329911900000003e+00
0.0000000000000000e+00 1.4914112149999999e+01 5.2729349200000000e+00
ITEM: ATOMS id mol type q x y z
1 1 1 1.10383 27.399 17.6496 10.5383
2 1 1 1.10383 9.13299 3.44217 4.3758
3 1 1 1.10383 27.399 15.8188 13.1274
4 1 1 1.10383 9.13299 5.27293 1.78671
5 1 1 1.10383 25.8135 14.9034 10.5383
6 1 1 1.10383 10.7185 6.18832 4.3758
7 1 1 1.10383 28.9845 14.9034 10.5383
8 1 1 1.10383 7.5475 6.18832 4.3758
9 1 2 0.115889 18.266 5.48596 12.6084
10 1 2 0.115889 18.266 15.6058 2.30572
11 1 2 0.115888 18.266 13.716 0.969417
12 1 2 0.115888 18.266 7.37578 13.9447
13 1 2 0.11589 25.3934 11.4908 8.12521
14 1 2 0.11589 11.1386 9.60096 6.7889
15 1 2 0.115888 11.1386 11.4908 8.12521
16 1 2 0.115888 25.3934 9.60096 6.7889
17 1 2 0.115889 15.5206 8.96083 0.969417
18 1 2 0.115889 21.0114 12.1309 13.9447
19 1 2 0.115888 22.648 13.0758 12.6084
20 1 2 0.115888 13.884 8.01592 2.30572
21 1 2 0.115889 21.0114 3.90092 8.12521
22 1 2 0.115889 15.5206 17.1908 6.7889
23 1 2 0.115887 13.884 16.2459 8.12521
24 1 2 0.115887 22.648 4.84583 6.7889
25 1 2 0.115889 22.648 16.2459 8.12521
26 1 2 0.115889 13.884 4.84583 6.7889
27 1 2 0.115887 15.5206 3.90092 8.12521
28 1 2 0.115887 21.0114 17.1908 6.7889
29 1 2 0.115889 21.0114 8.96083 0.969417
30 1 2 0.115889 15.5206 12.1309 13.9447
31 1 2 0.115887 13.884 13.0758 12.6084
32 1 2 0.115887 22.648 8.01592 2.30572
33 1 3 0.671939 27.399 18.7442 13.2542
34 1 3 0.671939 9.13299 2.34751 1.65994
35 1 3 0.671939 27.399 12.8934 9.117
36 1 3 0.671939 9.13299 8.19836 5.79712
37 1 3 0.67194 24.8655 14.3561 13.2542
38 1 3 0.67194 11.6665 6.73565 1.65994
39 1 3 0.67194 29.9325 17.2815 9.117
40 1 3 0.67194 6.5995 3.81022 5.79712
41 1 3 0.67194 24.8655 17.2815 9.117
42 1 3 0.67194 11.6665 3.81022 5.79712
43 1 3 0.67194 29.9325 14.3561 13.2542
44 1 3 0.67194 6.5995 6.73565 1.65994
45 1 3 -0.11508 27.399 19.957 14.1117
46 1 3 -0.11508 9.13299 1.13474 0.802379
47 1 3 -0.11508 27.399 11.6806 8.25944
48 1 3 -0.11508 9.13299 9.41113 6.65468
49 1 3 -0.11508 23.8152 13.7497 14.1117
50 1 3 -0.11508 12.7168 7.34203 0.802379
51 1 3 -0.11508 30.9828 17.8879 8.25944
52 1 3 -0.11508 5.54921 3.20384 6.65468
53 1 3 -0.11508 23.8152 17.8879 8.25944
54 1 3 -0.11508 12.7168 3.20384 6.65468
55 1 3 -0.11508 30.9828 13.7497 14.1117
56 1 3 -0.11508 5.54921 7.34203 0.802379
57 1 3 -0.0559 18.266 5.39949 13.5316
58 1 3 -0.0559 18.266 15.6923 1.38254
59 1 3 -0.055903 18.266 14.5575 0.580159
60 1 3 -0.055903 18.266 6.53422 14.334
61 1 3 -0.0559 26.1971 11.1132 7.85825
62 1 3 -0.0559 10.3349 9.9785 7.05587
63 1 3 -0.055903 10.3349 11.1132 7.85825
64 1 3 -0.055903 26.1971 9.9785 7.05587
65 1 3 -0.0559 14.7918 8.54005 0.580159
66 1 3 -0.0559 21.7402 12.5517 14.334
67 1 3 -0.055903 22.7229 13.1191 13.5316
68 1 3 -0.055903 13.8091 7.97268 1.38254
69 1 3 -0.0559 21.7402 3.39366 7.85825
70 1 3 -0.0559 14.7918 17.6981 7.05587
71 1 3 -0.055903 13.8091 17.1307 7.85825
72 1 3 -0.055903 22.7229 3.96103 7.05587
73 1 3 -0.055901 22.7229 17.1307 7.85825
74 1 3 -0.055901 13.8091 3.96103 7.05587
75 1 3 -0.055903 14.7918 3.39366 7.85825
76 1 3 -0.055903 21.7402 17.6981 7.05587
77 1 3 -0.0559 21.7402 8.54005 0.580159
78 1 3 -0.0559 14.7918 12.5517 14.334
79 1 3 -0.055903 13.8091 13.1191 13.5316
80 1 3 -0.055903 22.7229 7.97268 1.38254
81 1 4 -1.26215 27.399 15.8188 11.1856
82 1 4 -1.26215 9.13299 5.27293 3.72853
83 1 4 -0.60118 27.399 18.9383 11.9641
84 1 4 -0.60118 9.13299 2.15347 2.95001
85 1 4 -0.601179 27.399 17.5926 13.8671
86 1 4 -0.601179 9.13299 3.49912 1.04697
87 1 4 -0.601179 26.2336 13.3722 9.45555
88 1 4 -0.601179 10.2984 7.71958 5.45857
89 1 4 -0.60118 28.5643 13.3722 9.45555
90 1 4 -0.60118 7.96762 7.71958 5.45857
91 1 4 -0.60118 25.8628 14.9319 13.8671
92 1 4 -0.60118 10.6692 6.15984 1.04697
93 1 4 -0.601179 24.6974 14.2591 11.9641
94 1 4 -0.601179 11.8345 6.83267 2.95001
95 1 4 -0.60118 28.9351 18.0514 9.45555
96 1 4 -0.60118 7.59682 3.04037 5.45857
97 1 4 -0.601179 30.1005 16.0329 9.45555
98 1 4 -0.601179 6.43145 5.05885 5.45857
99 1 4 -0.601179 24.6974 16.0329 9.45555
100 1 4 -0.601179 11.8345 5.05885 5.45857
101 1 4 -0.60118 25.8628 18.0514 9.45555
102 1 4 -0.60118 10.6692 3.04037 5.45857
103 1 4 -0.60118 28.9351 14.9319 13.8671
104 1 4 -0.60118 7.59682 6.15984 1.04697
105 1 4 -0.60118 30.1005 14.2591 11.9641
106 1 4 -0.60118 6.43145 6.83267 2.95001
9602 3167 5 -0.35 30.7497 18.9811 14.002
9603 3167 6 0.7 30.5094 18.1992 13.1795
9604 3167 5 -0.35 30.2691 17.4174 12.357
9713 3204 5 -0.35 6.10881 2.9448 0.329747
9714 3204 6 0.7 6.15825 3.19728 1.46086
9715 3204 5 -0.35 6.20769 3.44975 2.59197
9782 3227 5 -0.35 20.6515 2.25435 3.58682
9783 3227 6 0.7 2.21737 1.22415 3.08084
9784 3227 5 -0.35 11.1822 16.0128 2.57486
9794 3231 5 -0.35 8.90725 13.7263 1.1858
9795 3231 6 0.7 9.82414 13.0176 1.23795
9796 3231 5 -0.35 10.741 12.309 1.2901
9797 3232 5 -0.35 26.1534 14.8374 6.62634
9798 3232 6 0.7 26.5638 15.47 5.74486
9799 3232 5 -0.35 26.9742 16.1026 4.86338
9800 3233 5 -0.35 17.9046 3.2322 4.87622
9801 3233 6 0.7 17.5903 4.13221 5.53715
9802 3233 5 -0.35 17.276 5.03221 6.19807
9803 3234 5 -0.35 12.8718 12.6306 4.89472
9804 3234 6 0.7 11.9278 13.1233 4.4346
9805 3234 5 -0.35 10.9838 13.616 3.97448
9806 3235 5 -0.35 14.5308 14.271 6.30708
9807 3235 6 0.7 15.2911 13.7575 5.59728
9808 3235 5 -0.35 16.0515 13.244 4.88748
ITEM: TIMESTEP
9000
ITEM: NUMBER OF ATOMS
142
ITEM: BOX BOUNDS xy xz yz pp pp pp
0.0000000000000000e+00 3.6531964750000000e+01 9.1329911900000003e+00
0.0000000000000000e+00 2.1091739680000000e+01 9.1329911900000003e+00
0.0000000000000000e+00 1.4914112149999999e+01 5.2729349200000000e+00
ITEM: ATOMS id mol type q x y z
1 1 1 1.10383 27.399 17.6496 10.5383
2 1 1 1.10383 9.13299 3.44217 4.3758
3 1 1 1.10383 27.399 15.8188 13.1274
4 1 1 1.10383 9.13299 5.27293 1.78671
5 1 1 1.10383 25.8135 14.9034 10.5383
6 1 1 1.10383 10.7185 6.18832 4.3758
7 1 1 1.10383 28.9845 14.9034 10.5383
8 1 1 1.10383 7.5475 6.18832 4.3758
9 1 2 0.115889 18.266 5.48596 12.6084
10 1 2 0.115889 18.266 15.6058 2.30572
11 1 2 0.115888 18.266 13.716 0.969417
12 1 2 0.115888 18.266 7.37578 13.9447
13 1 2 0.11589 25.3934 11.4908 8.12521
14 1 2 0.11589 11.1386 9.60096 6.7889
15 1 2 0.115888 11.1386 11.4908 8.12521
16 1 2 0.115888 25.3934 9.60096 6.7889
17 1 2 0.115889 15.5206 8.96083 0.969417
18 1 2 0.115889 21.0114 12.1309 13.9447
19 1 2 0.115888 22.648 13.0758 12.6084
20 1 2 0.115888 13.884 8.01592 2.30572
21 1 2 0.115889 21.0114 3.90092 8.12521
22 1 2 0.115889 15.5206 17.1908 6.7889
23 1 2 0.115887 13.884 16.2459 8.12521
24 1 2 0.115887 22.648 4.84583 6.7889
25 1 2 0.115889 22.648 16.2459 8.12521
26 1 2 0.115889 13.884 4.84583 6.7889
27 1 2 0.115887 15.5206 3.90092 8.12521
28 1 2 0.115887 21.0114 17.1908 6.7889
29 1 2 0.115889 21.0114 8.96083 0.969417
30 1 2 0.115889 15.5206 12.1309 13.9447
31 1 2 0.115887 13.884 13.0758 12.6084
32 1 2 0.115887 22.648 8.01592 2.30572
33 1 3 0.671939 27.399 18.7442 13.2542
34 1 3 0.671939 9.13299 2.34751 1.65994
35 1 3 0.671939 27.399 12.8934 9.117
36 1 3 0.671939 9.13299 8.19836 5.79712
37 1 3 0.67194 24.8655 14.3561 13.2542
38 1 3 0.67194 11.6665 6.73565 1.65994
39 1 3 0.67194 29.9325 17.2815 9.117
40 1 3 0.67194 6.5995 3.81022 5.79712
41 1 3 0.67194 24.8655 17.2815 9.117
42 1 3 0.67194 11.6665 3.81022 5.79712
43 1 3 0.67194 29.9325 14.3561 13.2542
44 1 3 0.67194 6.5995 6.73565 1.65994
45 1 3 -0.11508 27.399 19.957 14.1117
46 1 3 -0.11508 9.13299 1.13474 0.802379
47 1 3 -0.11508 27.399 11.6806 8.25944
48 1 3 -0.11508 9.13299 9.41113 6.65468
49 1 3 -0.11508 23.8152 13.7497 14.1117
50 1 3 -0.11508 12.7168 7.34203 0.802379
51 1 3 -0.11508 30.9828 17.8879 8.25944
52 1 3 -0.11508 5.54921 3.20384 6.65468
53 1 3 -0.11508 23.8152 17.8879 8.25944
54 1 3 -0.11508 12.7168 3.20384 6.65468
55 1 3 -0.11508 30.9828 13.7497 14.1117
56 1 3 -0.11508 5.54921 7.34203 0.802379
57 1 3 -0.0559 18.266 5.39949 13.5316
58 1 3 -0.0559 18.266 15.6923 1.38254
59 1 3 -0.055903 18.266 14.5575 0.580159
60 1 3 -0.055903 18.266 6.53422 14.334
61 1 3 -0.0559 26.1971 11.1132 7.85825
62 1 3 -0.0559 10.3349 9.9785 7.05587
63 1 3 -0.055903 10.3349 11.1132 7.85825
64 1 3 -0.055903 26.1971 9.9785 7.05587
65 1 3 -0.0559 14.7918 8.54005 0.580159
66 1 3 -0.0559 21.7402 12.5517 14.334
67 1 3 -0.055903 22.7229 13.1191 13.5316
68 1 3 -0.055903 13.8091 7.97268 1.38254
69 1 3 -0.0559 21.7402 3.39366 7.85825
70 1 3 -0.0559 14.7918 17.6981 7.05587
71 1 3 -0.055903 13.8091 17.1307 7.85825
72 1 3 -0.055903 22.7229 3.96103 7.05587
73 1 3 -0.055901 22.7229 17.1307 7.85825
74 1 3 -0.055901 13.8091 3.96103 7.05587
75 1 3 -0.055903 14.7918 3.39366 7.85825
76 1 3 -0.055903 21.7402 17.6981 7.05587
77 1 3 -0.0559 21.7402 8.54005 0.580159
78 1 3 -0.0559 14.7918 12.5517 14.334
79 1 3 -0.055903 13.8091 13.1191 13.5316
80 1 3 -0.055903 22.7229 7.97268 1.38254
81 1 4 -1.26215 27.399 15.8188 11.1856
82 1 4 -1.26215 9.13299 5.27293 3.72853
83 1 4 -0.60118 27.399 18.9383 11.9641
84 1 4 -0.60118 9.13299 2.15347 2.95001
85 1 4 -0.601179 27.399 17.5926 13.8671
86 1 4 -0.601179 9.13299 3.49912 1.04697
87 1 4 -0.601179 26.2336 13.3722 9.45555
88 1 4 -0.601179 10.2984 7.71958 5.45857
89 1 4 -0.60118 28.5643 13.3722 9.45555
90 1 4 -0.60118 7.96762 7.71958 5.45857
91 1 4 -0.60118 25.8628 14.9319 13.8671
92 1 4 -0.60118 10.6692 6.15984 1.04697
93 1 4 -0.601179 24.6974 14.2591 11.9641
94 1 4 -0.601179 11.8345 6.83267 2.95001
95 1 4 -0.60118 28.9351 18.0514 9.45555
96 1 4 -0.60118 7.59682 3.04037 5.45857
97 1 4 -0.601179 30.1005 16.0329 9.45555
98 1 4 -0.601179 6.43145 5.05885 5.45857
99 1 4 -0.601179 24.6974 16.0329 9.45555
100 1 4 -0.601179 11.8345 5.05885 5.45857
101 1 4 -0.60118 25.8628 18.0514 9.45555
102 1 4 -0.60118 10.6692 3.04037 5.45857
103 1 4 -0.60118 28.9351 14.9319 13.8671
104 1 4 -0.60118 7.59682 6.15984 1.04697
105 1 4 -0.60118 30.1005 14.2591 11.9641
106 1 4 -0.60118 6.43145 6.83267 2.95001
11006 3635 5 -0.35 21.6 17.0322 11.0314
11007 3635 6 0.7 22.5986 17.2361 11.5855
11008 3635 5 -0.35 23.5971 17.4399 12.1395
11090 3663 5 -0.35 14.3539 16.1188 11.8934
11091 3663 6 0.7 31.9202 16.857 12.4511
11092 3663 5 -0.35 31.2205 17.5952 13.0089
11126 3675 5 -0.35 13.6964 13.3655 8.98779
11127 3675 6 0.7 13.4261 12.5151 9.72899
11128 3675 5 -0.35 13.1558 11.6647 10.4702
11153 3684 5 -0.35 13.0127 7.62306 8.11379
11154 3684 6 0.7 13.332 7.58378 6.9993
11155 3684 5 -0.35 13.6514 7.54451 5.88482
11159 3686 5 -0.35 28.5023 11.127 11.6945
11160 3686 6 0.7 28.5888 10.0874 11.1872
11161 3686 5 -0.35 10.4093 9.0478 10.6799
11186 3695 5 -0.35 16.1503 8.32081 6.91551
11187 3695 6 0.7 16.1708 9.15765 7.71855
11188 3695 5 -0.35 16.1913 9.9945 8.52159
11189 3696 5 -0.35 27.0395 14.3873 6.39512
11190 3696 6 0.7 26.663 13.9833 5.37502
11191 3696 5 -0.35 26.2865 13.5793 4.35492
11195 3698 5 -0.35 22.0902 13.8329 6.13722
11196 3698 6 0.7 21.9528 13.9548 4.99185
11197 3698 5 -0.35 21.8154 14.0767 3.84649
11198 3699 5 -0.35 16.4278 3.71765 0.747096
11199 3699 6 0.7 15.4955 4.27411 1.15544
11200 3699 5 -0.35 14.5632 4.83056 1.56379
11204 3701 5 -0.35 9.14244 13.5804 1.18246
11205 3701 6 0.7 9.93546 12.9065 0.670062
11206 3701 5 -0.35 10.7285 12.2326 0.157667
11207 3702 5 -0.35 18.6246 16.7169 9.67403
11208 3702 6 0.7 18.8319 15.9459 8.83257
11209 3702 5 -0.35 19.0393 15.1748 7.99111
11210 3703 5 -0.35 21.055 10.0274 6.62077
11211 3703 6 0.7 21.3868 10.2217 5.52636
11212 3703 5 -0.35 21.7187 10.4161 4.43195
ITEM: TIMESTEP
10000
ITEM: NUMBER OF ATOMS
118
ITEM: BOX BOUNDS xy xz yz pp pp pp
0.0000000000000000e+00 3.6531964750000000e+01 9.1329911900000003e+00
0.0000000000000000e+00 2.1091739680000000e+01 9.1329911900000003e+00
0.0000000000000000e+00 1.4914112149999999e+01 5.2729349200000000e+00
ITEM: ATOMS id mol type q x y z
1 1 1 1.10383 27.399 17.6496 10.5383
2 1 1 1.10383 9.13299 3.44217 4.3758
3 1 1 1.10383 27.399 15.8188 13.1274
4 1 1 1.10383 9.13299 5.27293 1.78671
5 1 1 1.10383 25.8135 14.9034 10.5383
6 1 1 1.10383 10.7185 6.18832 4.3758
7 1 1 1.10383 28.9845 14.9034 10.5383
8 1 1 1.10383 7.5475 6.18832 4.3758
9 1 2 0.115889 18.266 5.48596 12.6084
10 1 2 0.115889 18.266 15.6058 2.30572
11 1 2 0.115888 18.266 13.716 0.969417
12 1 2 0.115888 18.266 7.37578 13.9447
13 1 2 0.11589 25.3934 11.4908 8.12521
14 1 2 0.11589 11.1386 9.60096 6.7889
15 1 2 0.115888 11.1386 11.4908 8.12521
16 1 2 0.115888 25.3934 9.60096 6.7889
17 1 2 0.115889 15.5206 8.96083 0.969417
18 1 2 0.115889 21.0114 12.1309 13.9447
19 1 2 0.115888 22.648 13.0758 12.6084
20 1 2 0.115888 13.884 8.01592 2.30572
21 1 2 0.115889 21.0114 3.90092 8.12521
22 1 2 0.115889 15.5206 17.1908 6.7889
23 1 2 0.115887 13.884 16.2459 8.12521
24 1 2 0.115887 22.648 4.84583 6.7889
25 1 2 0.115889 22.648 16.2459 8.12521
26 1 2 0.115889 13.884 4.84583 6.7889
27 1 2 0.115887 15.5206 3.90092 8.12521
28 1 2 0.115887 21.0114 17.1908 6.7889
29 1 2 0.115889 21.0114 8.96083 0.969417
30 1 2 0.115889 15.5206 12.1309 13.9447
31 1 2 0.115887 13.884 13.0758 12.6084
32 1 2 0.115887 22.648 8.01592 2.30572
33 1 3 0.671939 27.399 18.7442 13.2542
34 1 3 0.671939 9.13299 2.34751 1.65994
35 1 3 0.671939 27.399 12.8934 9.117
36 1 3 0.671939 9.13299 8.19836 5.79712
37 1 3 0.67194 24.8655 14.3561 13.2542
38 1 3 0.67194 11.6665 6.73565 1.65994
39 1 3 0.67194 29.9325 17.2815 9.117
40 1 3 0.67194 6.5995 3.81022 5.79712
41 1 3 0.67194 24.8655 17.2815 9.117
42 1 3 0.67194 11.6665 3.81022 5.79712
43 1 3 0.67194 29.9325 14.3561 13.2542
44 1 3 0.67194 6.5995 6.73565 1.65994
45 1 3 -0.11508 27.399 19.957 14.1117
46 1 3 -0.11508 9.13299 1.13474 0.802379
47 1 3 -0.11508 27.399 11.6806 8.25944
48 1 3 -0.11508 9.13299 9.41113 6.65468
49 1 3 -0.11508 23.8152 13.7497 14.1117
50 1 3 -0.11508 12.7168 7.34203 0.802379
51 1 3 -0.11508 30.9828 17.8879 8.25944
52 1 3 -0.11508 5.54921 3.20384 6.65468
53 1 3 -0.11508 23.8152 17.8879 8.25944
54 1 3 -0.11508 12.7168 3.20384 6.65468
55 1 3 -0.11508 30.9828 13.7497 14.1117
56 1 3 -0.11508 5.54921 7.34203 0.802379
57 1 3 -0.0559 18.266 5.39949 13.5316
58 1 3 -0.0559 18.266 15.6923 1.38254
59 1 3 -0.055903 18.266 14.5575 0.580159
60 1 3 -0.055903 18.266 6.53422 14.334
61 1 3 -0.0559 26.1971 11.1132 7.85825
62 1 3 -0.0559 10.3349 9.9785 7.05587
63 1 3 -0.055903 10.3349 11.1132 7.85825
64 1 3 -0.055903 26.1971 9.9785 7.05587
65 1 3 -0.0559 14.7918 8.54005 0.580159
66 1 3 -0.0559 21.7402 12.5517 14.334
67 1 3 -0.055903 22.7229 13.1191 13.5316
68 1 3 -0.055903 13.8091 7.97268 1.38254
69 1 3 -0.0559 21.7402 3.39366 7.85825
70 1 3 -0.0559 14.7918 17.6981 7.05587
71 1 3 -0.055903 13.8091 17.1307 7.85825
72 1 3 -0.055903 22.7229 3.96103 7.05587
73 1 3 -0.055901 22.7229 17.1307 7.85825
74 1 3 -0.055901 13.8091 3.96103 7.05587
75 1 3 -0.055903 14.7918 3.39366 7.85825
76 1 3 -0.055903 21.7402 17.6981 7.05587
77 1 3 -0.0559 21.7402 8.54005 0.580159
78 1 3 -0.0559 14.7918 12.5517 14.334
79 1 3 -0.055903 13.8091 13.1191 13.5316
80 1 3 -0.055903 22.7229 7.97268 1.38254
81 1 4 -1.26215 27.399 15.8188 11.1856
82 1 4 -1.26215 9.13299 5.27293 3.72853
83 1 4 -0.60118 27.399 18.9383 11.9641
84 1 4 -0.60118 9.13299 2.15347 2.95001
85 1 4 -0.601179 27.399 17.5926 13.8671
86 1 4 -0.601179 9.13299 3.49912 1.04697
87 1 4 -0.601179 26.2336 13.3722 9.45555
88 1 4 -0.601179 10.2984 7.71958 5.45857
89 1 4 -0.60118 28.5643 13.3722 9.45555
90 1 4 -0.60118 7.96762 7.71958 5.45857
91 1 4 -0.60118 25.8628 14.9319 13.8671
92 1 4 -0.60118 10.6692 6.15984 1.04697
93 1 4 -0.601179 24.6974 14.2591 11.9641
94 1 4 -0.601179 11.8345 6.83267 2.95001
95 1 4 -0.60118 28.9351 18.0514 9.45555
96 1 4 -0.60118 7.59682 3.04037 5.45857
97 1 4 -0.601179 30.1005 16.0329 9.45555
98 1 4 -0.601179 6.43145 5.05885 5.45857
99 1 4 -0.601179 24.6974 16.0329 9.45555
100 1 4 -0.601179 11.8345 5.05885 5.45857
101 1 4 -0.60118 25.8628 18.0514 9.45555
102 1 4 -0.60118 10.6692 3.04037 5.45857
103 1 4 -0.60118 28.9351 14.9319 13.8671
104 1 4 -0.60118 7.59682 6.15984 1.04697
105 1 4 -0.60118 30.1005 14.2591 11.9641
106 1 4 -0.60118 6.43145 6.83267 2.95001
12821 4240 5 -0.35 28.59 15.1038 4.88297
12822 4240 6 0.7 29.3069 15.9792 4.6273
12823 4240 5 -0.35 11.7578 16.8546 4.37162
12833 4244 5 -0.35 12.4711 10.3854 12.4321
12834 4244 6 0.7 12.8047 10.0747 11.3654
12835 4244 5 -0.35 13.1383 9.76398 10.2987
12848 4249 5 -0.35 4.00536 4.4529 1.20779
12849 4249 6 0.7 4.23046 3.7957 0.278793
12850 4249 5 -0.35 13.5886 8.41145 14.2639
12851 4250 5 -0.35 8.64577 11.8732 3.74324
12852 4250 6 0.7 7.97046 11.0511 3.28094
12853 4250 5 -0.35 7.29516 10.229 2.81863
ITEM: TIMESTEP
11000
ITEM: NUMBER OF ATOMS
151
ITEM: BOX BOUNDS xy xz yz pp pp pp
0.0000000000000000e+00 3.6531964750000000e+01 9.1329911900000003e+00
0.0000000000000000e+00 2.1091739680000000e+01 9.1329911900000003e+00
0.0000000000000000e+00 1.4914112149999999e+01 5.2729349200000000e+00
ITEM: ATOMS id mol type q x y z
1 1 1 1.10383 27.399 17.6496 10.5383
2 1 1 1.10383 9.13299 3.44217 4.3758
3 1 1 1.10383 27.399 15.8188 13.1274
4 1 1 1.10383 9.13299 5.27293 1.78671
5 1 1 1.10383 25.8135 14.9034 10.5383
6 1 1 1.10383 10.7185 6.18832 4.3758
7 1 1 1.10383 28.9845 14.9034 10.5383
8 1 1 1.10383 7.5475 6.18832 4.3758
9 1 2 0.115889 18.266 5.48596 12.6084
10 1 2 0.115889 18.266 15.6058 2.30572
11 1 2 0.115888 18.266 13.716 0.969417
12 1 2 0.115888 18.266 7.37578 13.9447
13 1 2 0.11589 25.3934 11.4908 8.12521
14 1 2 0.11589 11.1386 9.60096 6.7889
15 1 2 0.115888 11.1386 11.4908 8.12521
16 1 2 0.115888 25.3934 9.60096 6.7889
17 1 2 0.115889 15.5206 8.96083 0.969417
18 1 2 0.115889 21.0114 12.1309 13.9447
19 1 2 0.115888 22.648 13.0758 12.6084
20 1 2 0.115888 13.884 8.01592 2.30572
21 1 2 0.115889 21.0114 3.90092 8.12521
22 1 2 0.115889 15.5206 17.1908 6.7889
23 1 2 0.115887 13.884 16.2459 8.12521
24 1 2 0.115887 22.648 4.84583 6.7889
25 1 2 0.115889 22.648 16.2459 8.12521
26 1 2 0.115889 13.884 4.84583 6.7889
27 1 2 0.115887 15.5206 3.90092 8.12521
28 1 2 0.115887 21.0114 17.1908 6.7889
29 1 2 0.115889 21.0114 8.96083 0.969417
30 1 2 0.115889 15.5206 12.1309 13.9447
31 1 2 0.115887 13.884 13.0758 12.6084
32 1 2 0.115887 22.648 8.01592 2.30572
33 1 3 0.671939 27.399 18.7442 13.2542
34 1 3 0.671939 9.13299 2.34751 1.65994
35 1 3 0.671939 27.399 12.8934 9.117
36 1 3 0.671939 9.13299 8.19836 5.79712
37 1 3 0.67194 24.8655 14.3561 13.2542
38 1 3 0.67194 11.6665 6.73565 1.65994
39 1 3 0.67194 29.9325 17.2815 9.117
40 1 3 0.67194 6.5995 3.81022 5.79712
41 1 3 0.67194 24.8655 17.2815 9.117
42 1 3 0.67194 11.6665 3.81022 5.79712
43 1 3 0.67194 29.9325 14.3561 13.2542
44 1 3 0.67194 6.5995 6.73565 1.65994
45 1 3 -0.11508 27.399 19.957 14.1117
46 1 3 -0.11508 9.13299 1.13474 0.802379
47 1 3 -0.11508 27.399 11.6806 8.25944
48 1 3 -0.11508 9.13299 9.41113 6.65468
49 1 3 -0.11508 23.8152 13.7497 14.1117
50 1 3 -0.11508 12.7168 7.34203 0.802379
51 1 3 -0.11508 30.9828 17.8879 8.25944
52 1 3 -0.11508 5.54921 3.20384 6.65468
53 1 3 -0.11508 23.8152 17.8879 8.25944
54 1 3 -0.11508 12.7168 3.20384 6.65468
55 1 3 -0.11508 30.9828 13.7497 14.1117
56 1 3 -0.11508 5.54921 7.34203 0.802379
57 1 3 -0.0559 18.266 5.39949 13.5316
58 1 3 -0.0559 18.266 15.6923 1.38254
59 1 3 -0.055903 18.266 14.5575 0.580159
60 1 3 -0.055903 18.266 6.53422 14.334
61 1 3 -0.0559 26.1971 11.1132 7.85825
62 1 3 -0.0559 10.3349 9.9785 7.05587
63 1 3 -0.055903 10.3349 11.1132 7.85825
64 1 3 -0.055903 26.1971 9.9785 7.05587
65 1 3 -0.0559 14.7918 8.54005 0.580159
66 1 3 -0.0559 21.7402 12.5517 14.334
67 1 3 -0.055903 22.7229 13.1191 13.5316
68 1 3 -0.055903 13.8091 7.97268 1.38254
69 1 3 -0.0559 21.7402 3.39366 7.85825
70 1 3 -0.0559 14.7918 17.6981 7.05587
71 1 3 -0.055903 13.8091 17.1307 7.85825
72 1 3 -0.055903 22.7229 3.96103 7.05587
73 1 3 -0.055901 22.7229 17.1307 7.85825
74 1 3 -0.055901 13.8091 3.96103 7.05587
75 1 3 -0.055903 14.7918 3.39366 7.85825
76 1 3 -0.055903 21.7402 17.6981 7.05587
77 1 3 -0.0559 21.7402 8.54005 0.580159
78 1 3 -0.0559 14.7918 12.5517 14.334
79 1 3 -0.055903 13.8091 13.1191 13.5316
80 1 3 -0.055903 22.7229 7.97268 1.38254
81 1 4 -1.26215 27.399 15.8188 11.1856
82 1 4 -1.26215 9.13299 5.27293 3.72853
83 1 4 -0.60118 27.399 18.9383 11.9641
84 1 4 -0.60118 9.13299 2.15347 2.95001
85 1 4 -0.601179 27.399 17.5926 13.8671
86 1 4 -0.601179 9.13299 3.49912 1.04697
87 1 4 -0.601179 26.2336 13.3722 9.45555
88 1 4 -0.601179 10.2984 7.71958 5.45857
89 1 4 -0.60118 28.5643 13.3722 9.45555
90 1 4 -0.60118 7.96762 7.71958 5.45857
91 1 4 -0.60118 25.8628 14.9319 13.8671
92 1 4 -0.60118 10.6692 6.15984 1.04697
93 1 4 -0.601179 24.6974 14.2591 11.9641
94 1 4 -0.601179 11.8345 6.83267 2.95001
95 1 4 -0.60118 28.9351 18.0514 9.45555
96 1 4 -0.60118 7.59682 3.04037 5.45857
97 1 4 -0.601179 30.1005 16.0329 9.45555
98 1 4 -0.601179 6.43145 5.05885 5.45857
99 1 4 -0.601179 24.6974 16.0329 9.45555
100 1 4 -0.601179 11.8345 5.05885 5.45857
101 1 4 -0.60118 25.8628 18.0514 9.45555
102 1 4 -0.60118 10.6692 3.04037 5.45857
103 1 4 -0.60118 28.9351 14.9319 13.8671
104 1 4 -0.60118 7.59682 6.15984 1.04697
105 1 4 -0.60118 30.1005 14.2591 11.9641
106 1 4 -0.60118 6.43145 6.83267 2.95001
14411 4770 5 -0.35 22.012 16.6288 11.5128
14412 4770 6 0.7 21.5509 15.8983 10.7387
14413 4770 5 -0.35 21.0897 15.1677 9.96463
14432 4777 5 -0.35 12.6297 7.81473 7.72381
14433 4777 6 0.7 11.7823 7.0292 7.82531
14434 4777 5 -0.35 10.9348 6.24367 7.92682
14516 4805 5 -0.35 9.15225 8.17855 2.67483
14517 4805 6 0.7 9.11775 8.7914 1.69055
14518 4805 5 -0.35 9.08324 9.40425 0.706256
14525 4808 5 -0.35 12.8212 3.71158 1.47969
14526 4808 6 0.7 13.0491 2.76997 0.841698
14527 4808 5 -0.35 13.277 1.82836 0.203705
14528 4809 5 -0.35 16.7263 3.88779 2.7183
14529 4809 6 0.7 15.9612 3.03368 2.54291
14530 4809 5 -0.35 15.1961 2.17957 2.36753
14531 4810 5 -0.35 18.216 2.92514 6.29044
14532 4810 6 0.7 18.2375 4.03142 6.63869
14533 4810 5 -0.35 18.259 5.1377 6.98694
14543 4814 5 -0.35 28.5182 15.7432 5.84594
14544 4814 6 0.7 29.5969 15.8219 5.42663
14545 4814 5 -0.35 12.4097 15.9006 5.00732
14570 4823 5 -0.35 23.0009 8.35836 7.42564
14571 4823 6 0.7 22.8286 8.58375 6.30087
14572 4823 5 -0.35 22.6563 8.80913 5.17609
14573 4824 5 -0.35 25.4077 9.1393 11.6176
14574 4824 6 0.7 24.8763 9.4939 12.5859
14575 4824 5 -0.35 24.3448 9.84849 13.5541
14579 4826 5 -0.35 17.8103 13.9124 12.2257
14580 4826 6 0.7 18.5684 14.7784 12.3703
14581 4826 5 -0.35 19.3265 15.6444 12.5149
14582 4827 5 -0.35 25.7949 13.9101 6.10229
14583 4827 6 0.7 25.754 13.5041 5.01642
14584 4827 5 -0.35 25.7132 13.0981 3.93055
14585 4828 5 -0.35 27.0291 16.1812 1.26309
14586 4828 6 0.7 17.6686 0.16711 0.142528
14587 4828 5 -0.35 26.574 5.24472 13.9361
14591 4830 5 -0.35 23.3112 17.0117 14.269
14592 4830 6 0.7 22.9956 18.0574 14.6596
14593 4830 5 -0.35 13.5471 13.8301 0.13604
14594 4831 5 -0.35 14.9422 16.8142 12.7305
14595 4831 6 0.7 14.6225 16.2317 11.7797
14596 4831 5 -0.35 14.3028 15.6493 10.8288
14597 4832 5 -0.35 20.6691 13.7979 5.45727
14598 4832 6 0.7 21.23 14.6557 4.91394
14599 4832 5 -0.35 21.791 15.5134 4.37062
ITEM: TIMESTEP
12000
ITEM: NUMBER OF ATOMS
112
ITEM: BOX BOUNDS xy xz yz pp pp pp
0.0000000000000000e+00 3.6531964750000000e+01 9.1329911900000003e+00
0.0000000000000000e+00 2.1091739680000000e+01 9.1329911900000003e+00
0.0000000000000000e+00 1.4914112149999999e+01 5.2729349200000000e+00
ITEM: ATOMS id mol type q x y z
1 1 1 1.10383 27.399 17.6496 10.5383
2 1 1 1.10383 9.13299 3.44217 4.3758
3 1 1 1.10383 27.399 15.8188 13.1274
4 1 1 1.10383 9.13299 5.27293 1.78671
5 1 1 1.10383 25.8135 14.9034 10.5383
6 1 1 1.10383 10.7185 6.18832 4.3758
7 1 1 1.10383 28.9845 14.9034 10.5383
8 1 1 1.10383 7.5475 6.18832 4.3758
9 1 2 0.115889 18.266 5.48596 12.6084
10 1 2 0.115889 18.266 15.6058 2.30572
11 1 2 0.115888 18.266 13.716 0.969417
12 1 2 0.115888 18.266 7.37578 13.9447
13 1 2 0.11589 25.3934 11.4908 8.12521
14 1 2 0.11589 11.1386 9.60096 6.7889
15 1 2 0.115888 11.1386 11.4908 8.12521
16 1 2 0.115888 25.3934 9.60096 6.7889
17 1 2 0.115889 15.5206 8.96083 0.969417
18 1 2 0.115889 21.0114 12.1309 13.9447
19 1 2 0.115888 22.648 13.0758 12.6084
20 1 2 0.115888 13.884 8.01592 2.30572
21 1 2 0.115889 21.0114 3.90092 8.12521
22 1 2 0.115889 15.5206 17.1908 6.7889
23 1 2 0.115887 13.884 16.2459 8.12521
24 1 2 0.115887 22.648 4.84583 6.7889
25 1 2 0.115889 22.648 16.2459 8.12521
26 1 2 0.115889 13.884 4.84583 6.7889
27 1 2 0.115887 15.5206 3.90092 8.12521
28 1 2 0.115887 21.0114 17.1908 6.7889
29 1 2 0.115889 21.0114 8.96083 0.969417
30 1 2 0.115889 15.5206 12.1309 13.9447
31 1 2 0.115887 13.884 13.0758 12.6084
32 1 2 0.115887 22.648 8.01592 2.30572
33 1 3 0.671939 27.399 18.7442 13.2542
34 1 3 0.671939 9.13299 2.34751 1.65994
35 1 3 0.671939 27.399 12.8934 9.117
36 1 3 0.671939 9.13299 8.19836 5.79712
37 1 3 0.67194 24.8655 14.3561 13.2542
38 1 3 0.67194 11.6665 6.73565 1.65994
39 1 3 0.67194 29.9325 17.2815 9.117
40 1 3 0.67194 6.5995 3.81022 5.79712
41 1 3 0.67194 24.8655 17.2815 9.117
42 1 3 0.67194 11.6665 3.81022 5.79712
43 1 3 0.67194 29.9325 14.3561 13.2542
44 1 3 0.67194 6.5995 6.73565 1.65994
45 1 3 -0.11508 27.399 19.957 14.1117
46 1 3 -0.11508 9.13299 1.13474 0.802379
47 1 3 -0.11508 27.399 11.6806 8.25944
48 1 3 -0.11508 9.13299 9.41113 6.65468
49 1 3 -0.11508 23.8152 13.7497 14.1117
50 1 3 -0.11508 12.7168 7.34203 0.802379
51 1 3 -0.11508 30.9828 17.8879 8.25944
52 1 3 -0.11508 5.54921 3.20384 6.65468
53 1 3 -0.11508 23.8152 17.8879 8.25944
54 1 3 -0.11508 12.7168 3.20384 6.65468
55 1 3 -0.11508 30.9828 13.7497 14.1117
56 1 3 -0.11508 5.54921 7.34203 0.802379
57 1 3 -0.0559 18.266 5.39949 13.5316
58 1 3 -0.0559 18.266 15.6923 1.38254
59 1 3 -0.055903 18.266 14.5575 0.580159
60 1 3 -0.055903 18.266 6.53422 14.334
61 1 3 -0.0559 26.1971 11.1132 7.85825
62 1 3 -0.0559 10.3349 9.9785 7.05587
63 1 3 -0.055903 10.3349 11.1132 7.85825
64 1 3 -0.055903 26.1971 9.9785 7.05587
65 1 3 -0.0559 14.7918 8.54005 0.580159
66 1 3 -0.0559 21.7402 12.5517 14.334
67 1 3 -0.055903 22.7229 13.1191 13.5316
68 1 3 -0.055903 13.8091 7.97268 1.38254
69 1 3 -0.0559 21.7402 3.39366 7.85825
70 1 3 -0.0559 14.7918 17.6981 7.05587
71 1 3 -0.055903 13.8091 17.1307 7.85825
72 1 3 -0.055903 22.7229 3.96103 7.05587
73 1 3 -0.055901 22.7229 17.1307 7.85825
74 1 3 -0.055901 13.8091 3.96103 7.05587
75 1 3 -0.055903 14.7918 3.39366 7.85825
76 1 3 -0.055903 21.7402 17.6981 7.05587
77 1 3 -0.0559 21.7402 8.54005 0.580159
78 1 3 -0.0559 14.7918 12.5517 14.334
79 1 3 -0.055903 13.8091 13.1191 13.5316
80 1 3 -0.055903 22.7229 7.97268 1.38254
81 1 4 -1.26215 27.399 15.8188 11.1856
82 1 4 -1.26215 9.13299 5.27293 3.72853
83 1 4 -0.60118 27.399 18.9383 11.9641
84 1 4 -0.60118 9.13299 2.15347 2.95001
85 1 4 -0.601179 27.399 17.5926 13.8671
86 1 4 -0.601179 9.13299 3.49912 1.04697
87 1 4 -0.601179 26.2336 13.3722 9.45555
88 1 4 -0.601179 10.2984 7.71958 5.45857
89 1 4 -0.60118 28.5643 13.3722 9.45555
90 1 4 -0.60118 7.96762 7.71958 5.45857
91 1 4 -0.60118 25.8628 14.9319 13.8671
92 1 4 -0.60118 10.6692 6.15984 1.04697
93 1 4 -0.601179 24.6974 14.2591 11.9641
94 1 4 -0.601179 11.8345 6.83267 2.95001
95 1 4 -0.60118 28.9351 18.0514 9.45555
96 1 4 -0.60118 7.59682 3.04037 5.45857
97 1 4 -0.601179 30.1005 16.0329 9.45555
98 1 4 -0.601179 6.43145 5.05885 5.45857
99 1 4 -0.601179 24.6974 16.0329 9.45555
100 1 4 -0.601179 11.8345 5.05885 5.45857
101 1 4 -0.60118 25.8628 18.0514 9.45555
102 1 4 -0.60118 10.6692 3.04037 5.45857
103 1 4 -0.60118 28.9351 14.9319 13.8671
104 1 4 -0.60118 7.59682 6.15984 1.04697
105 1 4 -0.60118 30.1005 14.2591 11.9641
106 1 4 -0.60118 6.43145 6.83267 2.95001
16001 5300 5 -0.35 16.9166 2.7327 5.23874
16002 5300 6 0.7 15.94 2.14889 5.01284
16003 5300 5 -0.35 24.0964 17.3839 4.78694
16013 5304 5 -0.35 21.2411 15.0491 1.78882
16014 5304 6 0.7 21.3923 15.2436 0.65529
16015 5304 5 -0.35 30.6765 20.7111 14.4359
ITEM: TIMESTEP
13000
ITEM: NUMBER OF ATOMS
136
ITEM: BOX BOUNDS xy xz yz pp pp pp
0.0000000000000000e+00 3.6531964750000000e+01 9.1329911900000003e+00
0.0000000000000000e+00 2.1091739680000000e+01 9.1329911900000003e+00
0.0000000000000000e+00 1.4914112149999999e+01 5.2729349200000000e+00
ITEM: ATOMS id mol type q x y z
1 1 1 1.10383 27.399 17.6496 10.5383
2 1 1 1.10383 9.13299 3.44217 4.3758
3 1 1 1.10383 27.399 15.8188 13.1274
4 1 1 1.10383 9.13299 5.27293 1.78671
5 1 1 1.10383 25.8135 14.9034 10.5383
6 1 1 1.10383 10.7185 6.18832 4.3758
7 1 1 1.10383 28.9845 14.9034 10.5383
8 1 1 1.10383 7.5475 6.18832 4.3758
9 1 2 0.115889 18.266 5.48596 12.6084
10 1 2 0.115889 18.266 15.6058 2.30572
11 1 2 0.115888 18.266 13.716 0.969417
12 1 2 0.115888 18.266 7.37578 13.9447
13 1 2 0.11589 25.3934 11.4908 8.12521
14 1 2 0.11589 11.1386 9.60096 6.7889
15 1 2 0.115888 11.1386 11.4908 8.12521
16 1 2 0.115888 25.3934 9.60096 6.7889
17 1 2 0.115889 15.5206 8.96083 0.969417
18 1 2 0.115889 21.0114 12.1309 13.9447
19 1 2 0.115888 22.648 13.0758 12.6084
20 1 2 0.115888 13.884 8.01592 2.30572
21 1 2 0.115889 21.0114 3.90092 8.12521
22 1 2 0.115889 15.5206 17.1908 6.7889
23 1 2 0.115887 13.884 16.2459 8.12521
24 1 2 0.115887 22.648 4.84583 6.7889
25 1 2 0.115889 22.648 16.2459 8.12521
26 1 2 0.115889 13.884 4.84583 6.7889
27 1 2 0.115887 15.5206 3.90092 8.12521
28 1 2 0.115887 21.0114 17.1908 6.7889
29 1 2 0.115889 21.0114 8.96083 0.969417
30 1 2 0.115889 15.5206 12.1309 13.9447
31 1 2 0.115887 13.884 13.0758 12.6084
32 1 2 0.115887 22.648 8.01592 2.30572
33 1 3 0.671939 27.399 18.7442 13.2542
34 1 3 0.671939 9.13299 2.34751 1.65994
35 1 3 0.671939 27.399 12.8934 9.117
36 1 3 0.671939 9.13299 8.19836 5.79712
37 1 3 0.67194 24.8655 14.3561 13.2542
38 1 3 0.67194 11.6665 6.73565 1.65994
39 1 3 0.67194 29.9325 17.2815 9.117
40 1 3 0.67194 6.5995 3.81022 5.79712
41 1 3 0.67194 24.8655 17.2815 9.117
42 1 3 0.67194 11.6665 3.81022 5.79712
43 1 3 0.67194 29.9325 14.3561 13.2542
44 1 3 0.67194 6.5995 6.73565 1.65994
45 1 3 -0.11508 27.399 19.957 14.1117
46 1 3 -0.11508 9.13299 1.13474 0.802379
47 1 3 -0.11508 27.399 11.6806 8.25944
48 1 3 -0.11508 9.13299 9.41113 6.65468
49 1 3 -0.11508 23.8152 13.7497 14.1117
50 1 3 -0.11508 12.7168 7.34203 0.802379
51 1 3 -0.11508 30.9828 17.8879 8.25944
52 1 3 -0.11508 5.54921 3.20384 6.65468
53 1 3 -0.11508 23.8152 17.8879 8.25944
54 1 3 -0.11508 12.7168 3.20384 6.65468
55 1 3 -0.11508 30.9828 13.7497 14.1117
56 1 3 -0.11508 5.54921 7.34203 0.802379
57 1 3 -0.0559 18.266 5.39949 13.5316
58 1 3 -0.0559 18.266 15.6923 1.38254
59 1 3 -0.055903 18.266 14.5575 0.580159
60 1 3 -0.055903 18.266 6.53422 14.334
61 1 3 -0.0559 26.1971 11.1132 7.85825
62 1 3 -0.0559 10.3349 9.9785 7.05587
63 1 3 -0.055903 10.3349 11.1132 7.85825
64 1 3 -0.055903 26.1971 9.9785 7.05587
65 1 3 -0.0559 14.7918 8.54005 0.580159
66 1 3 -0.0559 21.7402 12.5517 14.334
67 1 3 -0.055903 22.7229 13.1191 13.5316
68 1 3 -0.055903 13.8091 7.97268 1.38254
69 1 3 -0.0559 21.7402 3.39366 7.85825
70 1 3 -0.0559 14.7918 17.6981 7.05587
71 1 3 -0.055903 13.8091 17.1307 7.85825
72 1 3 -0.055903 22.7229 3.96103 7.05587
73 1 3 -0.055901 22.7229 17.1307 7.85825
74 1 3 -0.055901 13.8091 3.96103 7.05587
75 1 3 -0.055903 14.7918 3.39366 7.85825
76 1 3 -0.055903 21.7402 17.6981 7.05587
77 1 3 -0.0559 21.7402 8.54005 0.580159
78 1 3 -0.0559 14.7918 12.5517 14.334
79 1 3 -0.055903 13.8091 13.1191 13.5316
80 1 3 -0.055903 22.7229 7.97268 1.38254
81 1 4 -1.26215 27.399 15.8188 11.1856
82 1 4 -1.26215 9.13299 5.27293 3.72853
83 1 4 -0.60118 27.399 18.9383 11.9641
84 1 4 -0.60118 9.13299 2.15347 2.95001
85 1 4 -0.601179 27.399 17.5926 13.8671
86 1 4 -0.601179 9.13299 3.49912 1.04697
87 1 4 -0.601179 26.2336 13.3722 9.45555
88 1 4 -0.601179 10.2984 7.71958 5.45857
89 1 4 -0.60118 28.5643 13.3722 9.45555
90 1 4 -0.60118 7.96762 7.71958 5.45857
91 1 4 -0.60118 25.8628 14.9319 13.8671
92 1 4 -0.60118 10.6692 6.15984 1.04697
93 1 4 -0.601179 24.6974 14.2591 11.9641
94 1 4 -0.601179 11.8345 6.83267 2.95001
95 1 4 -0.60118 28.9351 18.0514 9.45555
96 1 4 -0.60118 7.59682 3.04037 5.45857
97 1 4 -0.601179 30.1005 16.0329 9.45555
98 1 4 -0.601179 6.43145 5.05885 5.45857
99 1 4 -0.601179 24.6974 16.0329 9.45555
100 1 4 -0.601179 11.8345 5.05885 5.45857
101 1 4 -0.60118 25.8628 18.0514 9.45555
102 1 4 -0.60118 10.6692 3.04037 5.45857
103 1 4 -0.60118 28.9351 14.9319 13.8671
104 1 4 -0.60118 7.59682 6.15984 1.04697
105 1 4 -0.60118 30.1005 14.2591 11.9641
106 1 4 -0.60118 6.43145 6.83267 2.95001
17096 5665 5 -0.35 12.9372 3.94775 2.94865
17097 5665 6 0.7 13.9353 3.80046 3.52113
17098 5665 5 -0.35 14.9334 3.65317 4.0936
17279 5726 5 -0.35 16.0864 5.05594 10.6086
17280 5726 6 0.7 15.2043 4.38069 10.9424
17281 5726 5 -0.35 23.4551 19.5242 11.2762
17348 5749 5 -0.35 9.89114 10.9897 2.68515
17349 5749 6 0.7 9.04486 11.3571 3.38832
17350 5749 5 -0.35 26.4646 11.7244 4.09149
17396 5765 5 -0.35 25.8384 7.33483 8.80134
17397 5765 6 0.7 24.8211 7.31656 8.24438
17398 5765 5 -0.35 23.8037 7.29829 7.68742
17405 5768 5 -0.35 24.8569 11.2866 11.0577
17406 5768 6 0.7 25.1648 11.1455 12.1672
17407 5768 5 -0.35 25.4727 11.0045 13.2766
17429 5776 5 -0.35 20.0703 6.82729 10.9464
17430 5776 6 0.7 21.0655 6.73187 10.3581
17431 5776 5 -0.35 22.0608 6.63645 9.76984
17441 5780 5 -0.35 27.1342 13.9345 5.68764
17442 5780 6 0.7 26.1623 14.135 6.28834
17443 5780 5 -0.35 25.1904 14.3355 6.88904
17444 5781 5 -0.35 21.4044 8.75067 14.7127
17445 5781 6 0.7 22.1267 8.83411 13.8089
17446 5781 5 -0.35 22.849 8.91756 12.9051
17447 5782 5 -0.35 15.4247 8.1129 9.36833
17448 5782 6 0.7 16.0909 9.05495 9.48775
17449 5782 5 -0.35 16.7571 9.99701 9.60718
17450 5783 5 -0.35 13.0809 6.7095 9.97535
17451 5783 6 0.7 12.5889 6.66419 8.92585
17452 5783 5 -0.35 12.0969 6.61888 7.87635
ITEM: TIMESTEP
14000
ITEM: NUMBER OF ATOMS
142
ITEM: BOX BOUNDS xy xz yz pp pp pp
0.0000000000000000e+00 3.6531964750000000e+01 9.1329911900000003e+00
0.0000000000000000e+00 2.1091739680000000e+01 9.1329911900000003e+00
0.0000000000000000e+00 1.4914112149999999e+01 5.2729349200000000e+00
ITEM: ATOMS id mol type q x y z
1 1 1 1.10383 27.399 17.6496 10.5383
2 1 1 1.10383 9.13299 3.44217 4.3758
3 1 1 1.10383 27.399 15.8188 13.1274
4 1 1 1.10383 9.13299 5.27293 1.78671
5 1 1 1.10383 25.8135 14.9034 10.5383
6 1 1 1.10383 10.7185 6.18832 4.3758
7 1 1 1.10383 28.9845 14.9034 10.5383
8 1 1 1.10383 7.5475 6.18832 4.3758
9 1 2 0.115889 18.266 5.48596 12.6084
10 1 2 0.115889 18.266 15.6058 2.30572
11 1 2 0.115888 18.266 13.716 0.969417
12 1 2 0.115888 18.266 7.37578 13.9447
13 1 2 0.11589 25.3934 11.4908 8.12521
14 1 2 0.11589 11.1386 9.60096 6.7889
15 1 2 0.115888 11.1386 11.4908 8.12521
16 1 2 0.115888 25.3934 9.60096 6.7889
17 1 2 0.115889 15.5206 8.96083 0.969417
18 1 2 0.115889 21.0114 12.1309 13.9447
19 1 2 0.115888 22.648 13.0758 12.6084
20 1 2 0.115888 13.884 8.01592 2.30572
21 1 2 0.115889 21.0114 3.90092 8.12521
22 1 2 0.115889 15.5206 17.1908 6.7889
23 1 2 0.115887 13.884 16.2459 8.12521
24 1 2 0.115887 22.648 4.84583 6.7889
25 1 2 0.115889 22.648 16.2459 8.12521
26 1 2 0.115889 13.884 4.84583 6.7889
27 1 2 0.115887 15.5206 3.90092 8.12521
28 1 2 0.115887 21.0114 17.1908 6.7889
29 1 2 0.115889 21.0114 8.96083 0.969417
30 1 2 0.115889 15.5206 12.1309 13.9447
31 1 2 0.115887 13.884 13.0758 12.6084
32 1 2 0.115887 22.648 8.01592 2.30572
33 1 3 0.671939 27.399 18.7442 13.2542
34 1 3 0.671939 9.13299 2.34751 1.65994
35 1 3 0.671939 27.399 12.8934 9.117
36 1 3 0.671939 9.13299 8.19836 5.79712
37 1 3 0.67194 24.8655 14.3561 13.2542
38 1 3 0.67194 11.6665 6.73565 1.65994
39 1 3 0.67194 29.9325 17.2815 9.117
40 1 3 0.67194 6.5995 3.81022 5.79712
41 1 3 0.67194 24.8655 17.2815 9.117
42 1 3 0.67194 11.6665 3.81022 5.79712
43 1 3 0.67194 29.9325 14.3561 13.2542
44 1 3 0.67194 6.5995 6.73565 1.65994
45 1 3 -0.11508 27.399 19.957 14.1117
46 1 3 -0.11508 9.13299 1.13474 0.802379
47 1 3 -0.11508 27.399 11.6806 8.25944
48 1 3 -0.11508 9.13299 9.41113 6.65468
49 1 3 -0.11508 23.8152 13.7497 14.1117
50 1 3 -0.11508 12.7168 7.34203 0.802379
51 1 3 -0.11508 30.9828 17.8879 8.25944
52 1 3 -0.11508 5.54921 3.20384 6.65468
53 1 3 -0.11508 23.8152 17.8879 8.25944
54 1 3 -0.11508 12.7168 3.20384 6.65468
55 1 3 -0.11508 30.9828 13.7497 14.1117
56 1 3 -0.11508 5.54921 7.34203 0.802379
57 1 3 -0.0559 18.266 5.39949 13.5316
58 1 3 -0.0559 18.266 15.6923 1.38254
59 1 3 -0.055903 18.266 14.5575 0.580159
60 1 3 -0.055903 18.266 6.53422 14.334
61 1 3 -0.0559 26.1971 11.1132 7.85825
62 1 3 -0.0559 10.3349 9.9785 7.05587
63 1 3 -0.055903 10.3349 11.1132 7.85825
64 1 3 -0.055903 26.1971 9.9785 7.05587
65 1 3 -0.0559 14.7918 8.54005 0.580159
66 1 3 -0.0559 21.7402 12.5517 14.334
67 1 3 -0.055903 22.7229 13.1191 13.5316
68 1 3 -0.055903 13.8091 7.97268 1.38254
69 1 3 -0.0559 21.7402 3.39366 7.85825
70 1 3 -0.0559 14.7918 17.6981 7.05587
71 1 3 -0.055903 13.8091 17.1307 7.85825
72 1 3 -0.055903 22.7229 3.96103 7.05587
73 1 3 -0.055901 22.7229 17.1307 7.85825
74 1 3 -0.055901 13.8091 3.96103 7.05587
75 1 3 -0.055903 14.7918 3.39366 7.85825
76 1 3 -0.055903 21.7402 17.6981 7.05587
77 1 3 -0.0559 21.7402 8.54005 0.580159
78 1 3 -0.0559 14.7918 12.5517 14.334
79 1 3 -0.055903 13.8091 13.1191 13.5316
80 1 3 -0.055903 22.7229 7.97268 1.38254
81 1 4 -1.26215 27.399 15.8188 11.1856
82 1 4 -1.26215 9.13299 5.27293 3.72853
83 1 4 -0.60118 27.399 18.9383 11.9641
84 1 4 -0.60118 9.13299 2.15347 2.95001
85 1 4 -0.601179 27.399 17.5926 13.8671
86 1 4 -0.601179 9.13299 3.49912 1.04697
87 1 4 -0.601179 26.2336 13.3722 9.45555
88 1 4 -0.601179 10.2984 7.71958 5.45857
89 1 4 -0.60118 28.5643 13.3722 9.45555
90 1 4 -0.60118 7.96762 7.71958 5.45857
91 1 4 -0.60118 25.8628 14.9319 13.8671
92 1 4 -0.60118 10.6692 6.15984 1.04697
93 1 4 -0.601179 24.6974 14.2591 11.9641
94 1 4 -0.601179 11.8345 6.83267 2.95001
95 1 4 -0.60118 28.9351 18.0514 9.45555
96 1 4 -0.60118 7.59682 3.04037 5.45857
97 1 4 -0.601179 30.1005 16.0329 9.45555
98 1 4 -0.601179 6.43145 5.05885 5.45857
99 1 4 -0.601179 24.6974 16.0329 9.45555
100 1 4 -0.601179 11.8345 5.05885 5.45857
101 1 4 -0.60118 25.8628 18.0514 9.45555
102 1 4 -0.60118 10.6692 3.04037 5.45857
103 1 4 -0.60118 28.9351 14.9319 13.8671
104 1 4 -0.60118 7.59682 6.15984 1.04697
105 1 4 -0.60118 30.1005 14.2591 11.9641
106 1 4 -0.60118 6.43145 6.83267 2.95001
18758 6219 5 -0.35 15.8761 4.34968 11.4688
18759 6219 6 0.7 16.4753 4.98934 10.7089
18760 6219 5 -0.35 17.0744 5.629 9.94899
18899 6266 5 -0.35 18.8896 7.14178 0.281895
18900 6266 6 0.7 27.8297 12.2078 14.071
18901 6266 5 -0.35 27.6368 12.0008 12.9461
18977 6292 5 -0.35 6.15223 3.39409 2.8202
18978 6292 6 0.7 5.87783 2.32213 3.16835
18979 6292 5 -0.35 5.60344 1.25016 3.51649
18983 6294 5 -0.35 11.8655 9.91808 12.8495
18984 6294 6 0.7 11.7618 9.51095 11.7682
18985 6294 5 -0.35 11.658 9.10381 10.687
18995 6298 5 -0.35 13.6969 7.33124 7.37256
18996 6298 6 0.7 13.6783 7.59627 6.2434
18997 6298 5 -0.35 13.6598 7.8613 5.11423
18998 6299 5 -0.35 14.277 2.80529 3.70773
18999 6299 6 0.7 14.0834 3.40017 2.73087
19000 6299 5 -0.35 13.8899 3.99504 1.75401
19070 6323 5 -0.35 20.7239 8.62563 14.3064
19071 6323 6 0.7 21.6673 8.97395 13.7283
19072 6323 5 -0.35 22.6108 9.32227 13.1502
19076 6325 5 -0.35 9.12388 6.85269 9.44142
19077 6325 6 0.7 9.00614 6.1467 8.52856
19078 6325 5 -0.35 8.88841 5.44071 7.6157
19088 6329 5 -0.35 18.6203 15.24 7.51249
19089 6329 6 0.7 18.473 15.5413 6.40203
19090 6329 5 -0.35 18.3256 15.8426 5.29157
19091 6330 5 -0.35 13.9423 11.2353 10.3215
19092 6330 6 0.7 13.9211 11.07 9.17351
19093 6330 5 -0.35 13.9 10.9047 8.02555
19094 6331 5 -0.35 12.3835 15.9141 0.984858
19095 6331 6 0.7 4.35534 0.243405 0.66382
19096 6331 5 -0.35 5.46015 0.391493 0.342781
19097 6332 5 -0.35 19.4597 2.19006 2.31313
19098 6332 6 0.7 18.9299 1.28509 2.80903
19099 6332 5 -0.35 27.5331 16.1989 3.30493
ITEM: TIMESTEP
15000
ITEM: NUMBER OF ATOMS
130
ITEM: BOX BOUNDS xy xz yz pp pp pp
0.0000000000000000e+00 3.6531964750000000e+01 9.1329911900000003e+00
0.0000000000000000e+00 2.1091739680000000e+01 9.1329911900000003e+00
0.0000000000000000e+00 1.4914112149999999e+01 5.2729349200000000e+00
ITEM: ATOMS id mol type q x y z
1 1 1 1.10383 27.399 17.6496 10.5383
2 1 1 1.10383 9.13299 3.44217 4.3758
3 1 1 1.10383 27.399 15.8188 13.1274
4 1 1 1.10383 9.13299 5.27293 1.78671
5 1 1 1.10383 25.8135 14.9034 10.5383
6 1 1 1.10383 10.7185 6.18832 4.3758
7 1 1 1.10383 28.9845 14.9034 10.5383
8 1 1 1.10383 7.5475 6.18832 4.3758
9 1 2 0.115889 18.266 5.48596 12.6084
10 1 2 0.115889 18.266 15.6058 2.30572
11 1 2 0.115888 18.266 13.716 0.969417
12 1 2 0.115888 18.266 7.37578 13.9447
13 1 2 0.11589 25.3934 11.4908 8.12521
14 1 2 0.11589 11.1386 9.60096 6.7889
15 1 2 0.115888 11.1386 11.4908 8.12521
16 1 2 0.115888 25.3934 9.60096 6.7889
17 1 2 0.115889 15.5206 8.96083 0.969417
18 1 2 0.115889 21.0114 12.1309 13.9447
19 1 2 0.115888 22.648 13.0758 12.6084
20 1 2 0.115888 13.884 8.01592 2.30572
21 1 2 0.115889 21.0114 3.90092 8.12521
22 1 2 0.115889 15.5206 17.1908 6.7889
23 1 2 0.115887 13.884 16.2459 8.12521
24 1 2 0.115887 22.648 4.84583 6.7889
25 1 2 0.115889 22.648 16.2459 8.12521
26 1 2 0.115889 13.884 4.84583 6.7889
27 1 2 0.115887 15.5206 3.90092 8.12521
28 1 2 0.115887 21.0114 17.1908 6.7889
29 1 2 0.115889 21.0114 8.96083 0.969417
30 1 2 0.115889 15.5206 12.1309 13.9447
31 1 2 0.115887 13.884 13.0758 12.6084
32 1 2 0.115887 22.648 8.01592 2.30572
33 1 3 0.671939 27.399 18.7442 13.2542
34 1 3 0.671939 9.13299 2.34751 1.65994
35 1 3 0.671939 27.399 12.8934 9.117
36 1 3 0.671939 9.13299 8.19836 5.79712
37 1 3 0.67194 24.8655 14.3561 13.2542
38 1 3 0.67194 11.6665 6.73565 1.65994
39 1 3 0.67194 29.9325 17.2815 9.117
40 1 3 0.67194 6.5995 3.81022 5.79712
41 1 3 0.67194 24.8655 17.2815 9.117
42 1 3 0.67194 11.6665 3.81022 5.79712
43 1 3 0.67194 29.9325 14.3561 13.2542
44 1 3 0.67194 6.5995 6.73565 1.65994
45 1 3 -0.11508 27.399 19.957 14.1117
46 1 3 -0.11508 9.13299 1.13474 0.802379
47 1 3 -0.11508 27.399 11.6806 8.25944
48 1 3 -0.11508 9.13299 9.41113 6.65468
49 1 3 -0.11508 23.8152 13.7497 14.1117
50 1 3 -0.11508 12.7168 7.34203 0.802379
51 1 3 -0.11508 30.9828 17.8879 8.25944
52 1 3 -0.11508 5.54921 3.20384 6.65468
53 1 3 -0.11508 23.8152 17.8879 8.25944
54 1 3 -0.11508 12.7168 3.20384 6.65468
55 1 3 -0.11508 30.9828 13.7497 14.1117
56 1 3 -0.11508 5.54921 7.34203 0.802379
57 1 3 -0.0559 18.266 5.39949 13.5316
58 1 3 -0.0559 18.266 15.6923 1.38254
59 1 3 -0.055903 18.266 14.5575 0.580159
60 1 3 -0.055903 18.266 6.53422 14.334
61 1 3 -0.0559 26.1971 11.1132 7.85825
62 1 3 -0.0559 10.3349 9.9785 7.05587
63 1 3 -0.055903 10.3349 11.1132 7.85825
64 1 3 -0.055903 26.1971 9.9785 7.05587
65 1 3 -0.0559 14.7918 8.54005 0.580159
66 1 3 -0.0559 21.7402 12.5517 14.334
67 1 3 -0.055903 22.7229 13.1191 13.5316
68 1 3 -0.055903 13.8091 7.97268 1.38254
69 1 3 -0.0559 21.7402 3.39366 7.85825
70 1 3 -0.0559 14.7918 17.6981 7.05587
71 1 3 -0.055903 13.8091 17.1307 7.85825
72 1 3 -0.055903 22.7229 3.96103 7.05587
73 1 3 -0.055901 22.7229 17.1307 7.85825
74 1 3 -0.055901 13.8091 3.96103 7.05587
75 1 3 -0.055903 14.7918 3.39366 7.85825
76 1 3 -0.055903 21.7402 17.6981 7.05587
77 1 3 -0.0559 21.7402 8.54005 0.580159
78 1 3 -0.0559 14.7918 12.5517 14.334
79 1 3 -0.055903 13.8091 13.1191 13.5316
80 1 3 -0.055903 22.7229 7.97268 1.38254
81 1 4 -1.26215 27.399 15.8188 11.1856
82 1 4 -1.26215 9.13299 5.27293 3.72853
83 1 4 -0.60118 27.399 18.9383 11.9641
84 1 4 -0.60118 9.13299 2.15347 2.95001
85 1 4 -0.601179 27.399 17.5926 13.8671
86 1 4 -0.601179 9.13299 3.49912 1.04697
87 1 4 -0.601179 26.2336 13.3722 9.45555
88 1 4 -0.601179 10.2984 7.71958 5.45857
89 1 4 -0.60118 28.5643 13.3722 9.45555
90 1 4 -0.60118 7.96762 7.71958 5.45857
91 1 4 -0.60118 25.8628 14.9319 13.8671
92 1 4 -0.60118 10.6692 6.15984 1.04697
93 1 4 -0.601179 24.6974 14.2591 11.9641
94 1 4 -0.601179 11.8345 6.83267 2.95001
95 1 4 -0.60118 28.9351 18.0514 9.45555
96 1 4 -0.60118 7.59682 3.04037 5.45857
97 1 4 -0.601179 30.1005 16.0329 9.45555
98 1 4 -0.601179 6.43145 5.05885 5.45857
99 1 4 -0.601179 24.6974 16.0329 9.45555
100 1 4 -0.601179 11.8345 5.05885 5.45857
101 1 4 -0.60118 25.8628 18.0514 9.45555
102 1 4 -0.60118 10.6692 3.04037 5.45857
103 1 4 -0.60118 28.9351 14.9319 13.8671
104 1 4 -0.60118 7.59682 6.15984 1.04697
105 1 4 -0.60118 30.1005 14.2591 11.9641
106 1 4 -0.60118 6.43145 6.83267 2.95001
20108 6669 5 -0.35 31.4318 18.526 14.3253
20109 6669 6 0.7 30.7976 18.0193 13.4966
20110 6669 5 -0.35 30.1635 17.5126 12.6679
20456 6785 5 -0.35 23.7656 4.34995 10.1067
20457 6785 6 0.7 33.0197 19.0629 10.4351
20458 6785 5 -0.35 14.8749 17.957 10.7636
20477 6792 5 -0.35 14.2058 10.7944 6.33066
20478 6792 6 0.7 14.394 10.5816 5.206
20479 6792 5 -0.35 14.5822 10.3687 4.08133
20489 6796 5 -0.35 27.289 11.6151 12.0337
20490 6796 6 0.7 27.7987 10.6405 11.6652
20491 6796 5 -0.35 28.3084 9.66576 11.2967
20495 6798 5 -0.35 18.5356 16.1743 7.88175
20496 6798 6 0.7 18.5584 15.8909 6.75714
20497 6798 5 -0.35 18.5813 15.6075 5.63252
20510 6803 5 -0.35 13.2675 5.24538 10.0384
20511 6803 6 0.7 12.6301 4.28386 10.1597
20512 6803 5 -0.35 21.1256 19.1411 10.2811
20513 6804 5 -0.35 12.0463 11.4741 2.51834
20514 6804 6 0.7 12.0091 11.3926 1.36181
20515 6804 5 -0.35 11.972 11.3111 0.205268
20522 6807 5 -0.35 15.407 14.8347 5.43554
20523 6807 6 0.7 15.2768 14.0988 4.54828
20524 6807 5 -0.35 15.1466 13.363 3.66101
ITEM: TIMESTEP
16000
ITEM: NUMBER OF ATOMS
142
ITEM: BOX BOUNDS xy xz yz pp pp pp
0.0000000000000000e+00 3.6531964750000000e+01 9.1329911900000003e+00
0.0000000000000000e+00 2.1091739680000000e+01 9.1329911900000003e+00
0.0000000000000000e+00 1.4914112149999999e+01 5.2729349200000000e+00
ITEM: ATOMS id mol type q x y z
1 1 1 1.10383 27.399 17.6496 10.5383
2 1 1 1.10383 9.13299 3.44217 4.3758
3 1 1 1.10383 27.399 15.8188 13.1274
4 1 1 1.10383 9.13299 5.27293 1.78671
5 1 1 1.10383 25.8135 14.9034 10.5383
6 1 1 1.10383 10.7185 6.18832 4.3758
7 1 1 1.10383 28.9845 14.9034 10.5383
8 1 1 1.10383 7.5475 6.18832 4.3758
9 1 2 0.115889 18.266 5.48596 12.6084
10 1 2 0.115889 18.266 15.6058 2.30572
11 1 2 0.115888 18.266 13.716 0.969417
12 1 2 0.115888 18.266 7.37578 13.9447
13 1 2 0.11589 25.3934 11.4908 8.12521
14 1 2 0.11589 11.1386 9.60096 6.7889
15 1 2 0.115888 11.1386 11.4908 8.12521
16 1 2 0.115888 25.3934 9.60096 6.7889
17 1 2 0.115889 15.5206 8.96083 0.969417
18 1 2 0.115889 21.0114 12.1309 13.9447
19 1 2 0.115888 22.648 13.0758 12.6084
20 1 2 0.115888 13.884 8.01592 2.30572
21 1 2 0.115889 21.0114 3.90092 8.12521
22 1 2 0.115889 15.5206 17.1908 6.7889
23 1 2 0.115887 13.884 16.2459 8.12521
24 1 2 0.115887 22.648 4.84583 6.7889
25 1 2 0.115889 22.648 16.2459 8.12521
26 1 2 0.115889 13.884 4.84583 6.7889
27 1 2 0.115887 15.5206 3.90092 8.12521
28 1 2 0.115887 21.0114 17.1908 6.7889
29 1 2 0.115889 21.0114 8.96083 0.969417
30 1 2 0.115889 15.5206 12.1309 13.9447
31 1 2 0.115887 13.884 13.0758 12.6084
32 1 2 0.115887 22.648 8.01592 2.30572
33 1 3 0.671939 27.399 18.7442 13.2542
34 1 3 0.671939 9.13299 2.34751 1.65994
35 1 3 0.671939 27.399 12.8934 9.117
36 1 3 0.671939 9.13299 8.19836 5.79712
37 1 3 0.67194 24.8655 14.3561 13.2542
38 1 3 0.67194 11.6665 6.73565 1.65994
39 1 3 0.67194 29.9325 17.2815 9.117
40 1 3 0.67194 6.5995 3.81022 5.79712
41 1 3 0.67194 24.8655 17.2815 9.117
42 1 3 0.67194 11.6665 3.81022 5.79712
43 1 3 0.67194 29.9325 14.3561 13.2542
44 1 3 0.67194 6.5995 6.73565 1.65994
45 1 3 -0.11508 27.399 19.957 14.1117
46 1 3 -0.11508 9.13299 1.13474 0.802379
47 1 3 -0.11508 27.399 11.6806 8.25944
48 1 3 -0.11508 9.13299 9.41113 6.65468
49 1 3 -0.11508 23.8152 13.7497 14.1117
50 1 3 -0.11508 12.7168 7.34203 0.802379
51 1 3 -0.11508 30.9828 17.8879 8.25944
52 1 3 -0.11508 5.54921 3.20384 6.65468
53 1 3 -0.11508 23.8152 17.8879 8.25944
54 1 3 -0.11508 12.7168 3.20384 6.65468
55 1 3 -0.11508 30.9828 13.7497 14.1117
56 1 3 -0.11508 5.54921 7.34203 0.802379
57 1 3 -0.0559 18.266 5.39949 13.5316
58 1 3 -0.0559 18.266 15.6923 1.38254
59 1 3 -0.055903 18.266 14.5575 0.580159
60 1 3 -0.055903 18.266 6.53422 14.334
61 1 3 -0.0559 26.1971 11.1132 7.85825
62 1 3 -0.0559 10.3349 9.9785 7.05587
63 1 3 -0.055903 10.3349 11.1132 7.85825
64 1 3 -0.055903 26.1971 9.9785 7.05587
65 1 3 -0.0559 14.7918 8.54005 0.580159
66 1 3 -0.0559 21.7402 12.5517 14.334
67 1 3 -0.055903 22.7229 13.1191 13.5316
68 1 3 -0.055903 13.8091 7.97268 1.38254
69 1 3 -0.0559 21.7402 3.39366 7.85825
70 1 3 -0.0559 14.7918 17.6981 7.05587
71 1 3 -0.055903 13.8091 17.1307 7.85825
72 1 3 -0.055903 22.7229 3.96103 7.05587
73 1 3 -0.055901 22.7229 17.1307 7.85825
74 1 3 -0.055901 13.8091 3.96103 7.05587
75 1 3 -0.055903 14.7918 3.39366 7.85825
76 1 3 -0.055903 21.7402 17.6981 7.05587
77 1 3 -0.0559 21.7402 8.54005 0.580159
78 1 3 -0.0559 14.7918 12.5517 14.334
79 1 3 -0.055903 13.8091 13.1191 13.5316
80 1 3 -0.055903 22.7229 7.97268 1.38254
81 1 4 -1.26215 27.399 15.8188 11.1856
82 1 4 -1.26215 9.13299 5.27293 3.72853
83 1 4 -0.60118 27.399 18.9383 11.9641
84 1 4 -0.60118 9.13299 2.15347 2.95001
85 1 4 -0.601179 27.399 17.5926 13.8671
86 1 4 -0.601179 9.13299 3.49912 1.04697
87 1 4 -0.601179 26.2336 13.3722 9.45555
88 1 4 -0.601179 10.2984 7.71958 5.45857
89 1 4 -0.60118 28.5643 13.3722 9.45555
90 1 4 -0.60118 7.96762 7.71958 5.45857
91 1 4 -0.60118 25.8628 14.9319 13.8671
92 1 4 -0.60118 10.6692 6.15984 1.04697
93 1 4 -0.601179 24.6974 14.2591 11.9641
94 1 4 -0.601179 11.8345 6.83267 2.95001
95 1 4 -0.60118 28.9351 18.0514 9.45555
96 1 4 -0.60118 7.59682 3.04037 5.45857
97 1 4 -0.601179 30.1005 16.0329 9.45555
98 1 4 -0.601179 6.43145 5.05885 5.45857
99 1 4 -0.601179 24.6974 16.0329 9.45555
100 1 4 -0.601179 11.8345 5.05885 5.45857
101 1 4 -0.60118 25.8628 18.0514 9.45555
102 1 4 -0.60118 10.6692 3.04037 5.45857
103 1 4 -0.60118 28.9351 14.9319 13.8671
104 1 4 -0.60118 7.59682 6.15984 1.04697
105 1 4 -0.60118 30.1005 14.2591 11.9641
106 1 4 -0.60118 6.43145 6.83267 2.95001
482 127 5 -0.35 18.1813 7.17633 0.792266
483 127 6 0.7 27.4499 12.2595 14.5701
484 127 5 -0.35 27.5855 12.0697 13.4338
653 184 5 -0.35 17.9076 4.31101 5.50667
654 184 6 0.7 17.2243 3.50398 5.0298
655 184 5 -0.35 16.541 2.69694 4.55294
656 185 5 -0.35 21.1734 8.09261 11.8971
657 185 6 0.7 21.0191 8.28263 13.031
658 185 5 -0.35 20.8649 8.47265 14.1649
668 189 5 -0.35 15.6906 11.986 1.79912
669 189 6 0.7 14.8654 11.7609 1.0156
670 189 5 -0.35 14.0401 11.5357 0.232072
683 194 5 -0.35 17.6572 16.4761 8.52986
684 194 6 0.7 17.6321 17.504 9.06699
685 194 5 -0.35 17.607 18.5318 9.60412
686 195 5 -0.35 6.12338 3.41601 2.16459
687 195 6 0.7 6.00516 3.21101 1.02898
688 195 5 -0.35 15.0199 8.27894 14.8075
689 196 5 -0.35 11.7553 8.49451 10.0186
690 196 6 0.7 12.1135 9.48677 10.501
691 196 5 -0.35 12.4717 10.479 10.9834
692 197 5 -0.35 9.99143 12.4802 2.08254
693 197 6 0.7 9.2577 11.5823 2.11487
694 197 5 -0.35 8.52398 10.6844 2.1472
695 198 5 -0.35 20.7353 5.76691 4.34067
696 198 6 0.7 20.5715 6.37159 5.31696
697 198 5 -0.35 20.4077 6.97626 6.29325
698 199 5 -0.35 25.5776 15.3347 5.51572
699 199 6 0.7 25.3357 15.4943 4.39251
700 199 5 -0.35 25.0938 15.6539 3.2693
701 200 5 -0.35 14.918 15.2379 10.3498
702 200 6 0.7 15.1703 14.1761 9.95647
703 200 5 -0.35 15.4225 13.1144 9.56316
704 201 5 -0.35 18.9342 1.4573 1.82722
705 201 6 0.7 18.3928 0.509348 1.43507
706 201 5 -0.35 26.9843 15.3802 1.04293
ITEM: TIMESTEP
17000
ITEM: NUMBER OF ATOMS
124
ITEM: BOX BOUNDS xy xz yz pp pp pp
0.0000000000000000e+00 3.6531964750000000e+01 9.1329911900000003e+00
0.0000000000000000e+00 2.1091739680000000e+01 9.1329911900000003e+00
0.0000000000000000e+00 1.4914112149999999e+01 5.2729349200000000e+00
ITEM: ATOMS id mol type q x y z
1 1 1 1.10383 27.399 17.6496 10.5383
2 1 1 1.10383 9.13299 3.44217 4.3758
3 1 1 1.10383 27.399 15.8188 13.1274
4 1 1 1.10383 9.13299 5.27293 1.78671
5 1 1 1.10383 25.8135 14.9034 10.5383
6 1 1 1.10383 10.7185 6.18832 4.3758
7 1 1 1.10383 28.9845 14.9034 10.5383
8 1 1 1.10383 7.5475 6.18832 4.3758
9 1 2 0.115889 18.266 5.48596 12.6084
10 1 2 0.115889 18.266 15.6058 2.30572
11 1 2 0.115888 18.266 13.716 0.969417
12 1 2 0.115888 18.266 7.37578 13.9447
13 1 2 0.11589 25.3934 11.4908 8.12521
14 1 2 0.11589 11.1386 9.60096 6.7889
15 1 2 0.115888 11.1386 11.4908 8.12521
16 1 2 0.115888 25.3934 9.60096 6.7889
17 1 2 0.115889 15.5206 8.96083 0.969417
18 1 2 0.115889 21.0114 12.1309 13.9447
19 1 2 0.115888 22.648 13.0758 12.6084
20 1 2 0.115888 13.884 8.01592 2.30572
21 1 2 0.115889 21.0114 3.90092 8.12521
22 1 2 0.115889 15.5206 17.1908 6.7889
23 1 2 0.115887 13.884 16.2459 8.12521
24 1 2 0.115887 22.648 4.84583 6.7889
25 1 2 0.115889 22.648 16.2459 8.12521
26 1 2 0.115889 13.884 4.84583 6.7889
27 1 2 0.115887 15.5206 3.90092 8.12521
28 1 2 0.115887 21.0114 17.1908 6.7889
29 1 2 0.115889 21.0114 8.96083 0.969417
30 1 2 0.115889 15.5206 12.1309 13.9447
31 1 2 0.115887 13.884 13.0758 12.6084
32 1 2 0.115887 22.648 8.01592 2.30572
33 1 3 0.671939 27.399 18.7442 13.2542
34 1 3 0.671939 9.13299 2.34751 1.65994
35 1 3 0.671939 27.399 12.8934 9.117
36 1 3 0.671939 9.13299 8.19836 5.79712
37 1 3 0.67194 24.8655 14.3561 13.2542
38 1 3 0.67194 11.6665 6.73565 1.65994
39 1 3 0.67194 29.9325 17.2815 9.117
40 1 3 0.67194 6.5995 3.81022 5.79712
41 1 3 0.67194 24.8655 17.2815 9.117
42 1 3 0.67194 11.6665 3.81022 5.79712
43 1 3 0.67194 29.9325 14.3561 13.2542
44 1 3 0.67194 6.5995 6.73565 1.65994
45 1 3 -0.11508 27.399 19.957 14.1117
46 1 3 -0.11508 9.13299 1.13474 0.802379
47 1 3 -0.11508 27.399 11.6806 8.25944
48 1 3 -0.11508 9.13299 9.41113 6.65468
49 1 3 -0.11508 23.8152 13.7497 14.1117
50 1 3 -0.11508 12.7168 7.34203 0.802379
51 1 3 -0.11508 30.9828 17.8879 8.25944
52 1 3 -0.11508 5.54921 3.20384 6.65468
53 1 3 -0.11508 23.8152 17.8879 8.25944
54 1 3 -0.11508 12.7168 3.20384 6.65468
55 1 3 -0.11508 30.9828 13.7497 14.1117
56 1 3 -0.11508 5.54921 7.34203 0.802379
57 1 3 -0.0559 18.266 5.39949 13.5316
58 1 3 -0.0559 18.266 15.6923 1.38254
59 1 3 -0.055903 18.266 14.5575 0.580159
60 1 3 -0.055903 18.266 6.53422 14.334
61 1 3 -0.0559 26.1971 11.1132 7.85825
62 1 3 -0.0559 10.3349 9.9785 7.05587
63 1 3 -0.055903 10.3349 11.1132 7.85825
64 1 3 -0.055903 26.1971 9.9785 7.05587
65 1 3 -0.0559 14.7918 8.54005 0.580159
66 1 3 -0.0559 21.7402 12.5517 14.334
67 1 3 -0.055903 22.7229 13.1191 13.5316
68 1 3 -0.055903 13.8091 7.97268 1.38254
69 1 3 -0.0559 21.7402 3.39366 7.85825
70 1 3 -0.0559 14.7918 17.6981 7.05587
71 1 3 -0.055903 13.8091 17.1307 7.85825
72 1 3 -0.055903 22.7229 3.96103 7.05587
73 1 3 -0.055901 22.7229 17.1307 7.85825
74 1 3 -0.055901 13.8091 3.96103 7.05587
75 1 3 -0.055903 14.7918 3.39366 7.85825
76 1 3 -0.055903 21.7402 17.6981 7.05587
77 1 3 -0.0559 21.7402 8.54005 0.580159
78 1 3 -0.0559 14.7918 12.5517 14.334
79 1 3 -0.055903 13.8091 13.1191 13.5316
80 1 3 -0.055903 22.7229 7.97268 1.38254
81 1 4 -1.26215 27.399 15.8188 11.1856
82 1 4 -1.26215 9.13299 5.27293 3.72853
83 1 4 -0.60118 27.399 18.9383 11.9641
84 1 4 -0.60118 9.13299 2.15347 2.95001
85 1 4 -0.601179 27.399 17.5926 13.8671
86 1 4 -0.601179 9.13299 3.49912 1.04697
87 1 4 -0.601179 26.2336 13.3722 9.45555
88 1 4 -0.601179 10.2984 7.71958 5.45857
89 1 4 -0.60118 28.5643 13.3722 9.45555
90 1 4 -0.60118 7.96762 7.71958 5.45857
91 1 4 -0.60118 25.8628 14.9319 13.8671
92 1 4 -0.60118 10.6692 6.15984 1.04697
93 1 4 -0.601179 24.6974 14.2591 11.9641
94 1 4 -0.601179 11.8345 6.83267 2.95001
95 1 4 -0.60118 28.9351 18.0514 9.45555
96 1 4 -0.60118 7.59682 3.04037 5.45857
97 1 4 -0.601179 30.1005 16.0329 9.45555
98 1 4 -0.601179 6.43145 5.05885 5.45857
99 1 4 -0.601179 24.6974 16.0329 9.45555
100 1 4 -0.601179 11.8345 5.05885 5.45857
101 1 4 -0.60118 25.8628 18.0514 9.45555
102 1 4 -0.60118 10.6692 3.04037 5.45857
103 1 4 -0.60118 28.9351 14.9319 13.8671
104 1 4 -0.60118 7.59682 6.15984 1.04697
105 1 4 -0.60118 30.1005 14.2591 11.9641
106 1 4 -0.60118 6.43145 6.83267 2.95001
548 149 5 -0.35 23.7473 18.4391 12.8597
549 149 6 0.7 24.2464 19.4043 12.4538
550 149 5 -0.35 15.6125 4.55078 12.0478
602 167 5 -0.35 14.7041 16.0504 11.6801
603 167 6 0.7 15.0915 15.0524 11.2333
604 167 5 -0.35 15.4788 14.0544 10.7866
638 179 5 -0.35 17.9282 15.9426 14.8389
639 179 6 0.7 9.00644 9.76109 0.614405
640 179 5 -0.35 9.21769 8.85256 1.304
683 194 5 -0.35 21.6248 16.6878 14.1842
684 194 6 0.7 21.8329 16.3335 13.0994
685 194 5 -0.35 22.0411 15.9791 12.0146
704 201 5 -0.35 13.727 9.25125 11.9398
705 201 6 0.7 13.4953 10.0733 11.1548
706 201 5 -0.35 13.2636 10.8953 10.3698
707 202 5 -0.35 17.5068 1.94102 1.68318
708 202 6 0.7 17.2228 1.73532 0.577452
709 202 5 -0.35 26.0718 6.80254 14.3858
ITEM: TIMESTEP
18000
ITEM: NUMBER OF ATOMS
151
ITEM: BOX BOUNDS xy xz yz pp pp pp
0.0000000000000000e+00 3.6531964750000000e+01 9.1329911900000003e+00
0.0000000000000000e+00 2.1091739680000000e+01 9.1329911900000003e+00
0.0000000000000000e+00 1.4914112149999999e+01 5.2729349200000000e+00
ITEM: ATOMS id mol type q x y z
1 1 1 1.10383 27.399 17.6496 10.5383
2 1 1 1.10383 9.13299 3.44217 4.3758
3 1 1 1.10383 27.399 15.8188 13.1274
4 1 1 1.10383 9.13299 5.27293 1.78671
5 1 1 1.10383 25.8135 14.9034 10.5383
6 1 1 1.10383 10.7185 6.18832 4.3758
7 1 1 1.10383 28.9845 14.9034 10.5383
8 1 1 1.10383 7.5475 6.18832 4.3758
9 1 2 0.115889 18.266 5.48596 12.6084
10 1 2 0.115889 18.266 15.6058 2.30572
11 1 2 0.115888 18.266 13.716 0.969417
12 1 2 0.115888 18.266 7.37578 13.9447
13 1 2 0.11589 25.3934 11.4908 8.12521
14 1 2 0.11589 11.1386 9.60096 6.7889
15 1 2 0.115888 11.1386 11.4908 8.12521
16 1 2 0.115888 25.3934 9.60096 6.7889
17 1 2 0.115889 15.5206 8.96083 0.969417
18 1 2 0.115889 21.0114 12.1309 13.9447
19 1 2 0.115888 22.648 13.0758 12.6084
20 1 2 0.115888 13.884 8.01592 2.30572
21 1 2 0.115889 21.0114 3.90092 8.12521
22 1 2 0.115889 15.5206 17.1908 6.7889
23 1 2 0.115887 13.884 16.2459 8.12521
24 1 2 0.115887 22.648 4.84583 6.7889
25 1 2 0.115889 22.648 16.2459 8.12521
26 1 2 0.115889 13.884 4.84583 6.7889
27 1 2 0.115887 15.5206 3.90092 8.12521
28 1 2 0.115887 21.0114 17.1908 6.7889
29 1 2 0.115889 21.0114 8.96083 0.969417
30 1 2 0.115889 15.5206 12.1309 13.9447
31 1 2 0.115887 13.884 13.0758 12.6084
32 1 2 0.115887 22.648 8.01592 2.30572
33 1 3 0.671939 27.399 18.7442 13.2542
34 1 3 0.671939 9.13299 2.34751 1.65994
35 1 3 0.671939 27.399 12.8934 9.117
36 1 3 0.671939 9.13299 8.19836 5.79712
37 1 3 0.67194 24.8655 14.3561 13.2542
38 1 3 0.67194 11.6665 6.73565 1.65994
39 1 3 0.67194 29.9325 17.2815 9.117
40 1 3 0.67194 6.5995 3.81022 5.79712
41 1 3 0.67194 24.8655 17.2815 9.117
42 1 3 0.67194 11.6665 3.81022 5.79712
43 1 3 0.67194 29.9325 14.3561 13.2542
44 1 3 0.67194 6.5995 6.73565 1.65994
45 1 3 -0.11508 27.399 19.957 14.1117
46 1 3 -0.11508 9.13299 1.13474 0.802379
47 1 3 -0.11508 27.399 11.6806 8.25944
48 1 3 -0.11508 9.13299 9.41113 6.65468
49 1 3 -0.11508 23.8152 13.7497 14.1117
50 1 3 -0.11508 12.7168 7.34203 0.802379
51 1 3 -0.11508 30.9828 17.8879 8.25944
52 1 3 -0.11508 5.54921 3.20384 6.65468
53 1 3 -0.11508 23.8152 17.8879 8.25944
54 1 3 -0.11508 12.7168 3.20384 6.65468
55 1 3 -0.11508 30.9828 13.7497 14.1117
56 1 3 -0.11508 5.54921 7.34203 0.802379
57 1 3 -0.0559 18.266 5.39949 13.5316
58 1 3 -0.0559 18.266 15.6923 1.38254
59 1 3 -0.055903 18.266 14.5575 0.580159
60 1 3 -0.055903 18.266 6.53422 14.334
61 1 3 -0.0559 26.1971 11.1132 7.85825
62 1 3 -0.0559 10.3349 9.9785 7.05587
63 1 3 -0.055903 10.3349 11.1132 7.85825
64 1 3 -0.055903 26.1971 9.9785 7.05587
65 1 3 -0.0559 14.7918 8.54005 0.580159
66 1 3 -0.0559 21.7402 12.5517 14.334
67 1 3 -0.055903 22.7229 13.1191 13.5316
68 1 3 -0.055903 13.8091 7.97268 1.38254
69 1 3 -0.0559 21.7402 3.39366 7.85825
70 1 3 -0.0559 14.7918 17.6981 7.05587
71 1 3 -0.055903 13.8091 17.1307 7.85825
72 1 3 -0.055903 22.7229 3.96103 7.05587
73 1 3 -0.055901 22.7229 17.1307 7.85825
74 1 3 -0.055901 13.8091 3.96103 7.05587
75 1 3 -0.055903 14.7918 3.39366 7.85825
76 1 3 -0.055903 21.7402 17.6981 7.05587
77 1 3 -0.0559 21.7402 8.54005 0.580159
78 1 3 -0.0559 14.7918 12.5517 14.334
79 1 3 -0.055903 13.8091 13.1191 13.5316
80 1 3 -0.055903 22.7229 7.97268 1.38254
81 1 4 -1.26215 27.399 15.8188 11.1856
82 1 4 -1.26215 9.13299 5.27293 3.72853
83 1 4 -0.60118 27.399 18.9383 11.9641
84 1 4 -0.60118 9.13299 2.15347 2.95001
85 1 4 -0.601179 27.399 17.5926 13.8671
86 1 4 -0.601179 9.13299 3.49912 1.04697
87 1 4 -0.601179 26.2336 13.3722 9.45555
88 1 4 -0.601179 10.2984 7.71958 5.45857
89 1 4 -0.60118 28.5643 13.3722 9.45555
90 1 4 -0.60118 7.96762 7.71958 5.45857
91 1 4 -0.60118 25.8628 14.9319 13.8671
92 1 4 -0.60118 10.6692 6.15984 1.04697
93 1 4 -0.601179 24.6974 14.2591 11.9641
94 1 4 -0.601179 11.8345 6.83267 2.95001
95 1 4 -0.60118 28.9351 18.0514 9.45555
96 1 4 -0.60118 7.59682 3.04037 5.45857
97 1 4 -0.601179 30.1005 16.0329 9.45555
98 1 4 -0.601179 6.43145 5.05885 5.45857
99 1 4 -0.601179 24.6974 16.0329 9.45555
100 1 4 -0.601179 11.8345 5.05885 5.45857
101 1 4 -0.60118 25.8628 18.0514 9.45555
102 1 4 -0.60118 10.6692 3.04037 5.45857
103 1 4 -0.60118 28.9351 14.9319 13.8671
104 1 4 -0.60118 7.59682 6.15984 1.04697
105 1 4 -0.60118 30.1005 14.2591 11.9641
106 1 4 -0.60118 6.43145 6.83267 2.95001
233 44 5 -0.35 15.7096 6.8473 11.4184
234 44 6 0.7 14.8043 6.17824 11.1383
235 44 5 -0.35 13.899 5.50917 10.8583
311 70 5 -0.35 21.2035 17.465 14.243
312 70 6 0.7 20.1439 17.2533 13.8209
313 70 5 -0.35 19.0844 17.0415 13.3987
314 71 5 -0.35 15.4429 16.8886 13.4283
315 71 6 0.7 32.5946 17.1515 13.2416
316 71 5 -0.35 31.4803 17.4145 13.055
320 73 5 -0.35 27.5474 16.5017 7.4794
321 73 6 0.7 27.7928 17.4435 6.84816
322 73 5 -0.35 18.9051 2.56642 6.21692
338 79 5 -0.35 20.9852 15.34 4.13656
339 79 6 0.7 22.0709 15.2687 4.53856
340 79 5 -0.35 23.1567 15.1974 4.94055
392 97 5 -0.35 18.0303 18.5091 10.239
393 97 6 0.7 18.1605 18.0654 9.17509
394 97 5 -0.35 18.2907 17.6218 8.1112
398 99 5 -0.35 19.9071 8.69539 5.82304
399 99 6 0.7 20.1639 9.02947 4.74228
400 99 5 -0.35 20.4207 9.36355 3.66152
401 100 5 -0.35 15.9862 2.61153 2.51551
402 100 6 0.7 14.9232 3.05948 2.39343
403 100 5 -0.35 13.8601 3.50743 2.27134
407 102 5 -0.35 9.46229 9.56541 2.73791
408 102 6 0.7 9.04413 9.80312 1.68233
409 102 5 -0.35 8.62598 10.0408 0.626757
413 104 5 -0.35 10.8908 5.30897 11.2803
414 104 6 0.7 11.0355 5.45697 10.1389
415 104 5 -0.35 11.1801 5.60496 8.9975
416 105 5 -0.35 23.6688 11.7842 4.46038
417 105 6 0.7 24.3695 11.4785 3.58794
418 105 5 -0.35 25.0702 11.1728 2.71551
422 107 5 -0.35 19.0941 5.1644 10.1516
423 107 6 0.7 18.4357 5.49513 9.25565
424 107 5 -0.35 17.7773 5.82587 8.3597
425 108 5 -0.35 20.784 11.3462 9.15894
426 108 6 0.7 20.4511 11.6154 8.08086
427 108 5 -0.35 20.1181 11.8847 7.00278
428 109 5 -0.35 30.641 20.9524 14.8983
429 109 6 0.7 21.5726 14.8946 0.835936
430 109 5 -0.35 21.6371 14.1097 1.68764
431 110 5 -0.35 19.9057 2.52417 1.11416
432 110 6 0.7 2.47543 2.77188 0.348789
433 110 5 -0.35 12.4442 8.29254 14.4975
ITEM: TIMESTEP
19000
ITEM: NUMBER OF ATOMS
133
ITEM: BOX BOUNDS xy xz yz pp pp pp
0.0000000000000000e+00 3.6531964750000000e+01 9.1329911900000003e+00
0.0000000000000000e+00 2.1091739680000000e+01 9.1329911900000003e+00
0.0000000000000000e+00 1.4914112149999999e+01 5.2729349200000000e+00
ITEM: ATOMS id mol type q x y z
1 1 1 1.10383 27.399 17.6496 10.5383
2 1 1 1.10383 9.13299 3.44217 4.3758
3 1 1 1.10383 27.399 15.8188 13.1274
4 1 1 1.10383 9.13299 5.27293 1.78671
5 1 1 1.10383 25.8135 14.9034 10.5383
6 1 1 1.10383 10.7185 6.18832 4.3758
7 1 1 1.10383 28.9845 14.9034 10.5383
8 1 1 1.10383 7.5475 6.18832 4.3758
9 1 2 0.115889 18.266 5.48596 12.6084
10 1 2 0.115889 18.266 15.6058 2.30572
11 1 2 0.115888 18.266 13.716 0.969417
12 1 2 0.115888 18.266 7.37578 13.9447
13 1 2 0.11589 25.3934 11.4908 8.12521
14 1 2 0.11589 11.1386 9.60096 6.7889
15 1 2 0.115888 11.1386 11.4908 8.12521
16 1 2 0.115888 25.3934 9.60096 6.7889
17 1 2 0.115889 15.5206 8.96083 0.969417
18 1 2 0.115889 21.0114 12.1309 13.9447
19 1 2 0.115888 22.648 13.0758 12.6084
20 1 2 0.115888 13.884 8.01592 2.30572
21 1 2 0.115889 21.0114 3.90092 8.12521
22 1 2 0.115889 15.5206 17.1908 6.7889
23 1 2 0.115887 13.884 16.2459 8.12521
24 1 2 0.115887 22.648 4.84583 6.7889
25 1 2 0.115889 22.648 16.2459 8.12521
26 1 2 0.115889 13.884 4.84583 6.7889
27 1 2 0.115887 15.5206 3.90092 8.12521
28 1 2 0.115887 21.0114 17.1908 6.7889
29 1 2 0.115889 21.0114 8.96083 0.969417
30 1 2 0.115889 15.5206 12.1309 13.9447
31 1 2 0.115887 13.884 13.0758 12.6084
32 1 2 0.115887 22.648 8.01592 2.30572
33 1 3 0.671939 27.399 18.7442 13.2542
34 1 3 0.671939 9.13299 2.34751 1.65994
35 1 3 0.671939 27.399 12.8934 9.117
36 1 3 0.671939 9.13299 8.19836 5.79712
37 1 3 0.67194 24.8655 14.3561 13.2542
38 1 3 0.67194 11.6665 6.73565 1.65994
39 1 3 0.67194 29.9325 17.2815 9.117
40 1 3 0.67194 6.5995 3.81022 5.79712
41 1 3 0.67194 24.8655 17.2815 9.117
42 1 3 0.67194 11.6665 3.81022 5.79712
43 1 3 0.67194 29.9325 14.3561 13.2542
44 1 3 0.67194 6.5995 6.73565 1.65994
45 1 3 -0.11508 27.399 19.957 14.1117
46 1 3 -0.11508 9.13299 1.13474 0.802379
47 1 3 -0.11508 27.399 11.6806 8.25944
48 1 3 -0.11508 9.13299 9.41113 6.65468
49 1 3 -0.11508 23.8152 13.7497 14.1117
50 1 3 -0.11508 12.7168 7.34203 0.802379
51 1 3 -0.11508 30.9828 17.8879 8.25944
52 1 3 -0.11508 5.54921 3.20384 6.65468
53 1 3 -0.11508 23.8152 17.8879 8.25944
54 1 3 -0.11508 12.7168 3.20384 6.65468
55 1 3 -0.11508 30.9828 13.7497 14.1117
56 1 3 -0.11508 5.54921 7.34203 0.802379
57 1 3 -0.0559 18.266 5.39949 13.5316
58 1 3 -0.0559 18.266 15.6923 1.38254
59 1 3 -0.055903 18.266 14.5575 0.580159
60 1 3 -0.055903 18.266 6.53422 14.334
61 1 3 -0.0559 26.1971 11.1132 7.85825
62 1 3 -0.0559 10.3349 9.9785 7.05587
63 1 3 -0.055903 10.3349 11.1132 7.85825
64 1 3 -0.055903 26.1971 9.9785 7.05587
65 1 3 -0.0559 14.7918 8.54005 0.580159
66 1 3 -0.0559 21.7402 12.5517 14.334
67 1 3 -0.055903 22.7229 13.1191 13.5316
68 1 3 -0.055903 13.8091 7.97268 1.38254
69 1 3 -0.0559 21.7402 3.39366 7.85825
70 1 3 -0.0559 14.7918 17.6981 7.05587
71 1 3 -0.055903 13.8091 17.1307 7.85825
72 1 3 -0.055903 22.7229 3.96103 7.05587
73 1 3 -0.055901 22.7229 17.1307 7.85825
74 1 3 -0.055901 13.8091 3.96103 7.05587
75 1 3 -0.055903 14.7918 3.39366 7.85825
76 1 3 -0.055903 21.7402 17.6981 7.05587
77 1 3 -0.0559 21.7402 8.54005 0.580159
78 1 3 -0.0559 14.7918 12.5517 14.334
79 1 3 -0.055903 13.8091 13.1191 13.5316
80 1 3 -0.055903 22.7229 7.97268 1.38254
81 1 4 -1.26215 27.399 15.8188 11.1856
82 1 4 -1.26215 9.13299 5.27293 3.72853
83 1 4 -0.60118 27.399 18.9383 11.9641
84 1 4 -0.60118 9.13299 2.15347 2.95001
85 1 4 -0.601179 27.399 17.5926 13.8671
86 1 4 -0.601179 9.13299 3.49912 1.04697
87 1 4 -0.601179 26.2336 13.3722 9.45555
88 1 4 -0.601179 10.2984 7.71958 5.45857
89 1 4 -0.60118 28.5643 13.3722 9.45555
90 1 4 -0.60118 7.96762 7.71958 5.45857
91 1 4 -0.60118 25.8628 14.9319 13.8671
92 1 4 -0.60118 10.6692 6.15984 1.04697
93 1 4 -0.601179 24.6974 14.2591 11.9641
94 1 4 -0.601179 11.8345 6.83267 2.95001
95 1 4 -0.60118 28.9351 18.0514 9.45555
96 1 4 -0.60118 7.59682 3.04037 5.45857
97 1 4 -0.601179 30.1005 16.0329 9.45555
98 1 4 -0.601179 6.43145 5.05885 5.45857
99 1 4 -0.601179 24.6974 16.0329 9.45555
100 1 4 -0.601179 11.8345 5.05885 5.45857
101 1 4 -0.60118 25.8628 18.0514 9.45555
102 1 4 -0.60118 10.6692 3.04037 5.45857
103 1 4 -0.60118 28.9351 14.9319 13.8671
104 1 4 -0.60118 7.59682 6.15984 1.04697
105 1 4 -0.60118 30.1005 14.2591 11.9641
106 1 4 -0.60118 6.43145 6.83267 2.95001
266 55 5 -0.35 19.5924 6.35319 0.484014
267 55 6 0.7 28.0423 11.8858 14.4973
268 55 5 -0.35 27.3592 12.1455 13.5964
299 66 5 -0.35 27.8493 17.1107 5.96296
300 66 6 0.7 27.5521 16.3351 6.77275
301 66 5 -0.35 27.255 15.5596 7.58255
308 69 5 -0.35 27.798 8.83593 13.0753
309 69 6 0.7 27.9545 8.98415 11.9355
310 69 5 -0.35 9.84507 9.13237 10.7957
311 70 5 -0.35 22.8834 13.0603 3.04512
312 70 6 0.7 23.145 12.3375 2.17631
313 70 5 -0.35 23.4066 11.6148 1.3075
314 71 5 -0.35 22.2274 15.2084 0.406876
315 71 6 0.7 22.9153 5.29939 14.6377
316 71 5 -0.35 23.6031 5.93626 13.9545
317 72 5 -0.35 11.6198 12.3967 0.790177
318 72 6 0.7 11.6781 11.3619 1.31115
319 72 5 -0.35 11.7363 10.3271 1.83211
323 74 5 -0.35 14.0983 10.8721 11.2405
324 74 6 0.7 14.2525 11.4233 10.2316
325 74 5 -0.35 14.4067 11.9746 9.22273
326 75 5 -0.35 21.285 10.1174 10.8155
327 75 6 0.7 21.8543 9.92343 9.82357
328 75 5 -0.35 22.4236 9.72946 8.83167
329 76 5 -0.35 14.4634 13.8787 1.14821
330 76 6 0.7 14.3961 14.0405 0.00150773
331 76 5 -0.35 23.4618 19.4751 13.7689
ITEM: TIMESTEP
20000
ITEM: NUMBER OF ATOMS
133
ITEM: BOX BOUNDS xy xz yz pp pp pp
0.0000000000000000e+00 3.6531964750000000e+01 9.1329911900000003e+00
0.0000000000000000e+00 2.1091739680000000e+01 9.1329911900000003e+00
0.0000000000000000e+00 1.4914112149999999e+01 5.2729349200000000e+00
ITEM: ATOMS id mol type q x y z
1 1 1 1.10383 27.399 17.6496 10.5383
2 1 1 1.10383 9.13299 3.44217 4.3758
3 1 1 1.10383 27.399 15.8188 13.1274
4 1 1 1.10383 9.13299 5.27293 1.78671
5 1 1 1.10383 25.8135 14.9034 10.5383
6 1 1 1.10383 10.7185 6.18832 4.3758
7 1 1 1.10383 28.9845 14.9034 10.5383
8 1 1 1.10383 7.5475 6.18832 4.3758
9 1 2 0.115889 18.266 5.48596 12.6084
10 1 2 0.115889 18.266 15.6058 2.30572
11 1 2 0.115888 18.266 13.716 0.969417
12 1 2 0.115888 18.266 7.37578 13.9447
13 1 2 0.11589 25.3934 11.4908 8.12521
14 1 2 0.11589 11.1386 9.60096 6.7889
15 1 2 0.115888 11.1386 11.4908 8.12521
16 1 2 0.115888 25.3934 9.60096 6.7889
17 1 2 0.115889 15.5206 8.96083 0.969417
18 1 2 0.115889 21.0114 12.1309 13.9447
19 1 2 0.115888 22.648 13.0758 12.6084
20 1 2 0.115888 13.884 8.01592 2.30572
21 1 2 0.115889 21.0114 3.90092 8.12521
22 1 2 0.115889 15.5206 17.1908 6.7889
23 1 2 0.115887 13.884 16.2459 8.12521
24 1 2 0.115887 22.648 4.84583 6.7889
25 1 2 0.115889 22.648 16.2459 8.12521
26 1 2 0.115889 13.884 4.84583 6.7889
27 1 2 0.115887 15.5206 3.90092 8.12521
28 1 2 0.115887 21.0114 17.1908 6.7889
29 1 2 0.115889 21.0114 8.96083 0.969417
30 1 2 0.115889 15.5206 12.1309 13.9447
31 1 2 0.115887 13.884 13.0758 12.6084
32 1 2 0.115887 22.648 8.01592 2.30572
33 1 3 0.671939 27.399 18.7442 13.2542
34 1 3 0.671939 9.13299 2.34751 1.65994
35 1 3 0.671939 27.399 12.8934 9.117
36 1 3 0.671939 9.13299 8.19836 5.79712
37 1 3 0.67194 24.8655 14.3561 13.2542
38 1 3 0.67194 11.6665 6.73565 1.65994
39 1 3 0.67194 29.9325 17.2815 9.117
40 1 3 0.67194 6.5995 3.81022 5.79712
41 1 3 0.67194 24.8655 17.2815 9.117
42 1 3 0.67194 11.6665 3.81022 5.79712
43 1 3 0.67194 29.9325 14.3561 13.2542
44 1 3 0.67194 6.5995 6.73565 1.65994
45 1 3 -0.11508 27.399 19.957 14.1117
46 1 3 -0.11508 9.13299 1.13474 0.802379
47 1 3 -0.11508 27.399 11.6806 8.25944
48 1 3 -0.11508 9.13299 9.41113 6.65468
49 1 3 -0.11508 23.8152 13.7497 14.1117
50 1 3 -0.11508 12.7168 7.34203 0.802379
51 1 3 -0.11508 30.9828 17.8879 8.25944
52 1 3 -0.11508 5.54921 3.20384 6.65468
53 1 3 -0.11508 23.8152 17.8879 8.25944
54 1 3 -0.11508 12.7168 3.20384 6.65468
55 1 3 -0.11508 30.9828 13.7497 14.1117
56 1 3 -0.11508 5.54921 7.34203 0.802379
57 1 3 -0.0559 18.266 5.39949 13.5316
58 1 3 -0.0559 18.266 15.6923 1.38254
59 1 3 -0.055903 18.266 14.5575 0.580159
60 1 3 -0.055903 18.266 6.53422 14.334
61 1 3 -0.0559 26.1971 11.1132 7.85825
62 1 3 -0.0559 10.3349 9.9785 7.05587
63 1 3 -0.055903 10.3349 11.1132 7.85825
64 1 3 -0.055903 26.1971 9.9785 7.05587
65 1 3 -0.0559 14.7918 8.54005 0.580159
66 1 3 -0.0559 21.7402 12.5517 14.334
67 1 3 -0.055903 22.7229 13.1191 13.5316
68 1 3 -0.055903 13.8091 7.97268 1.38254
69 1 3 -0.0559 21.7402 3.39366 7.85825
70 1 3 -0.0559 14.7918 17.6981 7.05587
71 1 3 -0.055903 13.8091 17.1307 7.85825
72 1 3 -0.055903 22.7229 3.96103 7.05587
73 1 3 -0.055901 22.7229 17.1307 7.85825
74 1 3 -0.055901 13.8091 3.96103 7.05587
75 1 3 -0.055903 14.7918 3.39366 7.85825
76 1 3 -0.055903 21.7402 17.6981 7.05587
77 1 3 -0.0559 21.7402 8.54005 0.580159
78 1 3 -0.0559 14.7918 12.5517 14.334
79 1 3 -0.055903 13.8091 13.1191 13.5316
80 1 3 -0.055903 22.7229 7.97268 1.38254
81 1 4 -1.26215 27.399 15.8188 11.1856
82 1 4 -1.26215 9.13299 5.27293 3.72853
83 1 4 -0.60118 27.399 18.9383 11.9641
84 1 4 -0.60118 9.13299 2.15347 2.95001
85 1 4 -0.601179 27.399 17.5926 13.8671
86 1 4 -0.601179 9.13299 3.49912 1.04697
87 1 4 -0.601179 26.2336 13.3722 9.45555
88 1 4 -0.601179 10.2984 7.71958 5.45857
89 1 4 -0.60118 28.5643 13.3722 9.45555
90 1 4 -0.60118 7.96762 7.71958 5.45857
91 1 4 -0.60118 25.8628 14.9319 13.8671
92 1 4 -0.60118 10.6692 6.15984 1.04697
93 1 4 -0.601179 24.6974 14.2591 11.9641
94 1 4 -0.601179 11.8345 6.83267 2.95001
95 1 4 -0.60118 28.9351 18.0514 9.45555
96 1 4 -0.60118 7.59682 3.04037 5.45857
97 1 4 -0.601179 30.1005 16.0329 9.45555
98 1 4 -0.601179 6.43145 5.05885 5.45857
99 1 4 -0.601179 24.6974 16.0329 9.45555
100 1 4 -0.601179 11.8345 5.05885 5.45857
101 1 4 -0.60118 25.8628 18.0514 9.45555
102 1 4 -0.60118 10.6692 3.04037 5.45857
103 1 4 -0.60118 28.9351 14.9319 13.8671
104 1 4 -0.60118 7.59682 6.15984 1.04697
105 1 4 -0.60118 30.1005 14.2591 11.9641
106 1 4 -0.60118 6.43145 6.83267 2.95001
437 112 5 -0.35 17.9738 6.20185 1.71024
438 112 6 0.7 18.6048 6.01483 0.754998
439 112 5 -0.35 28.3688 11.1008 14.7139
578 159 5 -0.35 24.1582 19.2026 11.4645
579 159 6 0.7 15.5062 4.32898 10.9947
580 159 5 -0.35 15.9873 5.27421 10.5249
641 180 5 -0.35 23.0736 11.3709 0.0114332
642 180 6 0.7 32.026 17.018 13.8425
643 180 5 -0.35 31.8454 17.3921 12.7595
650 183 5 -0.35 24.2054 14.8019 4.36405
651 183 6 0.7 25.057 15.5168 4.69451
652 183 5 -0.35 25.9087 16.2317 5.02497
662 187 5 -0.35 27.9979 15.2463 6.96308
663 187 6 0.7 28.8707 15.4943 6.24037
664 187 5 -0.35 11.4775 15.7424 5.51766
692 197 5 -0.35 20.7363 9.25542 3.87315
693 197 6 0.7 20.7033 8.14612 4.21074
694 197 5 -0.35 20.6703 7.03682 4.54833
695 198 5 -0.35 18.2648 11.9596 4.80249
696 198 6 0.7 17.3926 12.7104 4.94759
697 198 5 -0.35 16.5203 13.4613 5.09269
698 199 5 -0.35 24.7664 4.57607 11.5586
699 199 6 0.7 6.63867 3.88411 10.6379
700 199 5 -0.35 15.9099 19.0109 9.71725
701 200 5 -0.35 20.3457 16.5007 11.6299
702 200 6 0.7 20.0847 15.4128 11.9367
703 200 5 -0.35 19.8237 14.325 12.2434
ITEM: TIMESTEP
21000
ITEM: NUMBER OF ATOMS
130
ITEM: BOX BOUNDS xy xz yz pp pp pp
0.0000000000000000e+00 3.6531964750000000e+01 9.1329911900000003e+00
0.0000000000000000e+00 2.1091739680000000e+01 9.1329911900000003e+00
0.0000000000000000e+00 1.4914112149999999e+01 5.2729349200000000e+00
ITEM: ATOMS id mol type q x y z
1 1 1 1.10383 27.399 17.6496 10.5383
2 1 1 1.10383 9.13299 3.44217 4.3758
3 1 1 1.10383 27.399 15.8188 13.1274
4 1 1 1.10383 9.13299 5.27293 1.78671
5 1 1 1.10383 25.8135 14.9034 10.5383
6 1 1 1.10383 10.7185 6.18832 4.3758
7 1 1 1.10383 28.9845 14.9034 10.5383
8 1 1 1.10383 7.5475 6.18832 4.3758
9 1 2 0.115889 18.266 5.48596 12.6084
10 1 2 0.115889 18.266 15.6058 2.30572
11 1 2 0.115888 18.266 13.716 0.969417
12 1 2 0.115888 18.266 7.37578 13.9447
13 1 2 0.11589 25.3934 11.4908 8.12521
14 1 2 0.11589 11.1386 9.60096 6.7889
15 1 2 0.115888 11.1386 11.4908 8.12521
16 1 2 0.115888 25.3934 9.60096 6.7889
17 1 2 0.115889 15.5206 8.96083 0.969417
18 1 2 0.115889 21.0114 12.1309 13.9447
19 1 2 0.115888 22.648 13.0758 12.6084
20 1 2 0.115888 13.884 8.01592 2.30572
21 1 2 0.115889 21.0114 3.90092 8.12521
22 1 2 0.115889 15.5206 17.1908 6.7889
23 1 2 0.115887 13.884 16.2459 8.12521
24 1 2 0.115887 22.648 4.84583 6.7889
25 1 2 0.115889 22.648 16.2459 8.12521
26 1 2 0.115889 13.884 4.84583 6.7889
27 1 2 0.115887 15.5206 3.90092 8.12521
28 1 2 0.115887 21.0114 17.1908 6.7889
29 1 2 0.115889 21.0114 8.96083 0.969417
30 1 2 0.115889 15.5206 12.1309 13.9447
31 1 2 0.115887 13.884 13.0758 12.6084
32 1 2 0.115887 22.648 8.01592 2.30572
33 1 3 0.671939 27.399 18.7442 13.2542
34 1 3 0.671939 9.13299 2.34751 1.65994
35 1 3 0.671939 27.399 12.8934 9.117
36 1 3 0.671939 9.13299 8.19836 5.79712
37 1 3 0.67194 24.8655 14.3561 13.2542
38 1 3 0.67194 11.6665 6.73565 1.65994
39 1 3 0.67194 29.9325 17.2815 9.117
40 1 3 0.67194 6.5995 3.81022 5.79712
41 1 3 0.67194 24.8655 17.2815 9.117
42 1 3 0.67194 11.6665 3.81022 5.79712
43 1 3 0.67194 29.9325 14.3561 13.2542
44 1 3 0.67194 6.5995 6.73565 1.65994
45 1 3 -0.11508 27.399 19.957 14.1117
46 1 3 -0.11508 9.13299 1.13474 0.802379
47 1 3 -0.11508 27.399 11.6806 8.25944
48 1 3 -0.11508 9.13299 9.41113 6.65468
49 1 3 -0.11508 23.8152 13.7497 14.1117
50 1 3 -0.11508 12.7168 7.34203 0.802379
51 1 3 -0.11508 30.9828 17.8879 8.25944
52 1 3 -0.11508 5.54921 3.20384 6.65468
53 1 3 -0.11508 23.8152 17.8879 8.25944
54 1 3 -0.11508 12.7168 3.20384 6.65468
55 1 3 -0.11508 30.9828 13.7497 14.1117
56 1 3 -0.11508 5.54921 7.34203 0.802379
57 1 3 -0.0559 18.266 5.39949 13.5316
58 1 3 -0.0559 18.266 15.6923 1.38254
59 1 3 -0.055903 18.266 14.5575 0.580159
60 1 3 -0.055903 18.266 6.53422 14.334
61 1 3 -0.0559 26.1971 11.1132 7.85825
62 1 3 -0.0559 10.3349 9.9785 7.05587
63 1 3 -0.055903 10.3349 11.1132 7.85825
64 1 3 -0.055903 26.1971 9.9785 7.05587
65 1 3 -0.0559 14.7918 8.54005 0.580159
66 1 3 -0.0559 21.7402 12.5517 14.334
67 1 3 -0.055903 22.7229 13.1191 13.5316
68 1 3 -0.055903 13.8091 7.97268 1.38254
69 1 3 -0.0559 21.7402 3.39366 7.85825
70 1 3 -0.0559 14.7918 17.6981 7.05587
71 1 3 -0.055903 13.8091 17.1307 7.85825
72 1 3 -0.055903 22.7229 3.96103 7.05587
73 1 3 -0.055901 22.7229 17.1307 7.85825
74 1 3 -0.055901 13.8091 3.96103 7.05587
75 1 3 -0.055903 14.7918 3.39366 7.85825
76 1 3 -0.055903 21.7402 17.6981 7.05587
77 1 3 -0.0559 21.7402 8.54005 0.580159
78 1 3 -0.0559 14.7918 12.5517 14.334
79 1 3 -0.055903 13.8091 13.1191 13.5316
80 1 3 -0.055903 22.7229 7.97268 1.38254
81 1 4 -1.26215 27.399 15.8188 11.1856
82 1 4 -1.26215 9.13299 5.27293 3.72853
83 1 4 -0.60118 27.399 18.9383 11.9641
84 1 4 -0.60118 9.13299 2.15347 2.95001
85 1 4 -0.601179 27.399 17.5926 13.8671
86 1 4 -0.601179 9.13299 3.49912 1.04697
87 1 4 -0.601179 26.2336 13.3722 9.45555
88 1 4 -0.601179 10.2984 7.71958 5.45857
89 1 4 -0.60118 28.5643 13.3722 9.45555
90 1 4 -0.60118 7.96762 7.71958 5.45857
91 1 4 -0.60118 25.8628 14.9319 13.8671
92 1 4 -0.60118 10.6692 6.15984 1.04697
93 1 4 -0.601179 24.6974 14.2591 11.9641
94 1 4 -0.601179 11.8345 6.83267 2.95001
95 1 4 -0.60118 28.9351 18.0514 9.45555
96 1 4 -0.60118 7.59682 3.04037 5.45857
97 1 4 -0.601179 30.1005 16.0329 9.45555
98 1 4 -0.601179 6.43145 5.05885 5.45857
99 1 4 -0.601179 24.6974 16.0329 9.45555
100 1 4 -0.601179 11.8345 5.05885 5.45857
101 1 4 -0.60118 25.8628 18.0514 9.45555
102 1 4 -0.60118 10.6692 3.04037 5.45857
103 1 4 -0.60118 28.9351 14.9319 13.8671
104 1 4 -0.60118 7.59682 6.15984 1.04697
105 1 4 -0.60118 30.1005 14.2591 11.9641
106 1 4 -0.60118 6.43145 6.83267 2.95001
245 48 5 -0.35 8.47607 9.53443 0.171524
246 48 6 0.7 8.99174 9.67077 1.20162
247 48 5 -0.35 9.50741 9.80711 2.23171
278 59 5 -0.35 27.9407 11.856 14.7616
279 59 6 0.7 27.5674 12.2283 13.7283
280 59 5 -0.35 27.194 12.6007 12.6951
299 66 5 -0.35 29.2658 10.7713 12.2434
300 66 6 0.7 11.0726 9.80635 11.6037
301 66 5 -0.35 11.1453 8.8414 10.9641
332 77 5 -0.35 17.9556 4.17411 2.06979
333 77 6 0.7 18.1344 4.83079 3.00917
334 77 5 -0.35 18.3131 5.48748 3.94855
338 79 5 -0.35 20.3381 7.94265 5.98524
339 79 6 0.7 20.0127 8.26712 4.92013
340 79 5 -0.35 19.6873 8.59159 3.85503
341 80 5 -0.35 21.3558 11.562 3.95688
342 80 6 0.7 21.0235 11.6645 2.85024
343 80 5 -0.35 20.6912 11.7671 1.74359
353 84 5 -0.35 22.913 16.0409 4.24937
354 84 6 0.7 22.9075 16.1112 3.09151
355 84 5 -0.35 22.902 16.1815 1.93366
356 85 5 -0.35 20.9617 12.0685 8.01043
357 85 6 0.7 20.5573 13.08 7.61195
358 85 5 -0.35 20.1529 14.0916 7.21347
ITEM: TIMESTEP
22000
ITEM: NUMBER OF ATOMS
124
ITEM: BOX BOUNDS xy xz yz pp pp pp
0.0000000000000000e+00 3.6531964750000000e+01 9.1329911900000003e+00
0.0000000000000000e+00 2.1091739680000000e+01 9.1329911900000003e+00
0.0000000000000000e+00 1.4914112149999999e+01 5.2729349200000000e+00
ITEM: ATOMS id mol type q x y z
1 1 1 1.10383 27.399 17.6496 10.5383
2 1 1 1.10383 9.13299 3.44217 4.3758
3 1 1 1.10383 27.399 15.8188 13.1274
4 1 1 1.10383 9.13299 5.27293 1.78671
5 1 1 1.10383 25.8135 14.9034 10.5383
6 1 1 1.10383 10.7185 6.18832 4.3758
7 1 1 1.10383 28.9845 14.9034 10.5383
8 1 1 1.10383 7.5475 6.18832 4.3758
9 1 2 0.115889 18.266 5.48596 12.6084
10 1 2 0.115889 18.266 15.6058 2.30572
11 1 2 0.115888 18.266 13.716 0.969417
12 1 2 0.115888 18.266 7.37578 13.9447
13 1 2 0.11589 25.3934 11.4908 8.12521
14 1 2 0.11589 11.1386 9.60096 6.7889
15 1 2 0.115888 11.1386 11.4908 8.12521
16 1 2 0.115888 25.3934 9.60096 6.7889
17 1 2 0.115889 15.5206 8.96083 0.969417
18 1 2 0.115889 21.0114 12.1309 13.9447
19 1 2 0.115888 22.648 13.0758 12.6084
20 1 2 0.115888 13.884 8.01592 2.30572
21 1 2 0.115889 21.0114 3.90092 8.12521
22 1 2 0.115889 15.5206 17.1908 6.7889
23 1 2 0.115887 13.884 16.2459 8.12521
24 1 2 0.115887 22.648 4.84583 6.7889
25 1 2 0.115889 22.648 16.2459 8.12521
26 1 2 0.115889 13.884 4.84583 6.7889
27 1 2 0.115887 15.5206 3.90092 8.12521
28 1 2 0.115887 21.0114 17.1908 6.7889
29 1 2 0.115889 21.0114 8.96083 0.969417
30 1 2 0.115889 15.5206 12.1309 13.9447
31 1 2 0.115887 13.884 13.0758 12.6084
32 1 2 0.115887 22.648 8.01592 2.30572
33 1 3 0.671939 27.399 18.7442 13.2542
34 1 3 0.671939 9.13299 2.34751 1.65994
35 1 3 0.671939 27.399 12.8934 9.117
36 1 3 0.671939 9.13299 8.19836 5.79712
37 1 3 0.67194 24.8655 14.3561 13.2542
38 1 3 0.67194 11.6665 6.73565 1.65994
39 1 3 0.67194 29.9325 17.2815 9.117
40 1 3 0.67194 6.5995 3.81022 5.79712
41 1 3 0.67194 24.8655 17.2815 9.117
42 1 3 0.67194 11.6665 3.81022 5.79712
43 1 3 0.67194 29.9325 14.3561 13.2542
44 1 3 0.67194 6.5995 6.73565 1.65994
45 1 3 -0.11508 27.399 19.957 14.1117
46 1 3 -0.11508 9.13299 1.13474 0.802379
47 1 3 -0.11508 27.399 11.6806 8.25944
48 1 3 -0.11508 9.13299 9.41113 6.65468
49 1 3 -0.11508 23.8152 13.7497 14.1117
50 1 3 -0.11508 12.7168 7.34203 0.802379
51 1 3 -0.11508 30.9828 17.8879 8.25944
52 1 3 -0.11508 5.54921 3.20384 6.65468
53 1 3 -0.11508 23.8152 17.8879 8.25944
54 1 3 -0.11508 12.7168 3.20384 6.65468
55 1 3 -0.11508 30.9828 13.7497 14.1117
56 1 3 -0.11508 5.54921 7.34203 0.802379
57 1 3 -0.0559 18.266 5.39949 13.5316
58 1 3 -0.0559 18.266 15.6923 1.38254
59 1 3 -0.055903 18.266 14.5575 0.580159
60 1 3 -0.055903 18.266 6.53422 14.334
61 1 3 -0.0559 26.1971 11.1132 7.85825
62 1 3 -0.0559 10.3349 9.9785 7.05587
63 1 3 -0.055903 10.3349 11.1132 7.85825
64 1 3 -0.055903 26.1971 9.9785 7.05587
65 1 3 -0.0559 14.7918 8.54005 0.580159
66 1 3 -0.0559 21.7402 12.5517 14.334
67 1 3 -0.055903 22.7229 13.1191 13.5316
68 1 3 -0.055903 13.8091 7.97268 1.38254
69 1 3 -0.0559 21.7402 3.39366 7.85825
70 1 3 -0.0559 14.7918 17.6981 7.05587
71 1 3 -0.055903 13.8091 17.1307 7.85825
72 1 3 -0.055903 22.7229 3.96103 7.05587
73 1 3 -0.055901 22.7229 17.1307 7.85825
74 1 3 -0.055901 13.8091 3.96103 7.05587
75 1 3 -0.055903 14.7918 3.39366 7.85825
76 1 3 -0.055903 21.7402 17.6981 7.05587
77 1 3 -0.0559 21.7402 8.54005 0.580159
78 1 3 -0.0559 14.7918 12.5517 14.334
79 1 3 -0.055903 13.8091 13.1191 13.5316
80 1 3 -0.055903 22.7229 7.97268 1.38254
81 1 4 -1.26215 27.399 15.8188 11.1856
82 1 4 -1.26215 9.13299 5.27293 3.72853
83 1 4 -0.60118 27.399 18.9383 11.9641
84 1 4 -0.60118 9.13299 2.15347 2.95001
85 1 4 -0.601179 27.399 17.5926 13.8671
86 1 4 -0.601179 9.13299 3.49912 1.04697
87 1 4 -0.601179 26.2336 13.3722 9.45555
88 1 4 -0.601179 10.2984 7.71958 5.45857
89 1 4 -0.60118 28.5643 13.3722 9.45555
90 1 4 -0.60118 7.96762 7.71958 5.45857
91 1 4 -0.60118 25.8628 14.9319 13.8671
92 1 4 -0.60118 10.6692 6.15984 1.04697
93 1 4 -0.601179 24.6974 14.2591 11.9641
94 1 4 -0.601179 11.8345 6.83267 2.95001
95 1 4 -0.60118 28.9351 18.0514 9.45555
96 1 4 -0.60118 7.59682 3.04037 5.45857
97 1 4 -0.601179 30.1005 16.0329 9.45555
98 1 4 -0.601179 6.43145 5.05885 5.45857
99 1 4 -0.601179 24.6974 16.0329 9.45555
100 1 4 -0.601179 11.8345 5.05885 5.45857
101 1 4 -0.60118 25.8628 18.0514 9.45555
102 1 4 -0.60118 10.6692 3.04037 5.45857
103 1 4 -0.60118 28.9351 14.9319 13.8671
104 1 4 -0.60118 7.59682 6.15984 1.04697
105 1 4 -0.60118 30.1005 14.2591 11.9641
106 1 4 -0.60118 6.43145 6.83267 2.95001
1820 573 5 -0.35 21.5753 5.8362 12.5686
1821 573 6 0.7 21.3923 4.69837 12.4365
1822 573 5 -0.35 30.3423 19.3793 12.3044
1826 575 5 -0.35 22.5812 17.1481 11.4193
1827 575 6 0.7 22.7424 17.0115 12.5599
1828 575 5 -0.35 22.9037 16.8749 13.7005
1835 578 5 -0.35 13.9649 12.0813 5.11583
1836 578 6 0.7 13.0494 12.6725 5.51337
1837 578 5 -0.35 12.1339 13.2636 5.91091
1850 583 5 -0.35 16.3561 11.6025 2.28458
1851 583 6 0.7 16.4045 12.6567 2.7662
1852 583 5 -0.35 16.4529 13.7109 3.24782
1856 585 5 -0.35 21.4767 4.61938 1.94673
1857 585 6 0.7 21.7843 4.13143 2.95316
1858 585 5 -0.35 3.82589 3.64349 3.95959
1859 586 5 -0.35 5.42772 1.92877 0.733987
1860 586 6 0.7 14.7938 7.3665 14.5238
1861 586 5 -0.35 15.027 7.5313 13.3995
ITEM: TIMESTEP
23000
ITEM: NUMBER OF ATOMS
136
ITEM: BOX BOUNDS xy xz yz pp pp pp
0.0000000000000000e+00 3.6531964750000000e+01 9.1329911900000003e+00
0.0000000000000000e+00 2.1091739680000000e+01 9.1329911900000003e+00
0.0000000000000000e+00 1.4914112149999999e+01 5.2729349200000000e+00
ITEM: ATOMS id mol type q x y z
1 1 1 1.10383 27.399 17.6496 10.5383
2 1 1 1.10383 9.13299 3.44217 4.3758
3 1 1 1.10383 27.399 15.8188 13.1274
4 1 1 1.10383 9.13299 5.27293 1.78671
5 1 1 1.10383 25.8135 14.9034 10.5383
6 1 1 1.10383 10.7185 6.18832 4.3758
7 1 1 1.10383 28.9845 14.9034 10.5383
8 1 1 1.10383 7.5475 6.18832 4.3758
9 1 2 0.115889 18.266 5.48596 12.6084
10 1 2 0.115889 18.266 15.6058 2.30572
11 1 2 0.115888 18.266 13.716 0.969417
12 1 2 0.115888 18.266 7.37578 13.9447
13 1 2 0.11589 25.3934 11.4908 8.12521
14 1 2 0.11589 11.1386 9.60096 6.7889
15 1 2 0.115888 11.1386 11.4908 8.12521
16 1 2 0.115888 25.3934 9.60096 6.7889
17 1 2 0.115889 15.5206 8.96083 0.969417
18 1 2 0.115889 21.0114 12.1309 13.9447
19 1 2 0.115888 22.648 13.0758 12.6084
20 1 2 0.115888 13.884 8.01592 2.30572
21 1 2 0.115889 21.0114 3.90092 8.12521
22 1 2 0.115889 15.5206 17.1908 6.7889
23 1 2 0.115887 13.884 16.2459 8.12521
24 1 2 0.115887 22.648 4.84583 6.7889
25 1 2 0.115889 22.648 16.2459 8.12521
26 1 2 0.115889 13.884 4.84583 6.7889
27 1 2 0.115887 15.5206 3.90092 8.12521
28 1 2 0.115887 21.0114 17.1908 6.7889
29 1 2 0.115889 21.0114 8.96083 0.969417
30 1 2 0.115889 15.5206 12.1309 13.9447
31 1 2 0.115887 13.884 13.0758 12.6084
32 1 2 0.115887 22.648 8.01592 2.30572
33 1 3 0.671939 27.399 18.7442 13.2542
34 1 3 0.671939 9.13299 2.34751 1.65994
35 1 3 0.671939 27.399 12.8934 9.117
36 1 3 0.671939 9.13299 8.19836 5.79712
37 1 3 0.67194 24.8655 14.3561 13.2542
38 1 3 0.67194 11.6665 6.73565 1.65994
39 1 3 0.67194 29.9325 17.2815 9.117
40 1 3 0.67194 6.5995 3.81022 5.79712
41 1 3 0.67194 24.8655 17.2815 9.117
42 1 3 0.67194 11.6665 3.81022 5.79712
43 1 3 0.67194 29.9325 14.3561 13.2542
44 1 3 0.67194 6.5995 6.73565 1.65994
45 1 3 -0.11508 27.399 19.957 14.1117
46 1 3 -0.11508 9.13299 1.13474 0.802379
47 1 3 -0.11508 27.399 11.6806 8.25944
48 1 3 -0.11508 9.13299 9.41113 6.65468
49 1 3 -0.11508 23.8152 13.7497 14.1117
50 1 3 -0.11508 12.7168 7.34203 0.802379
51 1 3 -0.11508 30.9828 17.8879 8.25944
52 1 3 -0.11508 5.54921 3.20384 6.65468
53 1 3 -0.11508 23.8152 17.8879 8.25944
54 1 3 -0.11508 12.7168 3.20384 6.65468
55 1 3 -0.11508 30.9828 13.7497 14.1117
56 1 3 -0.11508 5.54921 7.34203 0.802379
57 1 3 -0.0559 18.266 5.39949 13.5316
58 1 3 -0.0559 18.266 15.6923 1.38254
59 1 3 -0.055903 18.266 14.5575 0.580159
60 1 3 -0.055903 18.266 6.53422 14.334
61 1 3 -0.0559 26.1971 11.1132 7.85825
62 1 3 -0.0559 10.3349 9.9785 7.05587
63 1 3 -0.055903 10.3349 11.1132 7.85825
64 1 3 -0.055903 26.1971 9.9785 7.05587
65 1 3 -0.0559 14.7918 8.54005 0.580159
66 1 3 -0.0559 21.7402 12.5517 14.334
67 1 3 -0.055903 22.7229 13.1191 13.5316
68 1 3 -0.055903 13.8091 7.97268 1.38254
69 1 3 -0.0559 21.7402 3.39366 7.85825
70 1 3 -0.0559 14.7918 17.6981 7.05587
71 1 3 -0.055903 13.8091 17.1307 7.85825
72 1 3 -0.055903 22.7229 3.96103 7.05587
73 1 3 -0.055901 22.7229 17.1307 7.85825
74 1 3 -0.055901 13.8091 3.96103 7.05587
75 1 3 -0.055903 14.7918 3.39366 7.85825
76 1 3 -0.055903 21.7402 17.6981 7.05587
77 1 3 -0.0559 21.7402 8.54005 0.580159
78 1 3 -0.0559 14.7918 12.5517 14.334
79 1 3 -0.055903 13.8091 13.1191 13.5316
80 1 3 -0.055903 22.7229 7.97268 1.38254
81 1 4 -1.26215 27.399 15.8188 11.1856
82 1 4 -1.26215 9.13299 5.27293 3.72853
83 1 4 -0.60118 27.399 18.9383 11.9641
84 1 4 -0.60118 9.13299 2.15347 2.95001
85 1 4 -0.601179 27.399 17.5926 13.8671
86 1 4 -0.601179 9.13299 3.49912 1.04697
87 1 4 -0.601179 26.2336 13.3722 9.45555
88 1 4 -0.601179 10.2984 7.71958 5.45857
89 1 4 -0.60118 28.5643 13.3722 9.45555
90 1 4 -0.60118 7.96762 7.71958 5.45857
91 1 4 -0.60118 25.8628 14.9319 13.8671
92 1 4 -0.60118 10.6692 6.15984 1.04697
93 1 4 -0.601179 24.6974 14.2591 11.9641
94 1 4 -0.601179 11.8345 6.83267 2.95001
95 1 4 -0.60118 28.9351 18.0514 9.45555
96 1 4 -0.60118 7.59682 3.04037 5.45857
97 1 4 -0.601179 30.1005 16.0329 9.45555
98 1 4 -0.601179 6.43145 5.05885 5.45857
99 1 4 -0.601179 24.6974 16.0329 9.45555
100 1 4 -0.601179 11.8345 5.05885 5.45857
101 1 4 -0.60118 25.8628 18.0514 9.45555
102 1 4 -0.60118 10.6692 3.04037 5.45857
103 1 4 -0.60118 28.9351 14.9319 13.8671
104 1 4 -0.60118 7.59682 6.15984 1.04697
105 1 4 -0.60118 30.1005 14.2591 11.9641
106 1 4 -0.60118 6.43145 6.83267 2.95001
1220 373 5 -0.35 18.9827 6.94043 1.06408
1221 373 6 0.7 27.9282 12.1002 14.8391
1222 373 5 -0.35 27.7407 11.9871 13.6999
1268 389 5 -0.35 26.1108 15.6656 5.45911
1269 389 6 0.7 26.7709 15.6311 6.41238
1270 389 5 -0.35 27.4309 15.5966 7.36564
1286 395 5 -0.35 15.2704 4.49464 12.6332
1287 395 6 0.7 24.1058 19.2567 12.2585
1288 395 5 -0.35 23.8082 18.2 11.8838
1349 416 5 -0.35 18.5272 15.6334 7.39532
1350 416 6 0.7 18.2048 15.3345 6.32186
1351 416 5 -0.35 17.8825 15.0355 5.24839
1361 420 5 -0.35 11.6118 10.7515 1.58977
1362 420 6 0.7 12.4265 10.9012 0.77772
1363 420 5 -0.35 22.3742 16.3239 14.8798
1364 421 5 -0.35 12.5044 3.66091 1.89411
1365 421 6 0.7 12.3276 3.41575 0.774181
1366 421 5 -0.35 21.2838 8.44353 14.5684
1367 422 5 -0.35 21.8444 6.58258 9.15221
1368 422 6 0.7 21.1879 6.42657 10.0957
1369 422 5 -0.35 20.5314 6.27056 11.0393
1373 424 5 -0.35 15.7772 12.9341 5.94861
1374 424 6 0.7 15.7723 12.9263 4.78864
1375 424 5 -0.35 15.7674 12.9185 3.62868
1376 425 5 -0.35 10.6659 5.29933 9.64583
1377 425 6 0.7 9.62168 4.97056 10.0293
1378 425 5 -0.35 8.57744 4.64179 10.4129
1382 427 5 -0.35 15.0347 16.1009 11.3379
1383 427 6 0.7 15.0631 17.1793 10.9115
1384 427 5 -0.35 15.0914 18.2578 10.4851
ITEM: TIMESTEP
24000
ITEM: NUMBER OF ATOMS
115
ITEM: BOX BOUNDS xy xz yz pp pp pp
0.0000000000000000e+00 3.6531964750000000e+01 9.1329911900000003e+00
0.0000000000000000e+00 2.1091739680000000e+01 9.1329911900000003e+00
0.0000000000000000e+00 1.4914112149999999e+01 5.2729349200000000e+00
ITEM: ATOMS id mol type q x y z
1 1 1 1.10383 27.399 17.6496 10.5383
2 1 1 1.10383 9.13299 3.44217 4.3758
3 1 1 1.10383 27.399 15.8188 13.1274
4 1 1 1.10383 9.13299 5.27293 1.78671
5 1 1 1.10383 25.8135 14.9034 10.5383
6 1 1 1.10383 10.7185 6.18832 4.3758
7 1 1 1.10383 28.9845 14.9034 10.5383
8 1 1 1.10383 7.5475 6.18832 4.3758
9 1 2 0.115889 18.266 5.48596 12.6084
10 1 2 0.115889 18.266 15.6058 2.30572
11 1 2 0.115888 18.266 13.716 0.969417
12 1 2 0.115888 18.266 7.37578 13.9447
13 1 2 0.11589 25.3934 11.4908 8.12521
14 1 2 0.11589 11.1386 9.60096 6.7889
15 1 2 0.115888 11.1386 11.4908 8.12521
16 1 2 0.115888 25.3934 9.60096 6.7889
17 1 2 0.115889 15.5206 8.96083 0.969417
18 1 2 0.115889 21.0114 12.1309 13.9447
19 1 2 0.115888 22.648 13.0758 12.6084
20 1 2 0.115888 13.884 8.01592 2.30572
21 1 2 0.115889 21.0114 3.90092 8.12521
22 1 2 0.115889 15.5206 17.1908 6.7889
23 1 2 0.115887 13.884 16.2459 8.12521
24 1 2 0.115887 22.648 4.84583 6.7889
25 1 2 0.115889 22.648 16.2459 8.12521
26 1 2 0.115889 13.884 4.84583 6.7889
27 1 2 0.115887 15.5206 3.90092 8.12521
28 1 2 0.115887 21.0114 17.1908 6.7889
29 1 2 0.115889 21.0114 8.96083 0.969417
30 1 2 0.115889 15.5206 12.1309 13.9447
31 1 2 0.115887 13.884 13.0758 12.6084
32 1 2 0.115887 22.648 8.01592 2.30572
33 1 3 0.671939 27.399 18.7442 13.2542
34 1 3 0.671939 9.13299 2.34751 1.65994
35 1 3 0.671939 27.399 12.8934 9.117
36 1 3 0.671939 9.13299 8.19836 5.79712
37 1 3 0.67194 24.8655 14.3561 13.2542
38 1 3 0.67194 11.6665 6.73565 1.65994
39 1 3 0.67194 29.9325 17.2815 9.117
40 1 3 0.67194 6.5995 3.81022 5.79712
41 1 3 0.67194 24.8655 17.2815 9.117
42 1 3 0.67194 11.6665 3.81022 5.79712
43 1 3 0.67194 29.9325 14.3561 13.2542
44 1 3 0.67194 6.5995 6.73565 1.65994
45 1 3 -0.11508 27.399 19.957 14.1117
46 1 3 -0.11508 9.13299 1.13474 0.802379
47 1 3 -0.11508 27.399 11.6806 8.25944
48 1 3 -0.11508 9.13299 9.41113 6.65468
49 1 3 -0.11508 23.8152 13.7497 14.1117
50 1 3 -0.11508 12.7168 7.34203 0.802379
51 1 3 -0.11508 30.9828 17.8879 8.25944
52 1 3 -0.11508 5.54921 3.20384 6.65468
53 1 3 -0.11508 23.8152 17.8879 8.25944
54 1 3 -0.11508 12.7168 3.20384 6.65468
55 1 3 -0.11508 30.9828 13.7497 14.1117
56 1 3 -0.11508 5.54921 7.34203 0.802379
57 1 3 -0.0559 18.266 5.39949 13.5316
58 1 3 -0.0559 18.266 15.6923 1.38254
59 1 3 -0.055903 18.266 14.5575 0.580159
60 1 3 -0.055903 18.266 6.53422 14.334
61 1 3 -0.0559 26.1971 11.1132 7.85825
62 1 3 -0.0559 10.3349 9.9785 7.05587
63 1 3 -0.055903 10.3349 11.1132 7.85825
64 1 3 -0.055903 26.1971 9.9785 7.05587
65 1 3 -0.0559 14.7918 8.54005 0.580159
66 1 3 -0.0559 21.7402 12.5517 14.334
67 1 3 -0.055903 22.7229 13.1191 13.5316
68 1 3 -0.055903 13.8091 7.97268 1.38254
69 1 3 -0.0559 21.7402 3.39366 7.85825
70 1 3 -0.0559 14.7918 17.6981 7.05587
71 1 3 -0.055903 13.8091 17.1307 7.85825
72 1 3 -0.055903 22.7229 3.96103 7.05587
73 1 3 -0.055901 22.7229 17.1307 7.85825
74 1 3 -0.055901 13.8091 3.96103 7.05587
75 1 3 -0.055903 14.7918 3.39366 7.85825
76 1 3 -0.055903 21.7402 17.6981 7.05587
77 1 3 -0.0559 21.7402 8.54005 0.580159
78 1 3 -0.0559 14.7918 12.5517 14.334
79 1 3 -0.055903 13.8091 13.1191 13.5316
80 1 3 -0.055903 22.7229 7.97268 1.38254
81 1 4 -1.26215 27.399 15.8188 11.1856
82 1 4 -1.26215 9.13299 5.27293 3.72853
83 1 4 -0.60118 27.399 18.9383 11.9641
84 1 4 -0.60118 9.13299 2.15347 2.95001
85 1 4 -0.601179 27.399 17.5926 13.8671
86 1 4 -0.601179 9.13299 3.49912 1.04697
87 1 4 -0.601179 26.2336 13.3722 9.45555
88 1 4 -0.601179 10.2984 7.71958 5.45857
89 1 4 -0.60118 28.5643 13.3722 9.45555
90 1 4 -0.60118 7.96762 7.71958 5.45857
91 1 4 -0.60118 25.8628 14.9319 13.8671
92 1 4 -0.60118 10.6692 6.15984 1.04697
93 1 4 -0.601179 24.6974 14.2591 11.9641
94 1 4 -0.601179 11.8345 6.83267 2.95001
95 1 4 -0.60118 28.9351 18.0514 9.45555
96 1 4 -0.60118 7.59682 3.04037 5.45857
97 1 4 -0.601179 30.1005 16.0329 9.45555
98 1 4 -0.601179 6.43145 5.05885 5.45857
99 1 4 -0.601179 24.6974 16.0329 9.45555
100 1 4 -0.601179 11.8345 5.05885 5.45857
101 1 4 -0.60118 25.8628 18.0514 9.45555
102 1 4 -0.60118 10.6692 3.04037 5.45857
103 1 4 -0.60118 28.9351 14.9319 13.8671
104 1 4 -0.60118 7.59682 6.15984 1.04697
105 1 4 -0.60118 30.1005 14.2591 11.9641
106 1 4 -0.60118 6.43145 6.83267 2.95001
2432 777 5 -0.35 12.3678 3.59197 0.830093
2433 777 6 0.7 21.3626 8.89835 14.5929
2434 777 5 -0.35 21.2245 8.9318 13.4417
2969 956 5 -0.35 24.942 10.9102 11.7866
2970 956 6 0.7 23.9872 10.5779 11.2178
2971 956 5 -0.35 23.0324 10.2457 10.6489
2972 957 5 -0.35 16.8073 14.9137 5.10345
2973 957 6 0.7 17.799 15.5071 5.00347
2974 957 5 -0.35 18.7907 16.1005 4.90349
ITEM: TIMESTEP
25000
ITEM: NUMBER OF ATOMS
151
ITEM: BOX BOUNDS xy xz yz pp pp pp
0.0000000000000000e+00 3.6531964750000000e+01 9.1329911900000003e+00
0.0000000000000000e+00 2.1091739680000000e+01 9.1329911900000003e+00
0.0000000000000000e+00 1.4914112149999999e+01 5.2729349200000000e+00
ITEM: ATOMS id mol type q x y z
1 1 1 1.10383 27.399 17.6496 10.5383
2 1 1 1.10383 9.13299 3.44217 4.3758
3 1 1 1.10383 27.399 15.8188 13.1274
4 1 1 1.10383 9.13299 5.27293 1.78671
5 1 1 1.10383 25.8135 14.9034 10.5383
6 1 1 1.10383 10.7185 6.18832 4.3758
7 1 1 1.10383 28.9845 14.9034 10.5383
8 1 1 1.10383 7.5475 6.18832 4.3758
9 1 2 0.115889 18.266 5.48596 12.6084
10 1 2 0.115889 18.266 15.6058 2.30572
11 1 2 0.115888 18.266 13.716 0.969417
12 1 2 0.115888 18.266 7.37578 13.9447
13 1 2 0.11589 25.3934 11.4908 8.12521
14 1 2 0.11589 11.1386 9.60096 6.7889
15 1 2 0.115888 11.1386 11.4908 8.12521
16 1 2 0.115888 25.3934 9.60096 6.7889
17 1 2 0.115889 15.5206 8.96083 0.969417
18 1 2 0.115889 21.0114 12.1309 13.9447
19 1 2 0.115888 22.648 13.0758 12.6084
20 1 2 0.115888 13.884 8.01592 2.30572
21 1 2 0.115889 21.0114 3.90092 8.12521
22 1 2 0.115889 15.5206 17.1908 6.7889
23 1 2 0.115887 13.884 16.2459 8.12521
24 1 2 0.115887 22.648 4.84583 6.7889
25 1 2 0.115889 22.648 16.2459 8.12521
26 1 2 0.115889 13.884 4.84583 6.7889
27 1 2 0.115887 15.5206 3.90092 8.12521
28 1 2 0.115887 21.0114 17.1908 6.7889
29 1 2 0.115889 21.0114 8.96083 0.969417
30 1 2 0.115889 15.5206 12.1309 13.9447
31 1 2 0.115887 13.884 13.0758 12.6084
32 1 2 0.115887 22.648 8.01592 2.30572
33 1 3 0.671939 27.399 18.7442 13.2542
34 1 3 0.671939 9.13299 2.34751 1.65994
35 1 3 0.671939 27.399 12.8934 9.117
36 1 3 0.671939 9.13299 8.19836 5.79712
37 1 3 0.67194 24.8655 14.3561 13.2542
38 1 3 0.67194 11.6665 6.73565 1.65994
39 1 3 0.67194 29.9325 17.2815 9.117
40 1 3 0.67194 6.5995 3.81022 5.79712
41 1 3 0.67194 24.8655 17.2815 9.117
42 1 3 0.67194 11.6665 3.81022 5.79712
43 1 3 0.67194 29.9325 14.3561 13.2542
44 1 3 0.67194 6.5995 6.73565 1.65994
45 1 3 -0.11508 27.399 19.957 14.1117
46 1 3 -0.11508 9.13299 1.13474 0.802379
47 1 3 -0.11508 27.399 11.6806 8.25944
48 1 3 -0.11508 9.13299 9.41113 6.65468
49 1 3 -0.11508 23.8152 13.7497 14.1117
50 1 3 -0.11508 12.7168 7.34203 0.802379
51 1 3 -0.11508 30.9828 17.8879 8.25944
52 1 3 -0.11508 5.54921 3.20384 6.65468
53 1 3 -0.11508 23.8152 17.8879 8.25944
54 1 3 -0.11508 12.7168 3.20384 6.65468
55 1 3 -0.11508 30.9828 13.7497 14.1117
56 1 3 -0.11508 5.54921 7.34203 0.802379
57 1 3 -0.0559 18.266 5.39949 13.5316
58 1 3 -0.0559 18.266 15.6923 1.38254
59 1 3 -0.055903 18.266 14.5575 0.580159
60 1 3 -0.055903 18.266 6.53422 14.334
61 1 3 -0.0559 26.1971 11.1132 7.85825
62 1 3 -0.0559 10.3349 9.9785 7.05587
63 1 3 -0.055903 10.3349 11.1132 7.85825
64 1 3 -0.055903 26.1971 9.9785 7.05587
65 1 3 -0.0559 14.7918 8.54005 0.580159
66 1 3 -0.0559 21.7402 12.5517 14.334
67 1 3 -0.055903 22.7229 13.1191 13.5316
68 1 3 -0.055903 13.8091 7.97268 1.38254
69 1 3 -0.0559 21.7402 3.39366 7.85825
70 1 3 -0.0559 14.7918 17.6981 7.05587
71 1 3 -0.055903 13.8091 17.1307 7.85825
72 1 3 -0.055903 22.7229 3.96103 7.05587
73 1 3 -0.055901 22.7229 17.1307 7.85825
74 1 3 -0.055901 13.8091 3.96103 7.05587
75 1 3 -0.055903 14.7918 3.39366 7.85825
76 1 3 -0.055903 21.7402 17.6981 7.05587
77 1 3 -0.0559 21.7402 8.54005 0.580159
78 1 3 -0.0559 14.7918 12.5517 14.334
79 1 3 -0.055903 13.8091 13.1191 13.5316
80 1 3 -0.055903 22.7229 7.97268 1.38254
81 1 4 -1.26215 27.399 15.8188 11.1856
82 1 4 -1.26215 9.13299 5.27293 3.72853
83 1 4 -0.60118 27.399 18.9383 11.9641
84 1 4 -0.60118 9.13299 2.15347 2.95001
85 1 4 -0.601179 27.399 17.5926 13.8671
86 1 4 -0.601179 9.13299 3.49912 1.04697
87 1 4 -0.601179 26.2336 13.3722 9.45555
88 1 4 -0.601179 10.2984 7.71958 5.45857
89 1 4 -0.60118 28.5643 13.3722 9.45555
90 1 4 -0.60118 7.96762 7.71958 5.45857
91 1 4 -0.60118 25.8628 14.9319 13.8671
92 1 4 -0.60118 10.6692 6.15984 1.04697
93 1 4 -0.601179 24.6974 14.2591 11.9641
94 1 4 -0.601179 11.8345 6.83267 2.95001
95 1 4 -0.60118 28.9351 18.0514 9.45555
96 1 4 -0.60118 7.59682 3.04037 5.45857
97 1 4 -0.601179 30.1005 16.0329 9.45555
98 1 4 -0.601179 6.43145 5.05885 5.45857
99 1 4 -0.601179 24.6974 16.0329 9.45555
100 1 4 -0.601179 11.8345 5.05885 5.45857
101 1 4 -0.60118 25.8628 18.0514 9.45555
102 1 4 -0.60118 10.6692 3.04037 5.45857
103 1 4 -0.60118 28.9351 14.9319 13.8671
104 1 4 -0.60118 7.59682 6.15984 1.04697
105 1 4 -0.60118 30.1005 14.2591 11.9641
106 1 4 -0.60118 6.43145 6.83267 2.95001
3704 1201 5 -0.35 23.9 19.7168 14.4729
3705 1201 6 0.7 14.798 15.4218 0.181909
3706 1201 5 -0.35 5.69593 0.580965 0.805015
3710 1203 5 -0.35 22.4288 16.9326 14.4466
3711 1203 6 0.7 22.9187 17.0999 13.4085
3712 1203 5 -0.35 23.4087 17.2671 12.3704
3788 1229 5 -0.35 5.31314 4.2805 2.13694
3789 1229 6 0.7 5.68638 3.87312 1.11698
3790 1229 5 -0.35 6.05963 3.46573 0.0970148
3932 1277 5 -0.35 28.1678 12.0094 12.0585
3933 1277 6 0.7 29.0478 11.2595 12.1529
3934 1277 5 -0.35 11.6617 10.5095 12.2473
3986 1295 5 -0.35 16.7341 6.37123 9.86547
3987 1295 6 0.7 17.3117 5.63479 9.18011
3988 1295 5 -0.35 17.8892 4.89835 8.49475
3995 1298 5 -0.35 20.3493 15.8713 4.36305
3996 1298 6 0.7 21.1009 16.6328 3.91493
3997 1298 5 -0.35 12.7195 1.5755 3.46681
4043 1314 5 -0.35 9.33335 9.75182 3.3406
4044 1314 6 0.7 8.98717 9.53815 2.25428
4045 1314 5 -0.35 8.64098 9.32448 1.16795
4076 1325 5 -0.35 20.5056 6.0637 10.6538
4077 1325 6 0.7 21.2144 5.41197 11.3008
4078 1325 5 -0.35 21.9231 4.76024 11.9477
4079 1326 5 -0.35 17.1775 6.65263 1.41515
4080 1326 6 0.7 17.9161 5.92317 0.897485
4081 1326 5 -0.35 18.6547 5.19371 0.379817
4085 1328 5 -0.35 22.6895 11.4125 10.3297
4086 1328 6 0.7 22.5404 12.1565 9.45234
4087 1328 5 -0.35 22.3912 12.9005 8.57494
4094 1331 5 -0.35 20.8168 10.2876 8.48226
4095 1331 6 0.7 20.9202 9.64082 7.52487
4096 1331 5 -0.35 21.0237 8.99406 6.56748
4097 1332 5 -0.35 23.021 6.03896 9.50081
4098 1332 6 0.7 24.1565 6.18903 9.68482
4099 1332 5 -0.35 25.2919 6.33909 9.86882
4100 1333 5 -0.35 23.5787 11.7513 0.673906
4101 1333 6 0.7 32.4501 16.9581 14.4598
4102 1333 5 -0.35 32.1885 16.892 13.3316
4103 1334 5 -0.35 19.0313 3.19986 5.95106
4104 1334 6 0.7 19.0693 3.05035 4.80136
4105 1334 5 -0.35 19.1072 2.90084 3.65166
4106 1335 5 -0.35 15.3988 2.60407 4.44509
4107 1335 6 0.7 15.5261 2.15216 3.38434
4108 1335 5 -0.35 15.6534 1.70025 2.32359
ITEM: TIMESTEP
26000
ITEM: NUMBER OF ATOMS
127
ITEM: BOX BOUNDS xy xz yz pp pp pp
0.0000000000000000e+00 3.6531964750000000e+01 9.1329911900000003e+00
0.0000000000000000e+00 2.1091739680000000e+01 9.1329911900000003e+00
0.0000000000000000e+00 1.4914112149999999e+01 5.2729349200000000e+00
ITEM: ATOMS id mol type q x y z
1 1 1 1.10383 27.399 17.6496 10.5383
2 1 1 1.10383 9.13299 3.44217 4.3758
3 1 1 1.10383 27.399 15.8188 13.1274
4 1 1 1.10383 9.13299 5.27293 1.78671
5 1 1 1.10383 25.8135 14.9034 10.5383
6 1 1 1.10383 10.7185 6.18832 4.3758
7 1 1 1.10383 28.9845 14.9034 10.5383
8 1 1 1.10383 7.5475 6.18832 4.3758
9 1 2 0.115889 18.266 5.48596 12.6084
10 1 2 0.115889 18.266 15.6058 2.30572
11 1 2 0.115888 18.266 13.716 0.969417
12 1 2 0.115888 18.266 7.37578 13.9447
13 1 2 0.11589 25.3934 11.4908 8.12521
14 1 2 0.11589 11.1386 9.60096 6.7889
15 1 2 0.115888 11.1386 11.4908 8.12521
16 1 2 0.115888 25.3934 9.60096 6.7889
17 1 2 0.115889 15.5206 8.96083 0.969417
18 1 2 0.115889 21.0114 12.1309 13.9447
19 1 2 0.115888 22.648 13.0758 12.6084
20 1 2 0.115888 13.884 8.01592 2.30572
21 1 2 0.115889 21.0114 3.90092 8.12521
22 1 2 0.115889 15.5206 17.1908 6.7889
23 1 2 0.115887 13.884 16.2459 8.12521
24 1 2 0.115887 22.648 4.84583 6.7889
25 1 2 0.115889 22.648 16.2459 8.12521
26 1 2 0.115889 13.884 4.84583 6.7889
27 1 2 0.115887 15.5206 3.90092 8.12521
28 1 2 0.115887 21.0114 17.1908 6.7889
29 1 2 0.115889 21.0114 8.96083 0.969417
30 1 2 0.115889 15.5206 12.1309 13.9447
31 1 2 0.115887 13.884 13.0758 12.6084
32 1 2 0.115887 22.648 8.01592 2.30572
33 1 3 0.671939 27.399 18.7442 13.2542
34 1 3 0.671939 9.13299 2.34751 1.65994
35 1 3 0.671939 27.399 12.8934 9.117
36 1 3 0.671939 9.13299 8.19836 5.79712
37 1 3 0.67194 24.8655 14.3561 13.2542
38 1 3 0.67194 11.6665 6.73565 1.65994
39 1 3 0.67194 29.9325 17.2815 9.117
40 1 3 0.67194 6.5995 3.81022 5.79712
41 1 3 0.67194 24.8655 17.2815 9.117
42 1 3 0.67194 11.6665 3.81022 5.79712
43 1 3 0.67194 29.9325 14.3561 13.2542
44 1 3 0.67194 6.5995 6.73565 1.65994
45 1 3 -0.11508 27.399 19.957 14.1117
46 1 3 -0.11508 9.13299 1.13474 0.802379
47 1 3 -0.11508 27.399 11.6806 8.25944
48 1 3 -0.11508 9.13299 9.41113 6.65468
49 1 3 -0.11508 23.8152 13.7497 14.1117
50 1 3 -0.11508 12.7168 7.34203 0.802379
51 1 3 -0.11508 30.9828 17.8879 8.25944
52 1 3 -0.11508 5.54921 3.20384 6.65468
53 1 3 -0.11508 23.8152 17.8879 8.25944
54 1 3 -0.11508 12.7168 3.20384 6.65468
55 1 3 -0.11508 30.9828 13.7497 14.1117
56 1 3 -0.11508 5.54921 7.34203 0.802379
57 1 3 -0.0559 18.266 5.39949 13.5316
58 1 3 -0.0559 18.266 15.6923 1.38254
59 1 3 -0.055903 18.266 14.5575 0.580159
60 1 3 -0.055903 18.266 6.53422 14.334
61 1 3 -0.0559 26.1971 11.1132 7.85825
62 1 3 -0.0559 10.3349 9.9785 7.05587
63 1 3 -0.055903 10.3349 11.1132 7.85825
64 1 3 -0.055903 26.1971 9.9785 7.05587
65 1 3 -0.0559 14.7918 8.54005 0.580159
66 1 3 -0.0559 21.7402 12.5517 14.334
67 1 3 -0.055903 22.7229 13.1191 13.5316
68 1 3 -0.055903 13.8091 7.97268 1.38254
69 1 3 -0.0559 21.7402 3.39366 7.85825
70 1 3 -0.0559 14.7918 17.6981 7.05587
71 1 3 -0.055903 13.8091 17.1307 7.85825
72 1 3 -0.055903 22.7229 3.96103 7.05587
73 1 3 -0.055901 22.7229 17.1307 7.85825
74 1 3 -0.055901 13.8091 3.96103 7.05587
75 1 3 -0.055903 14.7918 3.39366 7.85825
76 1 3 -0.055903 21.7402 17.6981 7.05587
77 1 3 -0.0559 21.7402 8.54005 0.580159
78 1 3 -0.0559 14.7918 12.5517 14.334
79 1 3 -0.055903 13.8091 13.1191 13.5316
80 1 3 -0.055903 22.7229 7.97268 1.38254
81 1 4 -1.26215 27.399 15.8188 11.1856
82 1 4 -1.26215 9.13299 5.27293 3.72853
83 1 4 -0.60118 27.399 18.9383 11.9641
84 1 4 -0.60118 9.13299 2.15347 2.95001
85 1 4 -0.601179 27.399 17.5926 13.8671
86 1 4 -0.601179 9.13299 3.49912 1.04697
87 1 4 -0.601179 26.2336 13.3722 9.45555
88 1 4 -0.601179 10.2984 7.71958 5.45857
89 1 4 -0.60118 28.5643 13.3722 9.45555
90 1 4 -0.60118 7.96762 7.71958 5.45857
91 1 4 -0.60118 25.8628 14.9319 13.8671
92 1 4 -0.60118 10.6692 6.15984 1.04697
93 1 4 -0.601179 24.6974 14.2591 11.9641
94 1 4 -0.601179 11.8345 6.83267 2.95001
95 1 4 -0.60118 28.9351 18.0514 9.45555
96 1 4 -0.60118 7.59682 3.04037 5.45857
97 1 4 -0.601179 30.1005 16.0329 9.45555
98 1 4 -0.601179 6.43145 5.05885 5.45857
99 1 4 -0.601179 24.6974 16.0329 9.45555
100 1 4 -0.601179 11.8345 5.05885 5.45857
101 1 4 -0.60118 25.8628 18.0514 9.45555
102 1 4 -0.60118 10.6692 3.04037 5.45857
103 1 4 -0.60118 28.9351 14.9319 13.8671
104 1 4 -0.60118 7.59682 6.15984 1.04697
105 1 4 -0.60118 30.1005 14.2591 11.9641
106 1 4 -0.60118 6.43145 6.83267 2.95001
5438 1779 5 -0.35 18.5833 6.86246 0.167765
5439 1779 6 0.7 27.6752 12.1278 13.9226
5440 1779 5 -0.35 27.634 12.1202 12.7634
5531 1810 5 -0.35 10.7294 6.77848 8.96608
5532 1810 6 0.7 11.847 6.66732 9.25654
5533 1810 5 -0.35 12.9645 6.55616 9.54701
5537 1812 5 -0.35 14.5051 12.42 0.259942
5538 1812 6 0.7 24.077 17.5734 14.107
5539 1812 5 -0.35 24.516 17.4538 13.04
5546 1815 5 -0.35 17.6131 14.1648 14.3174
5547 1815 6 0.7 8.72487 9.14212 0.509257
5548 1815 5 -0.35 8.9696 9.39239 1.61518
5606 1835 5 -0.35 17.3069 1.448 3.71747
5607 1835 6 0.7 16.1492 1.49815 3.77177
5608 1835 5 -0.35 14.9916 1.54831 3.82606
5612 1837 5 -0.35 21.7444 16.1051 1.27341
5613 1837 6 0.7 21.7193 15.6472 0.20789
5614 1837 5 -0.35 30.8272 20.4623 14.0565
5633 1844 5 -0.35 13.9367 4.66021 2.87958
5634 1844 6 0.7 13.4935 4.19612 1.91327
5635 1844 5 -0.35 13.0503 3.73204 0.946952
ITEM: TIMESTEP
27000
ITEM: NUMBER OF ATOMS
133
ITEM: BOX BOUNDS xy xz yz pp pp pp
0.0000000000000000e+00 3.6531964750000000e+01 9.1329911900000003e+00
0.0000000000000000e+00 2.1091739680000000e+01 9.1329911900000003e+00
0.0000000000000000e+00 1.4914112149999999e+01 5.2729349200000000e+00
ITEM: ATOMS id mol type q x y z
1 1 1 1.10383 27.399 17.6496 10.5383
2 1 1 1.10383 9.13299 3.44217 4.3758
3 1 1 1.10383 27.399 15.8188 13.1274
4 1 1 1.10383 9.13299 5.27293 1.78671
5 1 1 1.10383 25.8135 14.9034 10.5383
6 1 1 1.10383 10.7185 6.18832 4.3758
7 1 1 1.10383 28.9845 14.9034 10.5383
8 1 1 1.10383 7.5475 6.18832 4.3758
9 1 2 0.115889 18.266 5.48596 12.6084
10 1 2 0.115889 18.266 15.6058 2.30572
11 1 2 0.115888 18.266 13.716 0.969417
12 1 2 0.115888 18.266 7.37578 13.9447
13 1 2 0.11589 25.3934 11.4908 8.12521
14 1 2 0.11589 11.1386 9.60096 6.7889
15 1 2 0.115888 11.1386 11.4908 8.12521
16 1 2 0.115888 25.3934 9.60096 6.7889
17 1 2 0.115889 15.5206 8.96083 0.969417
18 1 2 0.115889 21.0114 12.1309 13.9447
19 1 2 0.115888 22.648 13.0758 12.6084
20 1 2 0.115888 13.884 8.01592 2.30572
21 1 2 0.115889 21.0114 3.90092 8.12521
22 1 2 0.115889 15.5206 17.1908 6.7889
23 1 2 0.115887 13.884 16.2459 8.12521
24 1 2 0.115887 22.648 4.84583 6.7889
25 1 2 0.115889 22.648 16.2459 8.12521
26 1 2 0.115889 13.884 4.84583 6.7889
27 1 2 0.115887 15.5206 3.90092 8.12521
28 1 2 0.115887 21.0114 17.1908 6.7889
29 1 2 0.115889 21.0114 8.96083 0.969417
30 1 2 0.115889 15.5206 12.1309 13.9447
31 1 2 0.115887 13.884 13.0758 12.6084
32 1 2 0.115887 22.648 8.01592 2.30572
33 1 3 0.671939 27.399 18.7442 13.2542
34 1 3 0.671939 9.13299 2.34751 1.65994
35 1 3 0.671939 27.399 12.8934 9.117
36 1 3 0.671939 9.13299 8.19836 5.79712
37 1 3 0.67194 24.8655 14.3561 13.2542
38 1 3 0.67194 11.6665 6.73565 1.65994
39 1 3 0.67194 29.9325 17.2815 9.117
40 1 3 0.67194 6.5995 3.81022 5.79712
41 1 3 0.67194 24.8655 17.2815 9.117
42 1 3 0.67194 11.6665 3.81022 5.79712
43 1 3 0.67194 29.9325 14.3561 13.2542
44 1 3 0.67194 6.5995 6.73565 1.65994
45 1 3 -0.11508 27.399 19.957 14.1117
46 1 3 -0.11508 9.13299 1.13474 0.802379
47 1 3 -0.11508 27.399 11.6806 8.25944
48 1 3 -0.11508 9.13299 9.41113 6.65468
49 1 3 -0.11508 23.8152 13.7497 14.1117
50 1 3 -0.11508 12.7168 7.34203 0.802379
51 1 3 -0.11508 30.9828 17.8879 8.25944
52 1 3 -0.11508 5.54921 3.20384 6.65468
53 1 3 -0.11508 23.8152 17.8879 8.25944
54 1 3 -0.11508 12.7168 3.20384 6.65468
55 1 3 -0.11508 30.9828 13.7497 14.1117
56 1 3 -0.11508 5.54921 7.34203 0.802379
57 1 3 -0.0559 18.266 5.39949 13.5316
58 1 3 -0.0559 18.266 15.6923 1.38254
59 1 3 -0.055903 18.266 14.5575 0.580159
60 1 3 -0.055903 18.266 6.53422 14.334
61 1 3 -0.0559 26.1971 11.1132 7.85825
62 1 3 -0.0559 10.3349 9.9785 7.05587
63 1 3 -0.055903 10.3349 11.1132 7.85825
64 1 3 -0.055903 26.1971 9.9785 7.05587
65 1 3 -0.0559 14.7918 8.54005 0.580159
66 1 3 -0.0559 21.7402 12.5517 14.334
67 1 3 -0.055903 22.7229 13.1191 13.5316
68 1 3 -0.055903 13.8091 7.97268 1.38254
69 1 3 -0.0559 21.7402 3.39366 7.85825
70 1 3 -0.0559 14.7918 17.6981 7.05587
71 1 3 -0.055903 13.8091 17.1307 7.85825
72 1 3 -0.055903 22.7229 3.96103 7.05587
73 1 3 -0.055901 22.7229 17.1307 7.85825
74 1 3 -0.055901 13.8091 3.96103 7.05587
75 1 3 -0.055903 14.7918 3.39366 7.85825
76 1 3 -0.055903 21.7402 17.6981 7.05587
77 1 3 -0.0559 21.7402 8.54005 0.580159
78 1 3 -0.0559 14.7918 12.5517 14.334
79 1 3 -0.055903 13.8091 13.1191 13.5316
80 1 3 -0.055903 22.7229 7.97268 1.38254
81 1 4 -1.26215 27.399 15.8188 11.1856
82 1 4 -1.26215 9.13299 5.27293 3.72853
83 1 4 -0.60118 27.399 18.9383 11.9641
84 1 4 -0.60118 9.13299 2.15347 2.95001
85 1 4 -0.601179 27.399 17.5926 13.8671
86 1 4 -0.601179 9.13299 3.49912 1.04697
87 1 4 -0.601179 26.2336 13.3722 9.45555
88 1 4 -0.601179 10.2984 7.71958 5.45857
89 1 4 -0.60118 28.5643 13.3722 9.45555
90 1 4 -0.60118 7.96762 7.71958 5.45857
91 1 4 -0.60118 25.8628 14.9319 13.8671
92 1 4 -0.60118 10.6692 6.15984 1.04697
93 1 4 -0.601179 24.6974 14.2591 11.9641
94 1 4 -0.601179 11.8345 6.83267 2.95001
95 1 4 -0.60118 28.9351 18.0514 9.45555
96 1 4 -0.60118 7.59682 3.04037 5.45857
97 1 4 -0.601179 30.1005 16.0329 9.45555
98 1 4 -0.601179 6.43145 5.05885 5.45857
99 1 4 -0.601179 24.6974 16.0329 9.45555
100 1 4 -0.601179 11.8345 5.05885 5.45857
101 1 4 -0.60118 25.8628 18.0514 9.45555
102 1 4 -0.60118 10.6692 3.04037 5.45857
103 1 4 -0.60118 28.9351 14.9319 13.8671
104 1 4 -0.60118 7.59682 6.15984 1.04697
105 1 4 -0.60118 30.1005 14.2591 11.9641
106 1 4 -0.60118 6.43145 6.83267 2.95001
6881 2260 5 -0.35 21.2805 13.1037 0.823914
6882 2260 6 0.7 30.6026 18.0803 14.6326
6883 2260 5 -0.35 30.7917 17.784 13.5271
6923 2274 5 -0.35 23.0165 10.2837 7.74513
6924 2274 6 0.7 21.9664 9.83162 7.54903
6925 2274 5 -0.35 20.9162 9.3795 7.35294
6941 2280 5 -0.35 23.3904 10.9724 10.7468
6942 2280 6 0.7 23.1566 11.9155 10.1132
6943 2280 5 -0.35 22.9227 12.8586 9.4795
7145 2348 5 -0.35 22.2207 5.90433 9.90062
7146 2348 6 0.7 22.8472 6.56542 9.18227
7147 2348 5 -0.35 23.4737 7.22652 8.46391
7166 2355 5 -0.35 7.85583 4.79411 9.35272
7167 2355 6 0.7 8.40237 4.96304 8.34358
7168 2355 5 -0.35 8.94891 5.13196 7.33445
7172 2357 5 -0.35 13.8745 15.8728 4.64293
7173 2357 6 0.7 14.4099 15.4899 3.68775
7174 2357 5 -0.35 14.9452 15.107 2.73258
7190 2363 5 -0.35 28.1914 14.2677 5.47007
7191 2363 6 0.7 10.4546 14.3095 4.43863
7192 2363 5 -0.35 10.9837 14.3513 3.40719
7193 2364 5 -0.35 12.6206 1.4206 1.28412
7194 2364 6 0.7 13.2896 0.853897 0.524569
7195 2364 5 -0.35 23.0916 5.56013 14.6791
7196 2365 5 -0.35 19.3363 5.55703 6.43312
7197 2365 6 0.7 19.2068 5.81021 7.55772
7198 2365 5 -0.35 19.0773 6.06339 8.68232
ITEM: TIMESTEP
28000
ITEM: NUMBER OF ATOMS
124
ITEM: BOX BOUNDS xy xz yz pp pp pp
0.0000000000000000e+00 3.6531964750000000e+01 9.1329911900000003e+00
0.0000000000000000e+00 2.1091739680000000e+01 9.1329911900000003e+00
0.0000000000000000e+00 1.4914112149999999e+01 5.2729349200000000e+00
ITEM: ATOMS id mol type q x y z
1 1 1 1.10383 27.399 17.6496 10.5383
2 1 1 1.10383 9.13299 3.44217 4.3758
3 1 1 1.10383 27.399 15.8188 13.1274
4 1 1 1.10383 9.13299 5.27293 1.78671
5 1 1 1.10383 25.8135 14.9034 10.5383
6 1 1 1.10383 10.7185 6.18832 4.3758
7 1 1 1.10383 28.9845 14.9034 10.5383
8 1 1 1.10383 7.5475 6.18832 4.3758
9 1 2 0.115889 18.266 5.48596 12.6084
10 1 2 0.115889 18.266 15.6058 2.30572
11 1 2 0.115888 18.266 13.716 0.969417
12 1 2 0.115888 18.266 7.37578 13.9447
13 1 2 0.11589 25.3934 11.4908 8.12521
14 1 2 0.11589 11.1386 9.60096 6.7889
15 1 2 0.115888 11.1386 11.4908 8.12521
16 1 2 0.115888 25.3934 9.60096 6.7889
17 1 2 0.115889 15.5206 8.96083 0.969417
18 1 2 0.115889 21.0114 12.1309 13.9447
19 1 2 0.115888 22.648 13.0758 12.6084
20 1 2 0.115888 13.884 8.01592 2.30572
21 1 2 0.115889 21.0114 3.90092 8.12521
22 1 2 0.115889 15.5206 17.1908 6.7889
23 1 2 0.115887 13.884 16.2459 8.12521
24 1 2 0.115887 22.648 4.84583 6.7889
25 1 2 0.115889 22.648 16.2459 8.12521
26 1 2 0.115889 13.884 4.84583 6.7889
27 1 2 0.115887 15.5206 3.90092 8.12521
28 1 2 0.115887 21.0114 17.1908 6.7889
29 1 2 0.115889 21.0114 8.96083 0.969417
30 1 2 0.115889 15.5206 12.1309 13.9447
31 1 2 0.115887 13.884 13.0758 12.6084
32 1 2 0.115887 22.648 8.01592 2.30572
33 1 3 0.671939 27.399 18.7442 13.2542
34 1 3 0.671939 9.13299 2.34751 1.65994
35 1 3 0.671939 27.399 12.8934 9.117
36 1 3 0.671939 9.13299 8.19836 5.79712
37 1 3 0.67194 24.8655 14.3561 13.2542
38 1 3 0.67194 11.6665 6.73565 1.65994
39 1 3 0.67194 29.9325 17.2815 9.117
40 1 3 0.67194 6.5995 3.81022 5.79712
41 1 3 0.67194 24.8655 17.2815 9.117
42 1 3 0.67194 11.6665 3.81022 5.79712
43 1 3 0.67194 29.9325 14.3561 13.2542
44 1 3 0.67194 6.5995 6.73565 1.65994
45 1 3 -0.11508 27.399 19.957 14.1117
46 1 3 -0.11508 9.13299 1.13474 0.802379
47 1 3 -0.11508 27.399 11.6806 8.25944
48 1 3 -0.11508 9.13299 9.41113 6.65468
49 1 3 -0.11508 23.8152 13.7497 14.1117
50 1 3 -0.11508 12.7168 7.34203 0.802379
51 1 3 -0.11508 30.9828 17.8879 8.25944
52 1 3 -0.11508 5.54921 3.20384 6.65468
53 1 3 -0.11508 23.8152 17.8879 8.25944
54 1 3 -0.11508 12.7168 3.20384 6.65468
55 1 3 -0.11508 30.9828 13.7497 14.1117
56 1 3 -0.11508 5.54921 7.34203 0.802379
57 1 3 -0.0559 18.266 5.39949 13.5316
58 1 3 -0.0559 18.266 15.6923 1.38254
59 1 3 -0.055903 18.266 14.5575 0.580159
60 1 3 -0.055903 18.266 6.53422 14.334
61 1 3 -0.0559 26.1971 11.1132 7.85825
62 1 3 -0.0559 10.3349 9.9785 7.05587
63 1 3 -0.055903 10.3349 11.1132 7.85825
64 1 3 -0.055903 26.1971 9.9785 7.05587
65 1 3 -0.0559 14.7918 8.54005 0.580159
66 1 3 -0.0559 21.7402 12.5517 14.334
67 1 3 -0.055903 22.7229 13.1191 13.5316
68 1 3 -0.055903 13.8091 7.97268 1.38254
69 1 3 -0.0559 21.7402 3.39366 7.85825
70 1 3 -0.0559 14.7918 17.6981 7.05587
71 1 3 -0.055903 13.8091 17.1307 7.85825
72 1 3 -0.055903 22.7229 3.96103 7.05587
73 1 3 -0.055901 22.7229 17.1307 7.85825
74 1 3 -0.055901 13.8091 3.96103 7.05587
75 1 3 -0.055903 14.7918 3.39366 7.85825
76 1 3 -0.055903 21.7402 17.6981 7.05587
77 1 3 -0.0559 21.7402 8.54005 0.580159
78 1 3 -0.0559 14.7918 12.5517 14.334
79 1 3 -0.055903 13.8091 13.1191 13.5316
80 1 3 -0.055903 22.7229 7.97268 1.38254
81 1 4 -1.26215 27.399 15.8188 11.1856
82 1 4 -1.26215 9.13299 5.27293 3.72853
83 1 4 -0.60118 27.399 18.9383 11.9641
84 1 4 -0.60118 9.13299 2.15347 2.95001
85 1 4 -0.601179 27.399 17.5926 13.8671
86 1 4 -0.601179 9.13299 3.49912 1.04697
87 1 4 -0.601179 26.2336 13.3722 9.45555
88 1 4 -0.601179 10.2984 7.71958 5.45857
89 1 4 -0.60118 28.5643 13.3722 9.45555
90 1 4 -0.60118 7.96762 7.71958 5.45857
91 1 4 -0.60118 25.8628 14.9319 13.8671
92 1 4 -0.60118 10.6692 6.15984 1.04697
93 1 4 -0.601179 24.6974 14.2591 11.9641
94 1 4 -0.601179 11.8345 6.83267 2.95001
95 1 4 -0.60118 28.9351 18.0514 9.45555
96 1 4 -0.60118 7.59682 3.04037 5.45857
97 1 4 -0.601179 30.1005 16.0329 9.45555
98 1 4 -0.601179 6.43145 5.05885 5.45857
99 1 4 -0.601179 24.6974 16.0329 9.45555
100 1 4 -0.601179 11.8345 5.05885 5.45857
101 1 4 -0.60118 25.8628 18.0514 9.45555
102 1 4 -0.60118 10.6692 3.04037 5.45857
103 1 4 -0.60118 28.9351 14.9319 13.8671
104 1 4 -0.60118 7.59682 6.15984 1.04697
105 1 4 -0.60118 30.1005 14.2591 11.9641
106 1 4 -0.60118 6.43145 6.83267 2.95001
8780 2893 5 -0.35 20.7889 16.793 12.2225
8781 2893 6 0.7 20.6001 15.6485 12.2273
8782 2893 5 -0.35 20.4112 14.504 12.232
8801 2900 5 -0.35 21.2076 8.58856 14.2116
8802 2900 6 0.7 21.3105 8.57209 13.0562
8803 2900 5 -0.35 21.4134 8.55562 11.9009
8807 2902 5 -0.35 21.0933 14.5178 2.59379
8808 2902 6 0.7 21.3281 14.5991 1.46071
8809 2902 5 -0.35 21.5629 14.6804 0.32764
8813 2904 5 -0.35 22.268 14.1284 10.2504
8814 2904 6 0.7 22.7301 13.7912 9.24131
8815 2904 5 -0.35 23.1922 13.4539 8.2322
8816 2905 5 -0.35 17.7018 13.3219 11.4804
8817 2905 6 0.7 18.5893 12.6721 11.1118
8818 2905 5 -0.35 19.4767 12.0224 10.7432
8819 2906 5 -0.35 23.7963 12.5486 0.883257
8820 2906 6 0.7 33.3416 17.9278 14.7183
8821 2906 5 -0.35 33.754 18.0341 13.6393
ITEM: TIMESTEP
29000
ITEM: NUMBER OF ATOMS
142
ITEM: BOX BOUNDS xy xz yz pp pp pp
0.0000000000000000e+00 3.6531964750000000e+01 9.1329911900000003e+00
0.0000000000000000e+00 2.1091739680000000e+01 9.1329911900000003e+00
0.0000000000000000e+00 1.4914112149999999e+01 5.2729349200000000e+00
ITEM: ATOMS id mol type q x y z
1 1 1 1.10383 27.399 17.6496 10.5383
2 1 1 1.10383 9.13299 3.44217 4.3758
3 1 1 1.10383 27.399 15.8188 13.1274
4 1 1 1.10383 9.13299 5.27293 1.78671
5 1 1 1.10383 25.8135 14.9034 10.5383
6 1 1 1.10383 10.7185 6.18832 4.3758
7 1 1 1.10383 28.9845 14.9034 10.5383
8 1 1 1.10383 7.5475 6.18832 4.3758
9 1 2 0.115889 18.266 5.48596 12.6084
10 1 2 0.115889 18.266 15.6058 2.30572
11 1 2 0.115888 18.266 13.716 0.969417
12 1 2 0.115888 18.266 7.37578 13.9447
13 1 2 0.11589 25.3934 11.4908 8.12521
14 1 2 0.11589 11.1386 9.60096 6.7889
15 1 2 0.115888 11.1386 11.4908 8.12521
16 1 2 0.115888 25.3934 9.60096 6.7889
17 1 2 0.115889 15.5206 8.96083 0.969417
18 1 2 0.115889 21.0114 12.1309 13.9447
19 1 2 0.115888 22.648 13.0758 12.6084
20 1 2 0.115888 13.884 8.01592 2.30572
21 1 2 0.115889 21.0114 3.90092 8.12521
22 1 2 0.115889 15.5206 17.1908 6.7889
23 1 2 0.115887 13.884 16.2459 8.12521
24 1 2 0.115887 22.648 4.84583 6.7889
25 1 2 0.115889 22.648 16.2459 8.12521
26 1 2 0.115889 13.884 4.84583 6.7889
27 1 2 0.115887 15.5206 3.90092 8.12521
28 1 2 0.115887 21.0114 17.1908 6.7889
29 1 2 0.115889 21.0114 8.96083 0.969417
30 1 2 0.115889 15.5206 12.1309 13.9447
31 1 2 0.115887 13.884 13.0758 12.6084
32 1 2 0.115887 22.648 8.01592 2.30572
33 1 3 0.671939 27.399 18.7442 13.2542
34 1 3 0.671939 9.13299 2.34751 1.65994
35 1 3 0.671939 27.399 12.8934 9.117
36 1 3 0.671939 9.13299 8.19836 5.79712
37 1 3 0.67194 24.8655 14.3561 13.2542
38 1 3 0.67194 11.6665 6.73565 1.65994
39 1 3 0.67194 29.9325 17.2815 9.117
40 1 3 0.67194 6.5995 3.81022 5.79712
41 1 3 0.67194 24.8655 17.2815 9.117
42 1 3 0.67194 11.6665 3.81022 5.79712
43 1 3 0.67194 29.9325 14.3561 13.2542
44 1 3 0.67194 6.5995 6.73565 1.65994
45 1 3 -0.11508 27.399 19.957 14.1117
46 1 3 -0.11508 9.13299 1.13474 0.802379
47 1 3 -0.11508 27.399 11.6806 8.25944
48 1 3 -0.11508 9.13299 9.41113 6.65468
49 1 3 -0.11508 23.8152 13.7497 14.1117
50 1 3 -0.11508 12.7168 7.34203 0.802379
51 1 3 -0.11508 30.9828 17.8879 8.25944
52 1 3 -0.11508 5.54921 3.20384 6.65468
53 1 3 -0.11508 23.8152 17.8879 8.25944
54 1 3 -0.11508 12.7168 3.20384 6.65468
55 1 3 -0.11508 30.9828 13.7497 14.1117
56 1 3 -0.11508 5.54921 7.34203 0.802379
57 1 3 -0.0559 18.266 5.39949 13.5316
58 1 3 -0.0559 18.266 15.6923 1.38254
59 1 3 -0.055903 18.266 14.5575 0.580159
60 1 3 -0.055903 18.266 6.53422 14.334
61 1 3 -0.0559 26.1971 11.1132 7.85825
62 1 3 -0.0559 10.3349 9.9785 7.05587
63 1 3 -0.055903 10.3349 11.1132 7.85825
64 1 3 -0.055903 26.1971 9.9785 7.05587
65 1 3 -0.0559 14.7918 8.54005 0.580159
66 1 3 -0.0559 21.7402 12.5517 14.334
67 1 3 -0.055903 22.7229 13.1191 13.5316
68 1 3 -0.055903 13.8091 7.97268 1.38254
69 1 3 -0.0559 21.7402 3.39366 7.85825
70 1 3 -0.0559 14.7918 17.6981 7.05587
71 1 3 -0.055903 13.8091 17.1307 7.85825
72 1 3 -0.055903 22.7229 3.96103 7.05587
73 1 3 -0.055901 22.7229 17.1307 7.85825
74 1 3 -0.055901 13.8091 3.96103 7.05587
75 1 3 -0.055903 14.7918 3.39366 7.85825
76 1 3 -0.055903 21.7402 17.6981 7.05587
77 1 3 -0.0559 21.7402 8.54005 0.580159
78 1 3 -0.0559 14.7918 12.5517 14.334
79 1 3 -0.055903 13.8091 13.1191 13.5316
80 1 3 -0.055903 22.7229 7.97268 1.38254
81 1 4 -1.26215 27.399 15.8188 11.1856
82 1 4 -1.26215 9.13299 5.27293 3.72853
83 1 4 -0.60118 27.399 18.9383 11.9641
84 1 4 -0.60118 9.13299 2.15347 2.95001
85 1 4 -0.601179 27.399 17.5926 13.8671
86 1 4 -0.601179 9.13299 3.49912 1.04697
87 1 4 -0.601179 26.2336 13.3722 9.45555
88 1 4 -0.601179 10.2984 7.71958 5.45857
89 1 4 -0.60118 28.5643 13.3722 9.45555
90 1 4 -0.60118 7.96762 7.71958 5.45857
91 1 4 -0.60118 25.8628 14.9319 13.8671
92 1 4 -0.60118 10.6692 6.15984 1.04697
93 1 4 -0.601179 24.6974 14.2591 11.9641
94 1 4 -0.601179 11.8345 6.83267 2.95001
95 1 4 -0.60118 28.9351 18.0514 9.45555
96 1 4 -0.60118 7.59682 3.04037 5.45857
97 1 4 -0.601179 30.1005 16.0329 9.45555
98 1 4 -0.601179 6.43145 5.05885 5.45857
99 1 4 -0.601179 24.6974 16.0329 9.45555
100 1 4 -0.601179 11.8345 5.05885 5.45857
101 1 4 -0.60118 25.8628 18.0514 9.45555
102 1 4 -0.60118 10.6692 3.04037 5.45857
103 1 4 -0.60118 28.9351 14.9319 13.8671
104 1 4 -0.60118 7.59682 6.15984 1.04697
105 1 4 -0.60118 30.1005 14.2591 11.9641
106 1 4 -0.60118 6.43145 6.83267 2.95001
10265 3388 5 -0.35 27.7401 15.8969 7.52529
10266 3388 6 0.7 27.8393 16.748 6.74335
10267 3388 5 -0.35 27.9384 17.599 5.9614
10268 3389 5 -0.35 12.4993 1.83658 0.799691
10269 3389 6 0.7 21.4634 7.18644 14.5688
10270 3389 5 -0.35 21.2944 7.26336 13.4237
10289 3396 5 -0.35 12.782 9.95052 14.6469
10290 3396 6 0.7 12.132 10.252 13.7346
10291 3396 5 -0.35 11.4821 10.5536 12.8223
10331 3410 5 -0.35 14.8805 3.6287 4.23341
10332 3410 6 0.7 15.555 2.9703 3.55722
10333 3410 5 -0.35 16.2294 2.31189 2.88103
10337 3412 5 -0.35 3.68333 3.30695 3.72828
10338 3412 6 0.7 4.67365 3.6056 3.20324
10339 3412 5 -0.35 5.66397 3.90425 2.6782
10355 3418 5 -0.35 30.865 20.1739 13.9606
10356 3418 6 0.7 30.8393 19.5531 12.981
10357 3418 5 -0.35 30.8137 18.9323 12.0015
10364 3421 5 -0.35 27.0671 9.56961 12.0207
10365 3421 6 0.7 26.9224 10.6426 12.437
10366 3421 5 -0.35 26.7777 11.7156 12.8532
10376 3425 5 -0.35 18.8652 4.31305 3.36603
10377 3425 6 0.7 18.6316 4.5605 2.25705
10378 3425 5 -0.35 18.3981 4.80795 1.14808
10400 3433 5 -0.35 12.6848 6.66633 13.2391
10401 3433 6 0.7 13.1186 5.91719 14.0112
10402 3433 5 -0.35 22.6855 20.9869 14.7833
10406 3435 5 -0.35 26.185 12.698 4.93805
10407 3435 6 0.7 27.2803 12.9961 5.17683
10408 3435 5 -0.35 10.1096 13.2942 5.4156
10409 3436 5 -0.35 20.3387 15.4862 12.83
10410 3436 6 0.7 20.3059 16.274 11.9792
10411 3436 5 -0.35 20.273 17.0618 11.1284
10412 3437 5 -0.35 16.4863 15.88 12.3658
10413 3437 6 0.7 16.1239 15.0348 11.6587
10414 3437 5 -0.35 15.7616 14.1896 10.9516
ITEM: TIMESTEP
30000
ITEM: NUMBER OF ATOMS
139
ITEM: BOX BOUNDS xy xz yz pp pp pp
0.0000000000000000e+00 3.6531964750000000e+01 9.1329911900000003e+00
0.0000000000000000e+00 2.1091739680000000e+01 9.1329911900000003e+00
0.0000000000000000e+00 1.4914112149999999e+01 5.2729349200000000e+00
ITEM: ATOMS id mol type q x y z
1 1 1 1.10383 27.399 17.6496 10.5383
2 1 1 1.10383 9.13299 3.44217 4.3758
3 1 1 1.10383 27.399 15.8188 13.1274
4 1 1 1.10383 9.13299 5.27293 1.78671
5 1 1 1.10383 25.8135 14.9034 10.5383
6 1 1 1.10383 10.7185 6.18832 4.3758
7 1 1 1.10383 28.9845 14.9034 10.5383
8 1 1 1.10383 7.5475 6.18832 4.3758
9 1 2 0.115889 18.266 5.48596 12.6084
10 1 2 0.115889 18.266 15.6058 2.30572
11 1 2 0.115888 18.266 13.716 0.969417
12 1 2 0.115888 18.266 7.37578 13.9447
13 1 2 0.11589 25.3934 11.4908 8.12521
14 1 2 0.11589 11.1386 9.60096 6.7889
15 1 2 0.115888 11.1386 11.4908 8.12521
16 1 2 0.115888 25.3934 9.60096 6.7889
17 1 2 0.115889 15.5206 8.96083 0.969417
18 1 2 0.115889 21.0114 12.1309 13.9447
19 1 2 0.115888 22.648 13.0758 12.6084
20 1 2 0.115888 13.884 8.01592 2.30572
21 1 2 0.115889 21.0114 3.90092 8.12521
22 1 2 0.115889 15.5206 17.1908 6.7889
23 1 2 0.115887 13.884 16.2459 8.12521
24 1 2 0.115887 22.648 4.84583 6.7889
25 1 2 0.115889 22.648 16.2459 8.12521
26 1 2 0.115889 13.884 4.84583 6.7889
27 1 2 0.115887 15.5206 3.90092 8.12521
28 1 2 0.115887 21.0114 17.1908 6.7889
29 1 2 0.115889 21.0114 8.96083 0.969417
30 1 2 0.115889 15.5206 12.1309 13.9447
31 1 2 0.115887 13.884 13.0758 12.6084
32 1 2 0.115887 22.648 8.01592 2.30572
33 1 3 0.671939 27.399 18.7442 13.2542
34 1 3 0.671939 9.13299 2.34751 1.65994
35 1 3 0.671939 27.399 12.8934 9.117
36 1 3 0.671939 9.13299 8.19836 5.79712
37 1 3 0.67194 24.8655 14.3561 13.2542
38 1 3 0.67194 11.6665 6.73565 1.65994
39 1 3 0.67194 29.9325 17.2815 9.117
40 1 3 0.67194 6.5995 3.81022 5.79712
41 1 3 0.67194 24.8655 17.2815 9.117
42 1 3 0.67194 11.6665 3.81022 5.79712
43 1 3 0.67194 29.9325 14.3561 13.2542
44 1 3 0.67194 6.5995 6.73565 1.65994
45 1 3 -0.11508 27.399 19.957 14.1117
46 1 3 -0.11508 9.13299 1.13474 0.802379
47 1 3 -0.11508 27.399 11.6806 8.25944
48 1 3 -0.11508 9.13299 9.41113 6.65468
49 1 3 -0.11508 23.8152 13.7497 14.1117
50 1 3 -0.11508 12.7168 7.34203 0.802379
51 1 3 -0.11508 30.9828 17.8879 8.25944
52 1 3 -0.11508 5.54921 3.20384 6.65468
53 1 3 -0.11508 23.8152 17.8879 8.25944
54 1 3 -0.11508 12.7168 3.20384 6.65468
55 1 3 -0.11508 30.9828 13.7497 14.1117
56 1 3 -0.11508 5.54921 7.34203 0.802379
57 1 3 -0.0559 18.266 5.39949 13.5316
58 1 3 -0.0559 18.266 15.6923 1.38254
59 1 3 -0.055903 18.266 14.5575 0.580159
60 1 3 -0.055903 18.266 6.53422 14.334
61 1 3 -0.0559 26.1971 11.1132 7.85825
62 1 3 -0.0559 10.3349 9.9785 7.05587
63 1 3 -0.055903 10.3349 11.1132 7.85825
64 1 3 -0.055903 26.1971 9.9785 7.05587
65 1 3 -0.0559 14.7918 8.54005 0.580159
66 1 3 -0.0559 21.7402 12.5517 14.334
67 1 3 -0.055903 22.7229 13.1191 13.5316
68 1 3 -0.055903 13.8091 7.97268 1.38254
69 1 3 -0.0559 21.7402 3.39366 7.85825
70 1 3 -0.0559 14.7918 17.6981 7.05587
71 1 3 -0.055903 13.8091 17.1307 7.85825
72 1 3 -0.055903 22.7229 3.96103 7.05587
73 1 3 -0.055901 22.7229 17.1307 7.85825
74 1 3 -0.055901 13.8091 3.96103 7.05587
75 1 3 -0.055903 14.7918 3.39366 7.85825
76 1 3 -0.055903 21.7402 17.6981 7.05587
77 1 3 -0.0559 21.7402 8.54005 0.580159
78 1 3 -0.0559 14.7918 12.5517 14.334
79 1 3 -0.055903 13.8091 13.1191 13.5316
80 1 3 -0.055903 22.7229 7.97268 1.38254
81 1 4 -1.26215 27.399 15.8188 11.1856
82 1 4 -1.26215 9.13299 5.27293 3.72853
83 1 4 -0.60118 27.399 18.9383 11.9641
84 1 4 -0.60118 9.13299 2.15347 2.95001
85 1 4 -0.601179 27.399 17.5926 13.8671
86 1 4 -0.601179 9.13299 3.49912 1.04697
87 1 4 -0.601179 26.2336 13.3722 9.45555
88 1 4 -0.601179 10.2984 7.71958 5.45857
89 1 4 -0.60118 28.5643 13.3722 9.45555
90 1 4 -0.60118 7.96762 7.71958 5.45857
91 1 4 -0.60118 25.8628 14.9319 13.8671
92 1 4 -0.60118 10.6692 6.15984 1.04697
93 1 4 -0.601179 24.6974 14.2591 11.9641
94 1 4 -0.601179 11.8345 6.83267 2.95001
95 1 4 -0.60118 28.9351 18.0514 9.45555
96 1 4 -0.60118 7.59682 3.04037 5.45857
97 1 4 -0.601179 30.1005 16.0329 9.45555
98 1 4 -0.601179 6.43145 5.05885 5.45857
99 1 4 -0.601179 24.6974 16.0329 9.45555
100 1 4 -0.601179 11.8345 5.05885 5.45857
101 1 4 -0.60118 25.8628 18.0514 9.45555
102 1 4 -0.60118 10.6692 3.04037 5.45857
103 1 4 -0.60118 28.9351 14.9319 13.8671
104 1 4 -0.60118 7.59682 6.15984 1.04697
105 1 4 -0.60118 30.1005 14.2591 11.9641
106 1 4 -0.60118 6.43145 6.83267 2.95001
11972 3957 5 -0.35 24.429 17.6592 14.1305
11973 3957 6 0.7 15.5627 12.0173 0.28332
11974 3957 5 -0.35 15.8295 11.6484 1.35025
12005 3968 5 -0.35 26.0126 10.3562 11.0569
12006 3968 6 0.7 25.5851 10.0425 12.0886
12007 3968 5 -0.35 25.1576 9.72891 13.1203
12026 3975 5 -0.35 15.5416 4.28612 11.7784
12027 3975 6 0.7 15.2357 4.63654 12.841
12028 3975 5 -0.35 14.9298 4.98697 13.9037
12059 3986 5 -0.35 18.2148 8.12827 1.86084
12060 3986 6 0.7 18.2097 7.60784 0.824151
12061 3986 5 -0.35 27.3377 12.3603 14.7016
12095 3998 5 -0.35 14.0493 16.2652 3.22188
12096 3998 6 0.7 14.5054 15.4392 2.54711
12097 3998 5 -0.35 14.9615 14.6132 1.87233
12098 3999 5 -0.35 15.7493 2.89444 1.30541
12099 3999 6 0.7 16.2359 3.93612 1.15132
12100 3999 5 -0.35 16.7225 4.97779 0.99724
12107 4002 5 -0.35 7.21668 11.1081 1.21691
12108 4002 6 0.7 7.02801 11.1482 0.0730642
12109 4002 5 -0.35 15.9723 16.4613 13.8433
12110 4003 5 -0.35 18.6659 8.54198 5.51835
12111 4003 6 0.7 19.6915 8.23651 5.07056
12112 4003 5 -0.35 20.717 7.93104 4.62277
12113 4004 5 -0.35 12.0535 7.36934 9.93648
12114 4004 6 0.7 12.1333 6.78338 10.9344
12115 4004 5 -0.35 12.2131 6.19742 11.9324
12116 4005 5 -0.35 25.1002 14.1395 0.451088
12117 4005 6 0.7 34.6451 20.0896 14.5183
12118 4005 5 -0.35 25.924 4.94802 13.6713
12119 4006 5 -0.35 30.7668 19.5826 13.0716
12120 4006 6 0.7 30.7566 19.8768 11.9496
12121 4006 5 -0.35 21.6135 4.35228 10.8275
ITEM: TIMESTEP
31000
ITEM: NUMBER OF ATOMS
136
ITEM: BOX BOUNDS xy xz yz pp pp pp
0.0000000000000000e+00 3.6531964750000000e+01 9.1329911900000003e+00
0.0000000000000000e+00 2.1091739680000000e+01 9.1329911900000003e+00
0.0000000000000000e+00 1.4914112149999999e+01 5.2729349200000000e+00
ITEM: ATOMS id mol type q x y z
1 1 1 1.10383 27.399 17.6496 10.5383
2 1 1 1.10383 9.13299 3.44217 4.3758
3 1 1 1.10383 27.399 15.8188 13.1274
4 1 1 1.10383 9.13299 5.27293 1.78671
5 1 1 1.10383 25.8135 14.9034 10.5383
6 1 1 1.10383 10.7185 6.18832 4.3758
7 1 1 1.10383 28.9845 14.9034 10.5383
8 1 1 1.10383 7.5475 6.18832 4.3758
9 1 2 0.115889 18.266 5.48596 12.6084
10 1 2 0.115889 18.266 15.6058 2.30572
11 1 2 0.115888 18.266 13.716 0.969417
12 1 2 0.115888 18.266 7.37578 13.9447
13 1 2 0.11589 25.3934 11.4908 8.12521
14 1 2 0.11589 11.1386 9.60096 6.7889
15 1 2 0.115888 11.1386 11.4908 8.12521
16 1 2 0.115888 25.3934 9.60096 6.7889
17 1 2 0.115889 15.5206 8.96083 0.969417
18 1 2 0.115889 21.0114 12.1309 13.9447
19 1 2 0.115888 22.648 13.0758 12.6084
20 1 2 0.115888 13.884 8.01592 2.30572
21 1 2 0.115889 21.0114 3.90092 8.12521
22 1 2 0.115889 15.5206 17.1908 6.7889
23 1 2 0.115887 13.884 16.2459 8.12521
24 1 2 0.115887 22.648 4.84583 6.7889
25 1 2 0.115889 22.648 16.2459 8.12521
26 1 2 0.115889 13.884 4.84583 6.7889
27 1 2 0.115887 15.5206 3.90092 8.12521
28 1 2 0.115887 21.0114 17.1908 6.7889
29 1 2 0.115889 21.0114 8.96083 0.969417
30 1 2 0.115889 15.5206 12.1309 13.9447
31 1 2 0.115887 13.884 13.0758 12.6084
32 1 2 0.115887 22.648 8.01592 2.30572
33 1 3 0.671939 27.399 18.7442 13.2542
34 1 3 0.671939 9.13299 2.34751 1.65994
35 1 3 0.671939 27.399 12.8934 9.117
36 1 3 0.671939 9.13299 8.19836 5.79712
37 1 3 0.67194 24.8655 14.3561 13.2542
38 1 3 0.67194 11.6665 6.73565 1.65994
39 1 3 0.67194 29.9325 17.2815 9.117
40 1 3 0.67194 6.5995 3.81022 5.79712
41 1 3 0.67194 24.8655 17.2815 9.117
42 1 3 0.67194 11.6665 3.81022 5.79712
43 1 3 0.67194 29.9325 14.3561 13.2542
44 1 3 0.67194 6.5995 6.73565 1.65994
45 1 3 -0.11508 27.399 19.957 14.1117
46 1 3 -0.11508 9.13299 1.13474 0.802379
47 1 3 -0.11508 27.399 11.6806 8.25944
48 1 3 -0.11508 9.13299 9.41113 6.65468
49 1 3 -0.11508 23.8152 13.7497 14.1117
50 1 3 -0.11508 12.7168 7.34203 0.802379
51 1 3 -0.11508 30.9828 17.8879 8.25944
52 1 3 -0.11508 5.54921 3.20384 6.65468
53 1 3 -0.11508 23.8152 17.8879 8.25944
54 1 3 -0.11508 12.7168 3.20384 6.65468
55 1 3 -0.11508 30.9828 13.7497 14.1117
56 1 3 -0.11508 5.54921 7.34203 0.802379
57 1 3 -0.0559 18.266 5.39949 13.5316
58 1 3 -0.0559 18.266 15.6923 1.38254
59 1 3 -0.055903 18.266 14.5575 0.580159
60 1 3 -0.055903 18.266 6.53422 14.334
61 1 3 -0.0559 26.1971 11.1132 7.85825
62 1 3 -0.0559 10.3349 9.9785 7.05587
63 1 3 -0.055903 10.3349 11.1132 7.85825
64 1 3 -0.055903 26.1971 9.9785 7.05587
65 1 3 -0.0559 14.7918 8.54005 0.580159
66 1 3 -0.0559 21.7402 12.5517 14.334
67 1 3 -0.055903 22.7229 13.1191 13.5316
68 1 3 -0.055903 13.8091 7.97268 1.38254
69 1 3 -0.0559 21.7402 3.39366 7.85825
70 1 3 -0.0559 14.7918 17.6981 7.05587
71 1 3 -0.055903 13.8091 17.1307 7.85825
72 1 3 -0.055903 22.7229 3.96103 7.05587
73 1 3 -0.055901 22.7229 17.1307 7.85825
74 1 3 -0.055901 13.8091 3.96103 7.05587
75 1 3 -0.055903 14.7918 3.39366 7.85825
76 1 3 -0.055903 21.7402 17.6981 7.05587
77 1 3 -0.0559 21.7402 8.54005 0.580159
78 1 3 -0.0559 14.7918 12.5517 14.334
79 1 3 -0.055903 13.8091 13.1191 13.5316
80 1 3 -0.055903 22.7229 7.97268 1.38254
81 1 4 -1.26215 27.399 15.8188 11.1856
82 1 4 -1.26215 9.13299 5.27293 3.72853
83 1 4 -0.60118 27.399 18.9383 11.9641
84 1 4 -0.60118 9.13299 2.15347 2.95001
85 1 4 -0.601179 27.399 17.5926 13.8671
86 1 4 -0.601179 9.13299 3.49912 1.04697
87 1 4 -0.601179 26.2336 13.3722 9.45555
88 1 4 -0.601179 10.2984 7.71958 5.45857
89 1 4 -0.60118 28.5643 13.3722 9.45555
90 1 4 -0.60118 7.96762 7.71958 5.45857
91 1 4 -0.60118 25.8628 14.9319 13.8671
92 1 4 -0.60118 10.6692 6.15984 1.04697
93 1 4 -0.601179 24.6974 14.2591 11.9641
94 1 4 -0.601179 11.8345 6.83267 2.95001
95 1 4 -0.60118 28.9351 18.0514 9.45555
96 1 4 -0.60118 7.59682 3.04037 5.45857
97 1 4 -0.601179 30.1005 16.0329 9.45555
98 1 4 -0.601179 6.43145 5.05885 5.45857
99 1 4 -0.601179 24.6974 16.0329 9.45555
100 1 4 -0.601179 11.8345 5.05885 5.45857
101 1 4 -0.60118 25.8628 18.0514 9.45555
102 1 4 -0.60118 10.6692 3.04037 5.45857
103 1 4 -0.60118 28.9351 14.9319 13.8671
104 1 4 -0.60118 7.59682 6.15984 1.04697
105 1 4 -0.60118 30.1005 14.2591 11.9641
106 1 4 -0.60118 6.43145 6.83267 2.95001
13751 4550 5 -0.35 4.37814 3.19671 0.934455
13752 4550 6 0.7 5.31693 3.01199 1.5903
13753 4550 5 -0.35 6.25573 2.82727 2.24615
13799 4566 5 -0.35 22.7304 14.9546 0.152155
13800 4566 6 0.7 22.1979 5.25243 14.4745
13801 4566 5 -0.35 21.6653 6.09613 13.8828
13802 4567 5 -0.35 13.287 10.0917 8.8595
13803 4567 6 0.7 12.4906 9.35995 9.27892
13804 4567 5 -0.35 11.6943 8.62815 9.69834
13805 4568 5 -0.35 10.9422 5.2127 11.9148
13806 4568 6 0.7 11.9834 4.91746 11.4974
13807 4568 5 -0.35 13.0247 4.62222 11.08
13808 4569 5 -0.35 15.4192 11.3168 6.76273
13809 4569 6 0.7 16.3762 11.8223 7.18008
13810 4569 5 -0.35 17.3332 12.3279 7.59743
13811 4570 5 -0.35 25.7395 8.9864 10.8606
13812 4570 6 0.7 24.8162 9.10382 10.1683
13813 4570 5 -0.35 23.8929 9.22123 9.47597
13814 4571 5 -0.35 15.5713 7.70154 8.06027
13815 4571 6 0.7 16.2149 7.99623 7.14126
13816 4571 5 -0.35 16.8585 8.29092 6.22226
13817 4572 5 -0.35 21.0801 7.35567 5.25794
13818 4572 6 0.7 20.8561 8.19729 6.02418
13819 4572 5 -0.35 20.6322 9.0389 6.79043
13820 4573 5 -0.35 17.3446 4.6486 0.890367
13821 4573 6 0.7 18.3083 4.91225 0.301078
13822 4573 5 -0.35 28.4051 10.4488 14.6259
13823 4574 5 -0.35 19.8424 14.8432 12.5462
13824 4574 6 0.7 18.7891 15.0721 12.1175
13825 4574 5 -0.35 17.7358 15.301 11.6889
ITEM: TIMESTEP
32000
ITEM: NUMBER OF ATOMS
154
ITEM: BOX BOUNDS xy xz yz pp pp pp
0.0000000000000000e+00 3.6531964750000000e+01 9.1329911900000003e+00
0.0000000000000000e+00 2.1091739680000000e+01 9.1329911900000003e+00
0.0000000000000000e+00 1.4914112149999999e+01 5.2729349200000000e+00
ITEM: ATOMS id mol type q x y z
1 1 1 1.10383 27.399 17.6496 10.5383
2 1 1 1.10383 9.13299 3.44217 4.3758
3 1 1 1.10383 27.399 15.8188 13.1274
4 1 1 1.10383 9.13299 5.27293 1.78671
5 1 1 1.10383 25.8135 14.9034 10.5383
6 1 1 1.10383 10.7185 6.18832 4.3758
7 1 1 1.10383 28.9845 14.9034 10.5383
8 1 1 1.10383 7.5475 6.18832 4.3758
9 1 2 0.115889 18.266 5.48596 12.6084
10 1 2 0.115889 18.266 15.6058 2.30572
11 1 2 0.115888 18.266 13.716 0.969417
12 1 2 0.115888 18.266 7.37578 13.9447
13 1 2 0.11589 25.3934 11.4908 8.12521
14 1 2 0.11589 11.1386 9.60096 6.7889
15 1 2 0.115888 11.1386 11.4908 8.12521
16 1 2 0.115888 25.3934 9.60096 6.7889
17 1 2 0.115889 15.5206 8.96083 0.969417
18 1 2 0.115889 21.0114 12.1309 13.9447
19 1 2 0.115888 22.648 13.0758 12.6084
20 1 2 0.115888 13.884 8.01592 2.30572
21 1 2 0.115889 21.0114 3.90092 8.12521
22 1 2 0.115889 15.5206 17.1908 6.7889
23 1 2 0.115887 13.884 16.2459 8.12521
24 1 2 0.115887 22.648 4.84583 6.7889
25 1 2 0.115889 22.648 16.2459 8.12521
26 1 2 0.115889 13.884 4.84583 6.7889
27 1 2 0.115887 15.5206 3.90092 8.12521
28 1 2 0.115887 21.0114 17.1908 6.7889
29 1 2 0.115889 21.0114 8.96083 0.969417
30 1 2 0.115889 15.5206 12.1309 13.9447
31 1 2 0.115887 13.884 13.0758 12.6084
32 1 2 0.115887 22.648 8.01592 2.30572
33 1 3 0.671939 27.399 18.7442 13.2542
34 1 3 0.671939 9.13299 2.34751 1.65994
35 1 3 0.671939 27.399 12.8934 9.117
36 1 3 0.671939 9.13299 8.19836 5.79712
37 1 3 0.67194 24.8655 14.3561 13.2542
38 1 3 0.67194 11.6665 6.73565 1.65994
39 1 3 0.67194 29.9325 17.2815 9.117
40 1 3 0.67194 6.5995 3.81022 5.79712
41 1 3 0.67194 24.8655 17.2815 9.117
42 1 3 0.67194 11.6665 3.81022 5.79712
43 1 3 0.67194 29.9325 14.3561 13.2542
44 1 3 0.67194 6.5995 6.73565 1.65994
45 1 3 -0.11508 27.399 19.957 14.1117
46 1 3 -0.11508 9.13299 1.13474 0.802379
47 1 3 -0.11508 27.399 11.6806 8.25944
48 1 3 -0.11508 9.13299 9.41113 6.65468
49 1 3 -0.11508 23.8152 13.7497 14.1117
50 1 3 -0.11508 12.7168 7.34203 0.802379
51 1 3 -0.11508 30.9828 17.8879 8.25944
52 1 3 -0.11508 5.54921 3.20384 6.65468
53 1 3 -0.11508 23.8152 17.8879 8.25944
54 1 3 -0.11508 12.7168 3.20384 6.65468
55 1 3 -0.11508 30.9828 13.7497 14.1117
56 1 3 -0.11508 5.54921 7.34203 0.802379
57 1 3 -0.0559 18.266 5.39949 13.5316
58 1 3 -0.0559 18.266 15.6923 1.38254
59 1 3 -0.055903 18.266 14.5575 0.580159
60 1 3 -0.055903 18.266 6.53422 14.334
61 1 3 -0.0559 26.1971 11.1132 7.85825
62 1 3 -0.0559 10.3349 9.9785 7.05587
63 1 3 -0.055903 10.3349 11.1132 7.85825
64 1 3 -0.055903 26.1971 9.9785 7.05587
65 1 3 -0.0559 14.7918 8.54005 0.580159
66 1 3 -0.0559 21.7402 12.5517 14.334
67 1 3 -0.055903 22.7229 13.1191 13.5316
68 1 3 -0.055903 13.8091 7.97268 1.38254
69 1 3 -0.0559 21.7402 3.39366 7.85825
70 1 3 -0.0559 14.7918 17.6981 7.05587
71 1 3 -0.055903 13.8091 17.1307 7.85825
72 1 3 -0.055903 22.7229 3.96103 7.05587
73 1 3 -0.055901 22.7229 17.1307 7.85825
74 1 3 -0.055901 13.8091 3.96103 7.05587
75 1 3 -0.055903 14.7918 3.39366 7.85825
76 1 3 -0.055903 21.7402 17.6981 7.05587
77 1 3 -0.0559 21.7402 8.54005 0.580159
78 1 3 -0.0559 14.7918 12.5517 14.334
79 1 3 -0.055903 13.8091 13.1191 13.5316
80 1 3 -0.055903 22.7229 7.97268 1.38254
81 1 4 -1.26215 27.399 15.8188 11.1856
82 1 4 -1.26215 9.13299 5.27293 3.72853
83 1 4 -0.60118 27.399 18.9383 11.9641
84 1 4 -0.60118 9.13299 2.15347 2.95001
85 1 4 -0.601179 27.399 17.5926 13.8671
86 1 4 -0.601179 9.13299 3.49912 1.04697
87 1 4 -0.601179 26.2336 13.3722 9.45555
88 1 4 -0.601179 10.2984 7.71958 5.45857
89 1 4 -0.60118 28.5643 13.3722 9.45555
90 1 4 -0.60118 7.96762 7.71958 5.45857
91 1 4 -0.60118 25.8628 14.9319 13.8671
92 1 4 -0.60118 10.6692 6.15984 1.04697
93 1 4 -0.601179 24.6974 14.2591 11.9641
94 1 4 -0.601179 11.8345 6.83267 2.95001
95 1 4 -0.60118 28.9351 18.0514 9.45555
96 1 4 -0.60118 7.59682 3.04037 5.45857
97 1 4 -0.601179 30.1005 16.0329 9.45555
98 1 4 -0.601179 6.43145 5.05885 5.45857
99 1 4 -0.601179 24.6974 16.0329 9.45555
100 1 4 -0.601179 11.8345 5.05885 5.45857
101 1 4 -0.60118 25.8628 18.0514 9.45555
102 1 4 -0.60118 10.6692 3.04037 5.45857
103 1 4 -0.60118 28.9351 14.9319 13.8671
104 1 4 -0.60118 7.59682 6.15984 1.04697
105 1 4 -0.60118 30.1005 14.2591 11.9641
106 1 4 -0.60118 6.43145 6.83267 2.95001
650 183 5 -0.35 7.21816 9.98801 2.52103
651 183 6 0.7 24.9433 10.7969 1.88949
652 183 5 -0.35 24.4025 11.6057 1.25794
671 190 5 -0.35 31.0289 17.6055 13.6768
672 190 6 0.7 30.7219 17.918 14.7509
673 190 5 -0.35 21.2819 12.9576 0.910892
704 201 5 -0.35 8.71282 8.89415 0.243764
705 201 6 0.7 18.0097 13.4499 14.261
706 201 5 -0.35 18.1736 12.7328 13.3641
770 223 5 -0.35 15.1654 8.45431 14.8035
771 223 6 0.7 15.3595 9.10731 13.8646
772 223 5 -0.35 15.5537 9.76031 12.9257
788 229 5 -0.35 20.173 5.39432 5.47156
789 229 6 0.7 20.632 5.06386 4.45878
790 229 5 -0.35 21.091 4.73341 3.44599
833 244 5 -0.35 20.3874 10.829 5.37663
834 244 6 0.7 20.2823 9.7849 4.88222
835 244 5 -0.35 20.1772 8.74082 4.3878
842 247 5 -0.35 12.0669 9.92881 10.3884
843 247 6 0.7 11.8559 9.88486 11.5282
844 247 5 -0.35 11.6449 9.8409 12.668
848 249 5 -0.35 18.493 9.45618 11.3094
849 249 6 0.7 19.5605 9.8926 11.4348
850 249 5 -0.35 20.6279 10.329 11.5603
863 254 5 -0.35 19.7299 19.2167 11.253
864 254 6 0.7 10.171 3.74899 10.2327
865 254 5 -0.35 9.74521 4.10009 9.21245
869 256 5 -0.35 13.1914 6.06047 10.4849
870 256 6 0.7 12.5848 6.62298 9.67167
871 256 5 -0.35 11.9783 7.18549 8.85846
872 257 5 -0.35 15.7032 8.3909 7.57261
873 257 6 0.7 16.5761 8.83882 6.95362
874 257 5 -0.35 17.4489 9.28674 6.33462
875 258 5 -0.35 20.2759 6.46384 10.6348
876 258 6 0.7 20.5405 6.92711 9.60479
877 258 5 -0.35 20.8052 7.39038 8.57476
878 259 5 -0.35 18.8055 13.5908 6.87255
879 259 6 0.7 18.9913 13.7157 5.73435
880 259 5 -0.35 19.177 13.8405 4.59614
881 260 5 -0.35 20.8013 13.0522 9.55137
882 260 6 0.7 21.2316 13.459 8.55388
883 260 5 -0.35 21.6619 13.8657 7.55639
887 262 5 -0.35 23.1098 18.7137 12.124
888 262 6 0.7 23.7788 18.0494 12.7998
889 262 5 -0.35 24.4478 17.3852 13.4757
890 263 5 -0.35 16.5098 11.7374 3.44571
891 263 6 0.7 17.6238 11.4147 3.42498
892 263 5 -0.35 18.7378 11.092 3.40425
ITEM: TIMESTEP
33000
ITEM: NUMBER OF ATOMS
139
ITEM: BOX BOUNDS xy xz yz pp pp pp
0.0000000000000000e+00 3.6531964750000000e+01 9.1329911900000003e+00
0.0000000000000000e+00 2.1091739680000000e+01 9.1329911900000003e+00
0.0000000000000000e+00 1.4914112149999999e+01 5.2729349200000000e+00
ITEM: ATOMS id mol type q x y z
1 1 1 1.10383 27.399 17.6496 10.5383
2 1 1 1.10383 9.13299 3.44217 4.3758
3 1 1 1.10383 27.399 15.8188 13.1274
4 1 1 1.10383 9.13299 5.27293 1.78671
5 1 1 1.10383 25.8135 14.9034 10.5383
6 1 1 1.10383 10.7185 6.18832 4.3758
7 1 1 1.10383 28.9845 14.9034 10.5383
8 1 1 1.10383 7.5475 6.18832 4.3758
9 1 2 0.115889 18.266 5.48596 12.6084
10 1 2 0.115889 18.266 15.6058 2.30572
11 1 2 0.115888 18.266 13.716 0.969417
12 1 2 0.115888 18.266 7.37578 13.9447
13 1 2 0.11589 25.3934 11.4908 8.12521
14 1 2 0.11589 11.1386 9.60096 6.7889
15 1 2 0.115888 11.1386 11.4908 8.12521
16 1 2 0.115888 25.3934 9.60096 6.7889
17 1 2 0.115889 15.5206 8.96083 0.969417
18 1 2 0.115889 21.0114 12.1309 13.9447
19 1 2 0.115888 22.648 13.0758 12.6084
20 1 2 0.115888 13.884 8.01592 2.30572
21 1 2 0.115889 21.0114 3.90092 8.12521
22 1 2 0.115889 15.5206 17.1908 6.7889
23 1 2 0.115887 13.884 16.2459 8.12521
24 1 2 0.115887 22.648 4.84583 6.7889
25 1 2 0.115889 22.648 16.2459 8.12521
26 1 2 0.115889 13.884 4.84583 6.7889
27 1 2 0.115887 15.5206 3.90092 8.12521
28 1 2 0.115887 21.0114 17.1908 6.7889
29 1 2 0.115889 21.0114 8.96083 0.969417
30 1 2 0.115889 15.5206 12.1309 13.9447
31 1 2 0.115887 13.884 13.0758 12.6084
32 1 2 0.115887 22.648 8.01592 2.30572
33 1 3 0.671939 27.399 18.7442 13.2542
34 1 3 0.671939 9.13299 2.34751 1.65994
35 1 3 0.671939 27.399 12.8934 9.117
36 1 3 0.671939 9.13299 8.19836 5.79712
37 1 3 0.67194 24.8655 14.3561 13.2542
38 1 3 0.67194 11.6665 6.73565 1.65994
39 1 3 0.67194 29.9325 17.2815 9.117
40 1 3 0.67194 6.5995 3.81022 5.79712
41 1 3 0.67194 24.8655 17.2815 9.117
42 1 3 0.67194 11.6665 3.81022 5.79712
43 1 3 0.67194 29.9325 14.3561 13.2542
44 1 3 0.67194 6.5995 6.73565 1.65994
45 1 3 -0.11508 27.399 19.957 14.1117
46 1 3 -0.11508 9.13299 1.13474 0.802379
47 1 3 -0.11508 27.399 11.6806 8.25944
48 1 3 -0.11508 9.13299 9.41113 6.65468
49 1 3 -0.11508 23.8152 13.7497 14.1117
50 1 3 -0.11508 12.7168 7.34203 0.802379
51 1 3 -0.11508 30.9828 17.8879 8.25944
52 1 3 -0.11508 5.54921 3.20384 6.65468
53 1 3 -0.11508 23.8152 17.8879 8.25944
54 1 3 -0.11508 12.7168 3.20384 6.65468
55 1 3 -0.11508 30.9828 13.7497 14.1117
56 1 3 -0.11508 5.54921 7.34203 0.802379
57 1 3 -0.0559 18.266 5.39949 13.5316
58 1 3 -0.0559 18.266 15.6923 1.38254
59 1 3 -0.055903 18.266 14.5575 0.580159
60 1 3 -0.055903 18.266 6.53422 14.334
61 1 3 -0.0559 26.1971 11.1132 7.85825
62 1 3 -0.0559 10.3349 9.9785 7.05587
63 1 3 -0.055903 10.3349 11.1132 7.85825
64 1 3 -0.055903 26.1971 9.9785 7.05587
65 1 3 -0.0559 14.7918 8.54005 0.580159
66 1 3 -0.0559 21.7402 12.5517 14.334
67 1 3 -0.055903 22.7229 13.1191 13.5316
68 1 3 -0.055903 13.8091 7.97268 1.38254
69 1 3 -0.0559 21.7402 3.39366 7.85825
70 1 3 -0.0559 14.7918 17.6981 7.05587
71 1 3 -0.055903 13.8091 17.1307 7.85825
72 1 3 -0.055903 22.7229 3.96103 7.05587
73 1 3 -0.055901 22.7229 17.1307 7.85825
74 1 3 -0.055901 13.8091 3.96103 7.05587
75 1 3 -0.055903 14.7918 3.39366 7.85825
76 1 3 -0.055903 21.7402 17.6981 7.05587
77 1 3 -0.0559 21.7402 8.54005 0.580159
78 1 3 -0.0559 14.7918 12.5517 14.334
79 1 3 -0.055903 13.8091 13.1191 13.5316
80 1 3 -0.055903 22.7229 7.97268 1.38254
81 1 4 -1.26215 27.399 15.8188 11.1856
82 1 4 -1.26215 9.13299 5.27293 3.72853
83 1 4 -0.60118 27.399 18.9383 11.9641
84 1 4 -0.60118 9.13299 2.15347 2.95001
85 1 4 -0.601179 27.399 17.5926 13.8671
86 1 4 -0.601179 9.13299 3.49912 1.04697
87 1 4 -0.601179 26.2336 13.3722 9.45555
88 1 4 -0.601179 10.2984 7.71958 5.45857
89 1 4 -0.60118 28.5643 13.3722 9.45555
90 1 4 -0.60118 7.96762 7.71958 5.45857
91 1 4 -0.60118 25.8628 14.9319 13.8671
92 1 4 -0.60118 10.6692 6.15984 1.04697
93 1 4 -0.601179 24.6974 14.2591 11.9641
94 1 4 -0.601179 11.8345 6.83267 2.95001
95 1 4 -0.60118 28.9351 18.0514 9.45555
96 1 4 -0.60118 7.59682 3.04037 5.45857
97 1 4 -0.601179 30.1005 16.0329 9.45555
98 1 4 -0.601179 6.43145 5.05885 5.45857
99 1 4 -0.601179 24.6974 16.0329 9.45555
100 1 4 -0.601179 11.8345 5.05885 5.45857
101 1 4 -0.60118 25.8628 18.0514 9.45555
102 1 4 -0.60118 10.6692 3.04037 5.45857
103 1 4 -0.60118 28.9351 14.9319 13.8671
104 1 4 -0.60118 7.59682 6.15984 1.04697
105 1 4 -0.60118 30.1005 14.2591 11.9641
106 1 4 -0.60118 6.43145 6.83267 2.95001
2114 671 5 -0.35 20.6768 12.1237 1.75147
2115 671 6 0.7 20.8705 12.4287 0.649164
2116 671 5 -0.35 30.1971 18.0066 14.461
2234 711 5 -0.35 31.5836 17.6991 11.8952
2235 711 6 0.7 31.1027 18.7506 11.8025
2236 711 5 -0.35 30.6217 19.8022 11.7097
2303 734 5 -0.35 10.0588 6.81924 8.70093
2304 734 6 0.7 9.25175 6.02757 8.44119
2305 734 5 -0.35 8.44467 5.2359 8.18145
2333 744 5 -0.35 22.6483 17.7049 14.0078
2334 744 6 0.7 23.5476 17.5815 13.2856
2335 744 5 -0.35 24.4469 17.4581 12.5634
2336 745 5 -0.35 12.9016 14.7849 5.30927
2337 745 6 0.7 11.8389 15.1826 5.55006
2338 745 5 -0.35 29.0421 15.5803 5.79084
2339 746 5 -0.35 23.5629 7.35319 6.68671
2340 746 6 0.7 22.9321 7.64846 5.75907
2341 746 5 -0.35 22.3013 7.94373 4.83142
2342 747 5 -0.35 24.7405 11.761 0.424827
2343 747 6 0.7 15.9314 16.7343 14.2661
2344 747 5 -0.35 16.2553 16.4346 13.1933
2345 748 5 -0.35 21.2728 9.07675 11.262
2346 748 6 0.7 20.6744 10.0695 11.3063
2347 748 5 -0.35 20.076 11.0622 11.3506
2348 749 5 -0.35 13.3313 10.3686 3.38167
2349 749 6 0.7 14.0235 11.0409 2.73788
2350 749 5 -0.35 14.7157 11.7132 2.09409
2351 750 5 -0.35 9.73237 9.44168 2.77116
2352 750 6 0.7 9.00239 10.1157 3.36981
2353 750 5 -0.35 8.27241 10.7898 3.96845
2354 751 5 -0.35 17.8521 7.02093 6.00179
2355 751 6 0.7 17.4168 6.72879 4.96699
2356 751 5 -0.35 16.9816 6.43664 3.9322
ITEM: TIMESTEP
34000
ITEM: NUMBER OF ATOMS
142
ITEM: BOX BOUNDS xy xz yz pp pp pp
0.0000000000000000e+00 3.6531964750000000e+01 9.1329911900000003e+00
0.0000000000000000e+00 2.1091739680000000e+01 9.1329911900000003e+00
0.0000000000000000e+00 1.4914112149999999e+01 5.2729349200000000e+00
ITEM: ATOMS id mol type q x y z
1 1 1 1.10383 27.399 17.6496 10.5383
2 1 1 1.10383 9.13299 3.44217 4.3758
3 1 1 1.10383 27.399 15.8188 13.1274
4 1 1 1.10383 9.13299 5.27293 1.78671
5 1 1 1.10383 25.8135 14.9034 10.5383
6 1 1 1.10383 10.7185 6.18832 4.3758
7 1 1 1.10383 28.9845 14.9034 10.5383
8 1 1 1.10383 7.5475 6.18832 4.3758
9 1 2 0.115889 18.266 5.48596 12.6084
10 1 2 0.115889 18.266 15.6058 2.30572
11 1 2 0.115888 18.266 13.716 0.969417
12 1 2 0.115888 18.266 7.37578 13.9447
13 1 2 0.11589 25.3934 11.4908 8.12521
14 1 2 0.11589 11.1386 9.60096 6.7889
15 1 2 0.115888 11.1386 11.4908 8.12521
16 1 2 0.115888 25.3934 9.60096 6.7889
17 1 2 0.115889 15.5206 8.96083 0.969417
18 1 2 0.115889 21.0114 12.1309 13.9447
19 1 2 0.115888 22.648 13.0758 12.6084
20 1 2 0.115888 13.884 8.01592 2.30572
21 1 2 0.115889 21.0114 3.90092 8.12521
22 1 2 0.115889 15.5206 17.1908 6.7889
23 1 2 0.115887 13.884 16.2459 8.12521
24 1 2 0.115887 22.648 4.84583 6.7889
25 1 2 0.115889 22.648 16.2459 8.12521
26 1 2 0.115889 13.884 4.84583 6.7889
27 1 2 0.115887 15.5206 3.90092 8.12521
28 1 2 0.115887 21.0114 17.1908 6.7889
29 1 2 0.115889 21.0114 8.96083 0.969417
30 1 2 0.115889 15.5206 12.1309 13.9447
31 1 2 0.115887 13.884 13.0758 12.6084
32 1 2 0.115887 22.648 8.01592 2.30572
33 1 3 0.671939 27.399 18.7442 13.2542
34 1 3 0.671939 9.13299 2.34751 1.65994
35 1 3 0.671939 27.399 12.8934 9.117
36 1 3 0.671939 9.13299 8.19836 5.79712
37 1 3 0.67194 24.8655 14.3561 13.2542
38 1 3 0.67194 11.6665 6.73565 1.65994
39 1 3 0.67194 29.9325 17.2815 9.117
40 1 3 0.67194 6.5995 3.81022 5.79712
41 1 3 0.67194 24.8655 17.2815 9.117
42 1 3 0.67194 11.6665 3.81022 5.79712
43 1 3 0.67194 29.9325 14.3561 13.2542
44 1 3 0.67194 6.5995 6.73565 1.65994
45 1 3 -0.11508 27.399 19.957 14.1117
46 1 3 -0.11508 9.13299 1.13474 0.802379
47 1 3 -0.11508 27.399 11.6806 8.25944
48 1 3 -0.11508 9.13299 9.41113 6.65468
49 1 3 -0.11508 23.8152 13.7497 14.1117
50 1 3 -0.11508 12.7168 7.34203 0.802379
51 1 3 -0.11508 30.9828 17.8879 8.25944
52 1 3 -0.11508 5.54921 3.20384 6.65468
53 1 3 -0.11508 23.8152 17.8879 8.25944
54 1 3 -0.11508 12.7168 3.20384 6.65468
55 1 3 -0.11508 30.9828 13.7497 14.1117
56 1 3 -0.11508 5.54921 7.34203 0.802379
57 1 3 -0.0559 18.266 5.39949 13.5316
58 1 3 -0.0559 18.266 15.6923 1.38254
59 1 3 -0.055903 18.266 14.5575 0.580159
60 1 3 -0.055903 18.266 6.53422 14.334
61 1 3 -0.0559 26.1971 11.1132 7.85825
62 1 3 -0.0559 10.3349 9.9785 7.05587
63 1 3 -0.055903 10.3349 11.1132 7.85825
64 1 3 -0.055903 26.1971 9.9785 7.05587
65 1 3 -0.0559 14.7918 8.54005 0.580159
66 1 3 -0.0559 21.7402 12.5517 14.334
67 1 3 -0.055903 22.7229 13.1191 13.5316
68 1 3 -0.055903 13.8091 7.97268 1.38254
69 1 3 -0.0559 21.7402 3.39366 7.85825
70 1 3 -0.0559 14.7918 17.6981 7.05587
71 1 3 -0.055903 13.8091 17.1307 7.85825
72 1 3 -0.055903 22.7229 3.96103 7.05587
73 1 3 -0.055901 22.7229 17.1307 7.85825
74 1 3 -0.055901 13.8091 3.96103 7.05587
75 1 3 -0.055903 14.7918 3.39366 7.85825
76 1 3 -0.055903 21.7402 17.6981 7.05587
77 1 3 -0.0559 21.7402 8.54005 0.580159
78 1 3 -0.0559 14.7918 12.5517 14.334
79 1 3 -0.055903 13.8091 13.1191 13.5316
80 1 3 -0.055903 22.7229 7.97268 1.38254
81 1 4 -1.26215 27.399 15.8188 11.1856
82 1 4 -1.26215 9.13299 5.27293 3.72853
83 1 4 -0.60118 27.399 18.9383 11.9641
84 1 4 -0.60118 9.13299 2.15347 2.95001
85 1 4 -0.601179 27.399 17.5926 13.8671
86 1 4 -0.601179 9.13299 3.49912 1.04697
87 1 4 -0.601179 26.2336 13.3722 9.45555
88 1 4 -0.601179 10.2984 7.71958 5.45857
89 1 4 -0.60118 28.5643 13.3722 9.45555
90 1 4 -0.60118 7.96762 7.71958 5.45857
91 1 4 -0.60118 25.8628 14.9319 13.8671
92 1 4 -0.60118 10.6692 6.15984 1.04697
93 1 4 -0.601179 24.6974 14.2591 11.9641
94 1 4 -0.601179 11.8345 6.83267 2.95001
95 1 4 -0.60118 28.9351 18.0514 9.45555
96 1 4 -0.60118 7.59682 3.04037 5.45857
97 1 4 -0.601179 30.1005 16.0329 9.45555
98 1 4 -0.601179 6.43145 5.05885 5.45857
99 1 4 -0.601179 24.6974 16.0329 9.45555
100 1 4 -0.601179 11.8345 5.05885 5.45857
101 1 4 -0.60118 25.8628 18.0514 9.45555
102 1 4 -0.60118 10.6692 3.04037 5.45857
103 1 4 -0.60118 28.9351 14.9319 13.8671
104 1 4 -0.60118 7.59682 6.15984 1.04697
105 1 4 -0.60118 30.1005 14.2591 11.9641
106 1 4 -0.60118 6.43145 6.83267 2.95001
3197 1032 5 -0.35 18.047 4.54476 7.52382
3198 1032 6 0.7 18.0272 3.43547 7.18517
3199 1032 5 -0.35 27.1403 18.145 6.84652
3395 1098 5 -0.35 14.5748 13.0983 2.23043
3396 1098 6 0.7 14.7816 12.5525 1.22796
3397 1098 5 -0.35 14.9884 12.0067 0.225487
3401 1100 5 -0.35 9.03119 8.98946 1.8228
3402 1100 6 0.7 9.09002 9.18649 0.681173
3403 1100 5 -0.35 18.2818 14.6565 14.4537
3449 1116 5 -0.35 14.4654 10.6118 5.13284
3450 1116 6 0.7 13.7442 10.6437 4.22486
3451 1116 5 -0.35 13.023 10.6757 3.31689
3491 1130 5 -0.35 15.2181 16.0166 3.7548
3492 1130 6 0.7 15.0959 16.5881 2.75278
3493 1130 5 -0.35 5.84066 1.34081 1.75075
3497 1132 5 -0.35 21.2388 2.93374 3.84143
3498 1132 6 0.7 20.7093 3.81719 4.375
3499 1132 5 -0.35 20.1797 4.70064 4.90856
3518 1139 5 -0.35 25.7407 16.3075 4.45304
3519 1139 6 0.7 25.7194 15.8493 5.51848
3520 1139 5 -0.35 25.6982 15.3911 6.58393
3557 1152 5 -0.35 24.176 11.0503 0.864085
3558 1152 6 0.7 23.3147 11.6969 0.433329
3559 1152 5 -0.35 22.4534 12.3436 0.00257163
3560 1153 5 -0.35 8.36179 4.31432 9.56086
3561 1153 6 0.7 17.7331 19.0076 9.70906
3562 1153 5 -0.35 17.9715 17.8821 9.85725
3563 1154 5 -0.35 22.1563 15.9729 2.19816
3564 1154 6 0.7 12.6083 0.735553 1.28425
3565 1154 5 -0.35 12.1932 1.31703 0.370349
3566 1155 5 -0.35 20.9323 14.2757 10.9791
3567 1155 6 0.7 20.4339 14.3664 9.93552
3568 1155 5 -0.35 19.9355 14.457 8.89198
3569 1156 5 -0.35 16.8503 14.9149 7.82924
3570 1156 6 0.7 17.0351 14.5743 6.73589
3571 1156 5 -0.35 17.2198 14.2336 5.64254
ITEM: TIMESTEP
35000
ITEM: NUMBER OF ATOMS
133
ITEM: BOX BOUNDS xy xz yz pp pp pp
0.0000000000000000e+00 3.6531964750000000e+01 9.1329911900000003e+00
0.0000000000000000e+00 2.1091739680000000e+01 9.1329911900000003e+00
0.0000000000000000e+00 1.4914112149999999e+01 5.2729349200000000e+00
ITEM: ATOMS id mol type q x y z
1 1 1 1.10383 27.399 17.6496 10.5383
2 1 1 1.10383 9.13299 3.44217 4.3758
3 1 1 1.10383 27.399 15.8188 13.1274
4 1 1 1.10383 9.13299 5.27293 1.78671
5 1 1 1.10383 25.8135 14.9034 10.5383
6 1 1 1.10383 10.7185 6.18832 4.3758
7 1 1 1.10383 28.9845 14.9034 10.5383
8 1 1 1.10383 7.5475 6.18832 4.3758
9 1 2 0.115889 18.266 5.48596 12.6084
10 1 2 0.115889 18.266 15.6058 2.30572
11 1 2 0.115888 18.266 13.716 0.969417
12 1 2 0.115888 18.266 7.37578 13.9447
13 1 2 0.11589 25.3934 11.4908 8.12521
14 1 2 0.11589 11.1386 9.60096 6.7889
15 1 2 0.115888 11.1386 11.4908 8.12521
16 1 2 0.115888 25.3934 9.60096 6.7889
17 1 2 0.115889 15.5206 8.96083 0.969417
18 1 2 0.115889 21.0114 12.1309 13.9447
19 1 2 0.115888 22.648 13.0758 12.6084
20 1 2 0.115888 13.884 8.01592 2.30572
21 1 2 0.115889 21.0114 3.90092 8.12521
22 1 2 0.115889 15.5206 17.1908 6.7889
23 1 2 0.115887 13.884 16.2459 8.12521
24 1 2 0.115887 22.648 4.84583 6.7889
25 1 2 0.115889 22.648 16.2459 8.12521
26 1 2 0.115889 13.884 4.84583 6.7889
27 1 2 0.115887 15.5206 3.90092 8.12521
28 1 2 0.115887 21.0114 17.1908 6.7889
29 1 2 0.115889 21.0114 8.96083 0.969417
30 1 2 0.115889 15.5206 12.1309 13.9447
31 1 2 0.115887 13.884 13.0758 12.6084
32 1 2 0.115887 22.648 8.01592 2.30572
33 1 3 0.671939 27.399 18.7442 13.2542
34 1 3 0.671939 9.13299 2.34751 1.65994
35 1 3 0.671939 27.399 12.8934 9.117
36 1 3 0.671939 9.13299 8.19836 5.79712
37 1 3 0.67194 24.8655 14.3561 13.2542
38 1 3 0.67194 11.6665 6.73565 1.65994
39 1 3 0.67194 29.9325 17.2815 9.117
40 1 3 0.67194 6.5995 3.81022 5.79712
41 1 3 0.67194 24.8655 17.2815 9.117
42 1 3 0.67194 11.6665 3.81022 5.79712
43 1 3 0.67194 29.9325 14.3561 13.2542
44 1 3 0.67194 6.5995 6.73565 1.65994
45 1 3 -0.11508 27.399 19.957 14.1117
46 1 3 -0.11508 9.13299 1.13474 0.802379
47 1 3 -0.11508 27.399 11.6806 8.25944
48 1 3 -0.11508 9.13299 9.41113 6.65468
49 1 3 -0.11508 23.8152 13.7497 14.1117
50 1 3 -0.11508 12.7168 7.34203 0.802379
51 1 3 -0.11508 30.9828 17.8879 8.25944
52 1 3 -0.11508 5.54921 3.20384 6.65468
53 1 3 -0.11508 23.8152 17.8879 8.25944
54 1 3 -0.11508 12.7168 3.20384 6.65468
55 1 3 -0.11508 30.9828 13.7497 14.1117
56 1 3 -0.11508 5.54921 7.34203 0.802379
57 1 3 -0.0559 18.266 5.39949 13.5316
58 1 3 -0.0559 18.266 15.6923 1.38254
59 1 3 -0.055903 18.266 14.5575 0.580159
60 1 3 -0.055903 18.266 6.53422 14.334
61 1 3 -0.0559 26.1971 11.1132 7.85825
62 1 3 -0.0559 10.3349 9.9785 7.05587
63 1 3 -0.055903 10.3349 11.1132 7.85825
64 1 3 -0.055903 26.1971 9.9785 7.05587
65 1 3 -0.0559 14.7918 8.54005 0.580159
66 1 3 -0.0559 21.7402 12.5517 14.334
67 1 3 -0.055903 22.7229 13.1191 13.5316
68 1 3 -0.055903 13.8091 7.97268 1.38254
69 1 3 -0.0559 21.7402 3.39366 7.85825
70 1 3 -0.0559 14.7918 17.6981 7.05587
71 1 3 -0.055903 13.8091 17.1307 7.85825
72 1 3 -0.055903 22.7229 3.96103 7.05587
73 1 3 -0.055901 22.7229 17.1307 7.85825
74 1 3 -0.055901 13.8091 3.96103 7.05587
75 1 3 -0.055903 14.7918 3.39366 7.85825
76 1 3 -0.055903 21.7402 17.6981 7.05587
77 1 3 -0.0559 21.7402 8.54005 0.580159
78 1 3 -0.0559 14.7918 12.5517 14.334
79 1 3 -0.055903 13.8091 13.1191 13.5316
80 1 3 -0.055903 22.7229 7.97268 1.38254
81 1 4 -1.26215 27.399 15.8188 11.1856
82 1 4 -1.26215 9.13299 5.27293 3.72853
83 1 4 -0.60118 27.399 18.9383 11.9641
84 1 4 -0.60118 9.13299 2.15347 2.95001
85 1 4 -0.601179 27.399 17.5926 13.8671
86 1 4 -0.601179 9.13299 3.49912 1.04697
87 1 4 -0.601179 26.2336 13.3722 9.45555
88 1 4 -0.601179 10.2984 7.71958 5.45857
89 1 4 -0.60118 28.5643 13.3722 9.45555
90 1 4 -0.60118 7.96762 7.71958 5.45857
91 1 4 -0.60118 25.8628 14.9319 13.8671
92 1 4 -0.60118 10.6692 6.15984 1.04697
93 1 4 -0.601179 24.6974 14.2591 11.9641
94 1 4 -0.601179 11.8345 6.83267 2.95001
95 1 4 -0.60118 28.9351 18.0514 9.45555
96 1 4 -0.60118 7.59682 3.04037 5.45857
97 1 4 -0.601179 30.1005 16.0329 9.45555
98 1 4 -0.601179 6.43145 5.05885 5.45857
99 1 4 -0.601179 24.6974 16.0329 9.45555
100 1 4 -0.601179 11.8345 5.05885 5.45857
101 1 4 -0.60118 25.8628 18.0514 9.45555
102 1 4 -0.60118 10.6692 3.04037 5.45857
103 1 4 -0.60118 28.9351 14.9319 13.8671
104 1 4 -0.60118 7.59682 6.15984 1.04697
105 1 4 -0.60118 30.1005 14.2591 11.9641
106 1 4 -0.60118 6.43145 6.83267 2.95001
4832 1577 5 -0.35 30.9329 18.6453 14.6291
4833 1577 6 0.7 31.1306 17.982 13.6982
4834 1577 5 -0.35 31.3283 17.3186 12.7674
4859 1586 5 -0.35 21.5105 5.31189 3.80078
4860 1586 6 0.7 21.2161 5.39088 2.68153
4861 1586 5 -0.35 20.9218 5.46987 1.56227
4877 1592 5 -0.35 6.05882 3.35427 2.5527
4878 1592 6 0.7 6.06999 3.24255 1.39815
4879 1592 5 -0.35 6.08116 3.13083 0.243595
4883 1594 5 -0.35 11.8944 10.0264 3.00828
4884 1594 6 0.7 11.9898 10.2983 1.88465
4885 1594 5 -0.35 12.0853 10.5702 0.761015
4892 1597 5 -0.35 15.6892 15.7198 14.2879
4893 1597 6 0.7 15.6664 15.409 13.1705
4894 1597 5 -0.35 15.6437 15.0982 12.0531
4907 1602 5 -0.35 15.0917 16.0735 4.48469
4908 1602 6 0.7 15.2341 16.1396 3.33536
4909 1602 5 -0.35 15.3765 16.2056 2.18603
4952 1617 5 -0.35 8.6701 12.0711 1.03773
4953 1617 6 0.7 8.71547 11.0395 1.56621
4954 1617 5 -0.35 8.76083 10.0078 2.09469
4961 1620 5 -0.35 12.0502 16.2519 4.59972
4962 1620 6 0.7 29.724 17.1613 5.0094
4963 1620 5 -0.35 19.9988 2.25194 5.41909
4964 1621 5 -0.35 19.9526 6.36523 10.308
4965 1621 6 0.7 19.9857 7.18553 11.1275
4966 1621 5 -0.35 20.0188 8.00583 11.947
ITEM: TIMESTEP
36000
ITEM: NUMBER OF ATOMS
136
ITEM: BOX BOUNDS xy xz yz pp pp pp
0.0000000000000000e+00 3.6531964750000000e+01 9.1329911900000003e+00
0.0000000000000000e+00 2.1091739680000000e+01 9.1329911900000003e+00
0.0000000000000000e+00 1.4914112149999999e+01 5.2729349200000000e+00
ITEM: ATOMS id mol type q x y z
1 1 1 1.10383 27.399 17.6496 10.5383
2 1 1 1.10383 9.13299 3.44217 4.3758
3 1 1 1.10383 27.399 15.8188 13.1274
4 1 1 1.10383 9.13299 5.27293 1.78671
5 1 1 1.10383 25.8135 14.9034 10.5383
6 1 1 1.10383 10.7185 6.18832 4.3758
7 1 1 1.10383 28.9845 14.9034 10.5383
8 1 1 1.10383 7.5475 6.18832 4.3758
9 1 2 0.115889 18.266 5.48596 12.6084
10 1 2 0.115889 18.266 15.6058 2.30572
11 1 2 0.115888 18.266 13.716 0.969417
12 1 2 0.115888 18.266 7.37578 13.9447
13 1 2 0.11589 25.3934 11.4908 8.12521
14 1 2 0.11589 11.1386 9.60096 6.7889
15 1 2 0.115888 11.1386 11.4908 8.12521
16 1 2 0.115888 25.3934 9.60096 6.7889
17 1 2 0.115889 15.5206 8.96083 0.969417
18 1 2 0.115889 21.0114 12.1309 13.9447
19 1 2 0.115888 22.648 13.0758 12.6084
20 1 2 0.115888 13.884 8.01592 2.30572
21 1 2 0.115889 21.0114 3.90092 8.12521
22 1 2 0.115889 15.5206 17.1908 6.7889
23 1 2 0.115887 13.884 16.2459 8.12521
24 1 2 0.115887 22.648 4.84583 6.7889
25 1 2 0.115889 22.648 16.2459 8.12521
26 1 2 0.115889 13.884 4.84583 6.7889
27 1 2 0.115887 15.5206 3.90092 8.12521
28 1 2 0.115887 21.0114 17.1908 6.7889
29 1 2 0.115889 21.0114 8.96083 0.969417
30 1 2 0.115889 15.5206 12.1309 13.9447
31 1 2 0.115887 13.884 13.0758 12.6084
32 1 2 0.115887 22.648 8.01592 2.30572
33 1 3 0.671939 27.399 18.7442 13.2542
34 1 3 0.671939 9.13299 2.34751 1.65994
35 1 3 0.671939 27.399 12.8934 9.117
36 1 3 0.671939 9.13299 8.19836 5.79712
37 1 3 0.67194 24.8655 14.3561 13.2542
38 1 3 0.67194 11.6665 6.73565 1.65994
39 1 3 0.67194 29.9325 17.2815 9.117
40 1 3 0.67194 6.5995 3.81022 5.79712
41 1 3 0.67194 24.8655 17.2815 9.117
42 1 3 0.67194 11.6665 3.81022 5.79712
43 1 3 0.67194 29.9325 14.3561 13.2542
44 1 3 0.67194 6.5995 6.73565 1.65994
45 1 3 -0.11508 27.399 19.957 14.1117
46 1 3 -0.11508 9.13299 1.13474 0.802379
47 1 3 -0.11508 27.399 11.6806 8.25944
48 1 3 -0.11508 9.13299 9.41113 6.65468
49 1 3 -0.11508 23.8152 13.7497 14.1117
50 1 3 -0.11508 12.7168 7.34203 0.802379
51 1 3 -0.11508 30.9828 17.8879 8.25944
52 1 3 -0.11508 5.54921 3.20384 6.65468
53 1 3 -0.11508 23.8152 17.8879 8.25944
54 1 3 -0.11508 12.7168 3.20384 6.65468
55 1 3 -0.11508 30.9828 13.7497 14.1117
56 1 3 -0.11508 5.54921 7.34203 0.802379
57 1 3 -0.0559 18.266 5.39949 13.5316
58 1 3 -0.0559 18.266 15.6923 1.38254
59 1 3 -0.055903 18.266 14.5575 0.580159
60 1 3 -0.055903 18.266 6.53422 14.334
61 1 3 -0.0559 26.1971 11.1132 7.85825
62 1 3 -0.0559 10.3349 9.9785 7.05587
63 1 3 -0.055903 10.3349 11.1132 7.85825
64 1 3 -0.055903 26.1971 9.9785 7.05587
65 1 3 -0.0559 14.7918 8.54005 0.580159
66 1 3 -0.0559 21.7402 12.5517 14.334
67 1 3 -0.055903 22.7229 13.1191 13.5316
68 1 3 -0.055903 13.8091 7.97268 1.38254
69 1 3 -0.0559 21.7402 3.39366 7.85825
70 1 3 -0.0559 14.7918 17.6981 7.05587
71 1 3 -0.055903 13.8091 17.1307 7.85825
72 1 3 -0.055903 22.7229 3.96103 7.05587
73 1 3 -0.055901 22.7229 17.1307 7.85825
74 1 3 -0.055901 13.8091 3.96103 7.05587
75 1 3 -0.055903 14.7918 3.39366 7.85825
76 1 3 -0.055903 21.7402 17.6981 7.05587
77 1 3 -0.0559 21.7402 8.54005 0.580159
78 1 3 -0.0559 14.7918 12.5517 14.334
79 1 3 -0.055903 13.8091 13.1191 13.5316
80 1 3 -0.055903 22.7229 7.97268 1.38254
81 1 4 -1.26215 27.399 15.8188 11.1856
82 1 4 -1.26215 9.13299 5.27293 3.72853
83 1 4 -0.60118 27.399 18.9383 11.9641
84 1 4 -0.60118 9.13299 2.15347 2.95001
85 1 4 -0.601179 27.399 17.5926 13.8671
86 1 4 -0.601179 9.13299 3.49912 1.04697
87 1 4 -0.601179 26.2336 13.3722 9.45555
88 1 4 -0.601179 10.2984 7.71958 5.45857
89 1 4 -0.60118 28.5643 13.3722 9.45555
90 1 4 -0.60118 7.96762 7.71958 5.45857
91 1 4 -0.60118 25.8628 14.9319 13.8671
92 1 4 -0.60118 10.6692 6.15984 1.04697
93 1 4 -0.601179 24.6974 14.2591 11.9641
94 1 4 -0.601179 11.8345 6.83267 2.95001
95 1 4 -0.60118 28.9351 18.0514 9.45555
96 1 4 -0.60118 7.59682 3.04037 5.45857
97 1 4 -0.601179 30.1005 16.0329 9.45555
98 1 4 -0.601179 6.43145 5.05885 5.45857
99 1 4 -0.601179 24.6974 16.0329 9.45555
100 1 4 -0.601179 11.8345 5.05885 5.45857
101 1 4 -0.60118 25.8628 18.0514 9.45555
102 1 4 -0.60118 10.6692 3.04037 5.45857
103 1 4 -0.60118 28.9351 14.9319 13.8671
104 1 4 -0.60118 7.59682 6.15984 1.04697
105 1 4 -0.60118 30.1005 14.2591 11.9641
106 1 4 -0.60118 6.43145 6.83267 2.95001
6302 2067 5 -0.35 21.4004 16.676 13.6199
6303 2067 6 0.7 21.9971 17.0641 14.5358
6304 2067 5 -0.35 13.4608 12.1793 0.537628
6308 2069 5 -0.35 31.2922 19.8473 11.7137
6309 2069 6 0.7 31.2361 18.7132 11.9512
6310 2069 5 -0.35 31.18 17.5792 12.1887
6320 2073 5 -0.35 8.89932 4.65179 8.01249
6321 2073 6 0.7 8.20703 4.73449 8.93958
6322 2073 5 -0.35 7.51474 4.81718 9.86667
6332 2077 5 -0.35 15.0856 6.20535 13.7087
6333 2077 6 0.7 15.035 5.15733 14.2034
6334 2077 5 -0.35 24.1173 19.9281 14.698
6353 2084 5 -0.35 13.6762 4.1057 2.03704
6354 2084 6 0.7 13.3726 4.10796 0.917485
6355 2084 5 -0.35 22.2019 9.38316 14.712
6356 2085 5 -0.35 21.5877 4.01037 3.58537
6357 2085 6 0.7 3.54552 4.13066 2.45353
6358 2085 5 -0.35 3.7693 4.25095 1.3217
6359 2086 5 -0.35 15.8364 13.0571 4.42133
6360 2086 6 0.7 15.2014 12.1127 4.19665
6361 2086 5 -0.35 14.5664 11.1683 3.97197
6365 2088 5 -0.35 26.5228 16.0451 6.76745
6366 2088 6 0.7 25.7722 16.6487 6.12112
6367 2088 5 -0.35 25.0215 17.2524 5.47479
6377 2092 5 -0.35 12.0604 12.3406 5.53022
6378 2092 6 0.7 11.9669 12.2356 4.37878
6379 2092 5 -0.35 11.8735 12.1305 3.22734
6380 2093 5 -0.35 15.5122 10.2054 7.09478
6381 2093 6 0.7 14.8899 9.22981 7.01449
6382 2093 5 -0.35 14.2675 8.25421 6.93419
ITEM: TIMESTEP
37000
ITEM: NUMBER OF ATOMS
127
ITEM: BOX BOUNDS xy xz yz pp pp pp
0.0000000000000000e+00 3.6531964750000000e+01 9.1329911900000003e+00
0.0000000000000000e+00 2.1091739680000000e+01 9.1329911900000003e+00
0.0000000000000000e+00 1.4914112149999999e+01 5.2729349200000000e+00
ITEM: ATOMS id mol type q x y z
1 1 1 1.10383 27.399 17.6496 10.5383
2 1 1 1.10383 9.13299 3.44217 4.3758
3 1 1 1.10383 27.399 15.8188 13.1274
4 1 1 1.10383 9.13299 5.27293 1.78671
5 1 1 1.10383 25.8135 14.9034 10.5383
6 1 1 1.10383 10.7185 6.18832 4.3758
7 1 1 1.10383 28.9845 14.9034 10.5383
8 1 1 1.10383 7.5475 6.18832 4.3758
9 1 2 0.115889 18.266 5.48596 12.6084
10 1 2 0.115889 18.266 15.6058 2.30572
11 1 2 0.115888 18.266 13.716 0.969417
12 1 2 0.115888 18.266 7.37578 13.9447
13 1 2 0.11589 25.3934 11.4908 8.12521
14 1 2 0.11589 11.1386 9.60096 6.7889
15 1 2 0.115888 11.1386 11.4908 8.12521
16 1 2 0.115888 25.3934 9.60096 6.7889
17 1 2 0.115889 15.5206 8.96083 0.969417
18 1 2 0.115889 21.0114 12.1309 13.9447
19 1 2 0.115888 22.648 13.0758 12.6084
20 1 2 0.115888 13.884 8.01592 2.30572
21 1 2 0.115889 21.0114 3.90092 8.12521
22 1 2 0.115889 15.5206 17.1908 6.7889
23 1 2 0.115887 13.884 16.2459 8.12521
24 1 2 0.115887 22.648 4.84583 6.7889
25 1 2 0.115889 22.648 16.2459 8.12521
26 1 2 0.115889 13.884 4.84583 6.7889
27 1 2 0.115887 15.5206 3.90092 8.12521
28 1 2 0.115887 21.0114 17.1908 6.7889
29 1 2 0.115889 21.0114 8.96083 0.969417
30 1 2 0.115889 15.5206 12.1309 13.9447
31 1 2 0.115887 13.884 13.0758 12.6084
32 1 2 0.115887 22.648 8.01592 2.30572
33 1 3 0.671939 27.399 18.7442 13.2542
34 1 3 0.671939 9.13299 2.34751 1.65994
35 1 3 0.671939 27.399 12.8934 9.117
36 1 3 0.671939 9.13299 8.19836 5.79712
37 1 3 0.67194 24.8655 14.3561 13.2542
38 1 3 0.67194 11.6665 6.73565 1.65994
39 1 3 0.67194 29.9325 17.2815 9.117
40 1 3 0.67194 6.5995 3.81022 5.79712
41 1 3 0.67194 24.8655 17.2815 9.117
42 1 3 0.67194 11.6665 3.81022 5.79712
43 1 3 0.67194 29.9325 14.3561 13.2542
44 1 3 0.67194 6.5995 6.73565 1.65994
45 1 3 -0.11508 27.399 19.957 14.1117
46 1 3 -0.11508 9.13299 1.13474 0.802379
47 1 3 -0.11508 27.399 11.6806 8.25944
48 1 3 -0.11508 9.13299 9.41113 6.65468
49 1 3 -0.11508 23.8152 13.7497 14.1117
50 1 3 -0.11508 12.7168 7.34203 0.802379
51 1 3 -0.11508 30.9828 17.8879 8.25944
52 1 3 -0.11508 5.54921 3.20384 6.65468
53 1 3 -0.11508 23.8152 17.8879 8.25944
54 1 3 -0.11508 12.7168 3.20384 6.65468
55 1 3 -0.11508 30.9828 13.7497 14.1117
56 1 3 -0.11508 5.54921 7.34203 0.802379
57 1 3 -0.0559 18.266 5.39949 13.5316
58 1 3 -0.0559 18.266 15.6923 1.38254
59 1 3 -0.055903 18.266 14.5575 0.580159
60 1 3 -0.055903 18.266 6.53422 14.334
61 1 3 -0.0559 26.1971 11.1132 7.85825
62 1 3 -0.0559 10.3349 9.9785 7.05587
63 1 3 -0.055903 10.3349 11.1132 7.85825
64 1 3 -0.055903 26.1971 9.9785 7.05587
65 1 3 -0.0559 14.7918 8.54005 0.580159
66 1 3 -0.0559 21.7402 12.5517 14.334
67 1 3 -0.055903 22.7229 13.1191 13.5316
68 1 3 -0.055903 13.8091 7.97268 1.38254
69 1 3 -0.0559 21.7402 3.39366 7.85825
70 1 3 -0.0559 14.7918 17.6981 7.05587
71 1 3 -0.055903 13.8091 17.1307 7.85825
72 1 3 -0.055903 22.7229 3.96103 7.05587
73 1 3 -0.055901 22.7229 17.1307 7.85825
74 1 3 -0.055901 13.8091 3.96103 7.05587
75 1 3 -0.055903 14.7918 3.39366 7.85825
76 1 3 -0.055903 21.7402 17.6981 7.05587
77 1 3 -0.0559 21.7402 8.54005 0.580159
78 1 3 -0.0559 14.7918 12.5517 14.334
79 1 3 -0.055903 13.8091 13.1191 13.5316
80 1 3 -0.055903 22.7229 7.97268 1.38254
81 1 4 -1.26215 27.399 15.8188 11.1856
82 1 4 -1.26215 9.13299 5.27293 3.72853
83 1 4 -0.60118 27.399 18.9383 11.9641
84 1 4 -0.60118 9.13299 2.15347 2.95001
85 1 4 -0.601179 27.399 17.5926 13.8671
86 1 4 -0.601179 9.13299 3.49912 1.04697
87 1 4 -0.601179 26.2336 13.3722 9.45555
88 1 4 -0.601179 10.2984 7.71958 5.45857
89 1 4 -0.60118 28.5643 13.3722 9.45555
90 1 4 -0.60118 7.96762 7.71958 5.45857
91 1 4 -0.60118 25.8628 14.9319 13.8671
92 1 4 -0.60118 10.6692 6.15984 1.04697
93 1 4 -0.601179 24.6974 14.2591 11.9641
94 1 4 -0.601179 11.8345 6.83267 2.95001
95 1 4 -0.60118 28.9351 18.0514 9.45555
96 1 4 -0.60118 7.59682 3.04037 5.45857
97 1 4 -0.601179 30.1005 16.0329 9.45555
98 1 4 -0.601179 6.43145 5.05885 5.45857
99 1 4 -0.601179 24.6974 16.0329 9.45555
100 1 4 -0.601179 11.8345 5.05885 5.45857
101 1 4 -0.60118 25.8628 18.0514 9.45555
102 1 4 -0.60118 10.6692 3.04037 5.45857
103 1 4 -0.60118 28.9351 14.9319 13.8671
104 1 4 -0.60118 7.59682 6.15984 1.04697
105 1 4 -0.60118 30.1005 14.2591 11.9641
106 1 4 -0.60118 6.43145 6.83267 2.95001
1091 330 5 -0.35 17.8643 13.3425 13.3407
1092 330 6 0.7 18.1756 12.3007 12.9363
1093 330 5 -0.35 18.4868 11.259 12.5319
1100 333 5 -0.35 18.8813 5.04748 1.49586
1101 333 6 0.7 18.9737 5.68879 0.533684
1102 333 5 -0.35 28.1991 11.603 14.4856
1103 334 5 -0.35 17.315 19.0847 13.106
1104 334 6 0.7 17.3725 18.9761 11.9525
1105 334 5 -0.35 17.43 18.8676 10.799
1106 335 5 -0.35 24.3349 11.7918 0.0450559
1107 335 6 0.7 33.0626 17.7924 14.1518
1108 335 5 -0.35 32.6573 18.5201 13.3445
1112 337 5 -0.35 20.8214 6.56163 9.19314
1113 337 6 0.7 19.8128 6.00534 9.33038
1114 337 5 -0.35 18.8042 5.44905 9.46763
1118 339 5 -0.35 14.5295 2.02348 2.84073
1119 339 6 0.7 13.6149 2.73041 2.7441
1120 339 5 -0.35 12.7003 3.43734 2.64747
1121 340 5 -0.35 27.1308 12.7885 5.13671
1122 340 6 0.7 9.54607 13.2014 4.29349
1123 340 5 -0.35 10.2273 13.6143 3.45027
ITEM: TIMESTEP
38000
ITEM: NUMBER OF ATOMS
127
ITEM: BOX BOUNDS xy xz yz pp pp pp
0.0000000000000000e+00 3.6531964750000000e+01 9.1329911900000003e+00
0.0000000000000000e+00 2.1091739680000000e+01 9.1329911900000003e+00
0.0000000000000000e+00 1.4914112149999999e+01 5.2729349200000000e+00
ITEM: ATOMS id mol type q x y z
1 1 1 1.10383 27.399 17.6496 10.5383
2 1 1 1.10383 9.13299 3.44217 4.3758
3 1 1 1.10383 27.399 15.8188 13.1274
4 1 1 1.10383 9.13299 5.27293 1.78671
5 1 1 1.10383 25.8135 14.9034 10.5383
6 1 1 1.10383 10.7185 6.18832 4.3758
7 1 1 1.10383 28.9845 14.9034 10.5383
8 1 1 1.10383 7.5475 6.18832 4.3758
9 1 2 0.115889 18.266 5.48596 12.6084
10 1 2 0.115889 18.266 15.6058 2.30572
11 1 2 0.115888 18.266 13.716 0.969417
12 1 2 0.115888 18.266 7.37578 13.9447
13 1 2 0.11589 25.3934 11.4908 8.12521
14 1 2 0.11589 11.1386 9.60096 6.7889
15 1 2 0.115888 11.1386 11.4908 8.12521
16 1 2 0.115888 25.3934 9.60096 6.7889
17 1 2 0.115889 15.5206 8.96083 0.969417
18 1 2 0.115889 21.0114 12.1309 13.9447
19 1 2 0.115888 22.648 13.0758 12.6084
20 1 2 0.115888 13.884 8.01592 2.30572
21 1 2 0.115889 21.0114 3.90092 8.12521
22 1 2 0.115889 15.5206 17.1908 6.7889
23 1 2 0.115887 13.884 16.2459 8.12521
24 1 2 0.115887 22.648 4.84583 6.7889
25 1 2 0.115889 22.648 16.2459 8.12521
26 1 2 0.115889 13.884 4.84583 6.7889
27 1 2 0.115887 15.5206 3.90092 8.12521
28 1 2 0.115887 21.0114 17.1908 6.7889
29 1 2 0.115889 21.0114 8.96083 0.969417
30 1 2 0.115889 15.5206 12.1309 13.9447
31 1 2 0.115887 13.884 13.0758 12.6084
32 1 2 0.115887 22.648 8.01592 2.30572
33 1 3 0.671939 27.399 18.7442 13.2542
34 1 3 0.671939 9.13299 2.34751 1.65994
35 1 3 0.671939 27.399 12.8934 9.117
36 1 3 0.671939 9.13299 8.19836 5.79712
37 1 3 0.67194 24.8655 14.3561 13.2542
38 1 3 0.67194 11.6665 6.73565 1.65994
39 1 3 0.67194 29.9325 17.2815 9.117
40 1 3 0.67194 6.5995 3.81022 5.79712
41 1 3 0.67194 24.8655 17.2815 9.117
42 1 3 0.67194 11.6665 3.81022 5.79712
43 1 3 0.67194 29.9325 14.3561 13.2542
44 1 3 0.67194 6.5995 6.73565 1.65994
45 1 3 -0.11508 27.399 19.957 14.1117
46 1 3 -0.11508 9.13299 1.13474 0.802379
47 1 3 -0.11508 27.399 11.6806 8.25944
48 1 3 -0.11508 9.13299 9.41113 6.65468
49 1 3 -0.11508 23.8152 13.7497 14.1117
50 1 3 -0.11508 12.7168 7.34203 0.802379
51 1 3 -0.11508 30.9828 17.8879 8.25944
52 1 3 -0.11508 5.54921 3.20384 6.65468
53 1 3 -0.11508 23.8152 17.8879 8.25944
54 1 3 -0.11508 12.7168 3.20384 6.65468
55 1 3 -0.11508 30.9828 13.7497 14.1117
56 1 3 -0.11508 5.54921 7.34203 0.802379
57 1 3 -0.0559 18.266 5.39949 13.5316
58 1 3 -0.0559 18.266 15.6923 1.38254
59 1 3 -0.055903 18.266 14.5575 0.580159
60 1 3 -0.055903 18.266 6.53422 14.334
61 1 3 -0.0559 26.1971 11.1132 7.85825
62 1 3 -0.0559 10.3349 9.9785 7.05587
63 1 3 -0.055903 10.3349 11.1132 7.85825
64 1 3 -0.055903 26.1971 9.9785 7.05587
65 1 3 -0.0559 14.7918 8.54005 0.580159
66 1 3 -0.0559 21.7402 12.5517 14.334
67 1 3 -0.055903 22.7229 13.1191 13.5316
68 1 3 -0.055903 13.8091 7.97268 1.38254
69 1 3 -0.0559 21.7402 3.39366 7.85825
70 1 3 -0.0559 14.7918 17.6981 7.05587
71 1 3 -0.055903 13.8091 17.1307 7.85825
72 1 3 -0.055903 22.7229 3.96103 7.05587
73 1 3 -0.055901 22.7229 17.1307 7.85825
74 1 3 -0.055901 13.8091 3.96103 7.05587
75 1 3 -0.055903 14.7918 3.39366 7.85825
76 1 3 -0.055903 21.7402 17.6981 7.05587
77 1 3 -0.0559 21.7402 8.54005 0.580159
78 1 3 -0.0559 14.7918 12.5517 14.334
79 1 3 -0.055903 13.8091 13.1191 13.5316
80 1 3 -0.055903 22.7229 7.97268 1.38254
81 1 4 -1.26215 27.399 15.8188 11.1856
82 1 4 -1.26215 9.13299 5.27293 3.72853
83 1 4 -0.60118 27.399 18.9383 11.9641
84 1 4 -0.60118 9.13299 2.15347 2.95001
85 1 4 -0.601179 27.399 17.5926 13.8671
86 1 4 -0.601179 9.13299 3.49912 1.04697
87 1 4 -0.601179 26.2336 13.3722 9.45555
88 1 4 -0.601179 10.2984 7.71958 5.45857
89 1 4 -0.60118 28.5643 13.3722 9.45555
90 1 4 -0.60118 7.96762 7.71958 5.45857
91 1 4 -0.60118 25.8628 14.9319 13.8671
92 1 4 -0.60118 10.6692 6.15984 1.04697
93 1 4 -0.601179 24.6974 14.2591 11.9641
94 1 4 -0.601179 11.8345 6.83267 2.95001
95 1 4 -0.60118 28.9351 18.0514 9.45555
96 1 4 -0.60118 7.59682 3.04037 5.45857
97 1 4 -0.601179 30.1005 16.0329 9.45555
98 1 4 -0.601179 6.43145 5.05885 5.45857
99 1 4 -0.601179 24.6974 16.0329 9.45555
100 1 4 -0.601179 11.8345 5.05885 5.45857
101 1 4 -0.60118 25.8628 18.0514 9.45555
102 1 4 -0.60118 10.6692 3.04037 5.45857
103 1 4 -0.60118 28.9351 14.9319 13.8671
104 1 4 -0.60118 7.59682 6.15984 1.04697
105 1 4 -0.60118 30.1005 14.2591 11.9641
106 1 4 -0.60118 6.43145 6.83267 2.95001
2534 811 5 -0.35 5.64217 3.39103 2.49783
2535 811 6 0.7 5.21756 2.58479 1.78001
2536 811 5 -0.35 4.79294 1.77855 1.06218
2654 851 5 -0.35 13.0479 10.4537 3.82989
2655 851 6 0.7 12.4984 10.6476 2.82687
2656 851 5 -0.35 11.9489 10.8415 1.82385
2696 865 5 -0.35 27.1525 17.1557 5.53658
2697 865 6 0.7 26.1769 16.6625 5.14856
2698 865 5 -0.35 25.2013 16.1692 4.76054
2726 875 5 -0.35 9.81218 11.4994 4.29293
2727 875 6 0.7 8.97662 12.2743 4.50981
2728 875 5 -0.35 26.407 13.0492 4.72669
2744 881 5 -0.35 7.63472 9.77458 2.3651
2745 881 6 0.7 8.35017 9.97821 1.47501
2746 881 5 -0.35 9.06562 10.1818 0.584909
2750 883 5 -0.35 13.3191 14.3263 2.27993
2751 883 6 0.7 12.3653 14.6882 1.72773
2752 883 5 -0.35 11.4115 15.05 1.17553
2756 885 5 -0.35 17.5659 9.61794 2.4459
2757 885 6 0.7 17.8273 8.52363 2.72837
2758 885 5 -0.35 18.0886 7.42932 3.01084
ITEM: TIMESTEP
39000
ITEM: NUMBER OF ATOMS
130
ITEM: BOX BOUNDS xy xz yz pp pp pp
0.0000000000000000e+00 3.6531964750000000e+01 9.1329911900000003e+00
0.0000000000000000e+00 2.1091739680000000e+01 9.1329911900000003e+00
0.0000000000000000e+00 1.4914112149999999e+01 5.2729349200000000e+00
ITEM: ATOMS id mol type q x y z
1 1 1 1.10383 27.399 17.6496 10.5383
2 1 1 1.10383 9.13299 3.44217 4.3758
3 1 1 1.10383 27.399 15.8188 13.1274
4 1 1 1.10383 9.13299 5.27293 1.78671
5 1 1 1.10383 25.8135 14.9034 10.5383
6 1 1 1.10383 10.7185 6.18832 4.3758
7 1 1 1.10383 28.9845 14.9034 10.5383
8 1 1 1.10383 7.5475 6.18832 4.3758
9 1 2 0.115889 18.266 5.48596 12.6084
10 1 2 0.115889 18.266 15.6058 2.30572
11 1 2 0.115888 18.266 13.716 0.969417
12 1 2 0.115888 18.266 7.37578 13.9447
13 1 2 0.11589 25.3934 11.4908 8.12521
14 1 2 0.11589 11.1386 9.60096 6.7889
15 1 2 0.115888 11.1386 11.4908 8.12521
16 1 2 0.115888 25.3934 9.60096 6.7889
17 1 2 0.115889 15.5206 8.96083 0.969417
18 1 2 0.115889 21.0114 12.1309 13.9447
19 1 2 0.115888 22.648 13.0758 12.6084
20 1 2 0.115888 13.884 8.01592 2.30572
21 1 2 0.115889 21.0114 3.90092 8.12521
22 1 2 0.115889 15.5206 17.1908 6.7889
23 1 2 0.115887 13.884 16.2459 8.12521
24 1 2 0.115887 22.648 4.84583 6.7889
25 1 2 0.115889 22.648 16.2459 8.12521
26 1 2 0.115889 13.884 4.84583 6.7889
27 1 2 0.115887 15.5206 3.90092 8.12521
28 1 2 0.115887 21.0114 17.1908 6.7889
29 1 2 0.115889 21.0114 8.96083 0.969417
30 1 2 0.115889 15.5206 12.1309 13.9447
31 1 2 0.115887 13.884 13.0758 12.6084
32 1 2 0.115887 22.648 8.01592 2.30572
33 1 3 0.671939 27.399 18.7442 13.2542
34 1 3 0.671939 9.13299 2.34751 1.65994
35 1 3 0.671939 27.399 12.8934 9.117
36 1 3 0.671939 9.13299 8.19836 5.79712
37 1 3 0.67194 24.8655 14.3561 13.2542
38 1 3 0.67194 11.6665 6.73565 1.65994
39 1 3 0.67194 29.9325 17.2815 9.117
40 1 3 0.67194 6.5995 3.81022 5.79712
41 1 3 0.67194 24.8655 17.2815 9.117
42 1 3 0.67194 11.6665 3.81022 5.79712
43 1 3 0.67194 29.9325 14.3561 13.2542
44 1 3 0.67194 6.5995 6.73565 1.65994
45 1 3 -0.11508 27.399 19.957 14.1117
46 1 3 -0.11508 9.13299 1.13474 0.802379
47 1 3 -0.11508 27.399 11.6806 8.25944
48 1 3 -0.11508 9.13299 9.41113 6.65468
49 1 3 -0.11508 23.8152 13.7497 14.1117
50 1 3 -0.11508 12.7168 7.34203 0.802379
51 1 3 -0.11508 30.9828 17.8879 8.25944
52 1 3 -0.11508 5.54921 3.20384 6.65468
53 1 3 -0.11508 23.8152 17.8879 8.25944
54 1 3 -0.11508 12.7168 3.20384 6.65468
55 1 3 -0.11508 30.9828 13.7497 14.1117
56 1 3 -0.11508 5.54921 7.34203 0.802379
57 1 3 -0.0559 18.266 5.39949 13.5316
58 1 3 -0.0559 18.266 15.6923 1.38254
59 1 3 -0.055903 18.266 14.5575 0.580159
60 1 3 -0.055903 18.266 6.53422 14.334
61 1 3 -0.0559 26.1971 11.1132 7.85825
62 1 3 -0.0559 10.3349 9.9785 7.05587
63 1 3 -0.055903 10.3349 11.1132 7.85825
64 1 3 -0.055903 26.1971 9.9785 7.05587
65 1 3 -0.0559 14.7918 8.54005 0.580159
66 1 3 -0.0559 21.7402 12.5517 14.334
67 1 3 -0.055903 22.7229 13.1191 13.5316
68 1 3 -0.055903 13.8091 7.97268 1.38254
69 1 3 -0.0559 21.7402 3.39366 7.85825
70 1 3 -0.0559 14.7918 17.6981 7.05587
71 1 3 -0.055903 13.8091 17.1307 7.85825
72 1 3 -0.055903 22.7229 3.96103 7.05587
73 1 3 -0.055901 22.7229 17.1307 7.85825
74 1 3 -0.055901 13.8091 3.96103 7.05587
75 1 3 -0.055903 14.7918 3.39366 7.85825
76 1 3 -0.055903 21.7402 17.6981 7.05587
77 1 3 -0.0559 21.7402 8.54005 0.580159
78 1 3 -0.0559 14.7918 12.5517 14.334
79 1 3 -0.055903 13.8091 13.1191 13.5316
80 1 3 -0.055903 22.7229 7.97268 1.38254
81 1 4 -1.26215 27.399 15.8188 11.1856
82 1 4 -1.26215 9.13299 5.27293 3.72853
83 1 4 -0.60118 27.399 18.9383 11.9641
84 1 4 -0.60118 9.13299 2.15347 2.95001
85 1 4 -0.601179 27.399 17.5926 13.8671
86 1 4 -0.601179 9.13299 3.49912 1.04697
87 1 4 -0.601179 26.2336 13.3722 9.45555
88 1 4 -0.601179 10.2984 7.71958 5.45857
89 1 4 -0.60118 28.5643 13.3722 9.45555
90 1 4 -0.60118 7.96762 7.71958 5.45857
91 1 4 -0.60118 25.8628 14.9319 13.8671
92 1 4 -0.60118 10.6692 6.15984 1.04697
93 1 4 -0.601179 24.6974 14.2591 11.9641
94 1 4 -0.601179 11.8345 6.83267 2.95001
95 1 4 -0.60118 28.9351 18.0514 9.45555
96 1 4 -0.60118 7.59682 3.04037 5.45857
97 1 4 -0.601179 30.1005 16.0329 9.45555
98 1 4 -0.601179 6.43145 5.05885 5.45857
99 1 4 -0.601179 24.6974 16.0329 9.45555
100 1 4 -0.601179 11.8345 5.05885 5.45857
101 1 4 -0.60118 25.8628 18.0514 9.45555
102 1 4 -0.60118 10.6692 3.04037 5.45857
103 1 4 -0.60118 28.9351 14.9319 13.8671
104 1 4 -0.60118 7.59682 6.15984 1.04697
105 1 4 -0.60118 30.1005 14.2591 11.9641
106 1 4 -0.60118 6.43145 6.83267 2.95001
4241 1380 5 -0.35 28.5026 16.0461 5.78685
4242 1380 6 0.7 29.2555 16.4741 5.01509
4243 1380 5 -0.35 11.7424 16.902 4.24333
4340 1413 5 -0.35 23.6027 9.6572 14.7846
4341 1413 6 0.7 15.319 5.0308 0.324845
4342 1413 5 -0.35 16.1682 5.67733 0.779194
4349 1416 5 -0.35 24.4524 17.3806 12.3469
4350 1416 6 0.7 23.3977 17.3172 11.8681
4351 1416 5 -0.35 22.343 17.2539 11.3893
4415 1438 5 -0.35 21.2072 5.2222 2.76196
4416 1438 6 0.7 20.885 5.07973 1.65675
4417 1438 5 -0.35 20.5628 4.93726 0.551535
4418 1439 5 -0.35 26.2204 9.60204 11.0694
4419 1439 6 0.7 27.0472 9.10677 10.4239
4420 1439 5 -0.35 9.60799 8.61149 9.77829
4421 1440 5 -0.35 19.4212 18.0996 11.3771
4422 1440 6 0.7 19.641 17.4462 10.4442
4423 1440 5 -0.35 19.8607 16.7928 9.51122
4448 1449 5 -0.35 9.94312 5.15655 9.96956
4449 1449 6 0.7 9.67162 4.96822 8.85761
4450 1449 5 -0.35 9.40012 4.7799 7.74567
4451 1450 5 -0.35 33.1437 16.5831 13.2624
4452 1450 6 0.7 14.84 16.7638 12.1172
4453 1450 5 -0.35 14.8023 16.9445 10.972
ITEM: TIMESTEP
40000
ITEM: NUMBER OF ATOMS
121
ITEM: BOX BOUNDS xy xz yz pp pp pp
0.0000000000000000e+00 3.6531964750000000e+01 9.1329911900000003e+00
0.0000000000000000e+00 2.1091739680000000e+01 9.1329911900000003e+00
0.0000000000000000e+00 1.4914112149999999e+01 5.2729349200000000e+00
ITEM: ATOMS id mol type q x y z
1 1 1 1.10383 27.399 17.6496 10.5383
2 1 1 1.10383 9.13299 3.44217 4.3758
3 1 1 1.10383 27.399 15.8188 13.1274
4 1 1 1.10383 9.13299 5.27293 1.78671
5 1 1 1.10383 25.8135 14.9034 10.5383
6 1 1 1.10383 10.7185 6.18832 4.3758
7 1 1 1.10383 28.9845 14.9034 10.5383
8 1 1 1.10383 7.5475 6.18832 4.3758
9 1 2 0.115889 18.266 5.48596 12.6084
10 1 2 0.115889 18.266 15.6058 2.30572
11 1 2 0.115888 18.266 13.716 0.969417
12 1 2 0.115888 18.266 7.37578 13.9447
13 1 2 0.11589 25.3934 11.4908 8.12521
14 1 2 0.11589 11.1386 9.60096 6.7889
15 1 2 0.115888 11.1386 11.4908 8.12521
16 1 2 0.115888 25.3934 9.60096 6.7889
17 1 2 0.115889 15.5206 8.96083 0.969417
18 1 2 0.115889 21.0114 12.1309 13.9447
19 1 2 0.115888 22.648 13.0758 12.6084
20 1 2 0.115888 13.884 8.01592 2.30572
21 1 2 0.115889 21.0114 3.90092 8.12521
22 1 2 0.115889 15.5206 17.1908 6.7889
23 1 2 0.115887 13.884 16.2459 8.12521
24 1 2 0.115887 22.648 4.84583 6.7889
25 1 2 0.115889 22.648 16.2459 8.12521
26 1 2 0.115889 13.884 4.84583 6.7889
27 1 2 0.115887 15.5206 3.90092 8.12521
28 1 2 0.115887 21.0114 17.1908 6.7889
29 1 2 0.115889 21.0114 8.96083 0.969417
30 1 2 0.115889 15.5206 12.1309 13.9447
31 1 2 0.115887 13.884 13.0758 12.6084
32 1 2 0.115887 22.648 8.01592 2.30572
33 1 3 0.671939 27.399 18.7442 13.2542
34 1 3 0.671939 9.13299 2.34751 1.65994
35 1 3 0.671939 27.399 12.8934 9.117
36 1 3 0.671939 9.13299 8.19836 5.79712
37 1 3 0.67194 24.8655 14.3561 13.2542
38 1 3 0.67194 11.6665 6.73565 1.65994
39 1 3 0.67194 29.9325 17.2815 9.117
40 1 3 0.67194 6.5995 3.81022 5.79712
41 1 3 0.67194 24.8655 17.2815 9.117
42 1 3 0.67194 11.6665 3.81022 5.79712
43 1 3 0.67194 29.9325 14.3561 13.2542
44 1 3 0.67194 6.5995 6.73565 1.65994
45 1 3 -0.11508 27.399 19.957 14.1117
46 1 3 -0.11508 9.13299 1.13474 0.802379
47 1 3 -0.11508 27.399 11.6806 8.25944
48 1 3 -0.11508 9.13299 9.41113 6.65468
49 1 3 -0.11508 23.8152 13.7497 14.1117
50 1 3 -0.11508 12.7168 7.34203 0.802379
51 1 3 -0.11508 30.9828 17.8879 8.25944
52 1 3 -0.11508 5.54921 3.20384 6.65468
53 1 3 -0.11508 23.8152 17.8879 8.25944
54 1 3 -0.11508 12.7168 3.20384 6.65468
55 1 3 -0.11508 30.9828 13.7497 14.1117
56 1 3 -0.11508 5.54921 7.34203 0.802379
57 1 3 -0.0559 18.266 5.39949 13.5316
58 1 3 -0.0559 18.266 15.6923 1.38254
59 1 3 -0.055903 18.266 14.5575 0.580159
60 1 3 -0.055903 18.266 6.53422 14.334
61 1 3 -0.0559 26.1971 11.1132 7.85825
62 1 3 -0.0559 10.3349 9.9785 7.05587
63 1 3 -0.055903 10.3349 11.1132 7.85825
64 1 3 -0.055903 26.1971 9.9785 7.05587
65 1 3 -0.0559 14.7918 8.54005 0.580159
66 1 3 -0.0559 21.7402 12.5517 14.334
67 1 3 -0.055903 22.7229 13.1191 13.5316
68 1 3 -0.055903 13.8091 7.97268 1.38254
69 1 3 -0.0559 21.7402 3.39366 7.85825
70 1 3 -0.0559 14.7918 17.6981 7.05587
71 1 3 -0.055903 13.8091 17.1307 7.85825
72 1 3 -0.055903 22.7229 3.96103 7.05587
73 1 3 -0.055901 22.7229 17.1307 7.85825
74 1 3 -0.055901 13.8091 3.96103 7.05587
75 1 3 -0.055903 14.7918 3.39366 7.85825
76 1 3 -0.055903 21.7402 17.6981 7.05587
77 1 3 -0.0559 21.7402 8.54005 0.580159
78 1 3 -0.0559 14.7918 12.5517 14.334
79 1 3 -0.055903 13.8091 13.1191 13.5316
80 1 3 -0.055903 22.7229 7.97268 1.38254
81 1 4 -1.26215 27.399 15.8188 11.1856
82 1 4 -1.26215 9.13299 5.27293 3.72853
83 1 4 -0.60118 27.399 18.9383 11.9641
84 1 4 -0.60118 9.13299 2.15347 2.95001
85 1 4 -0.601179 27.399 17.5926 13.8671
86 1 4 -0.601179 9.13299 3.49912 1.04697
87 1 4 -0.601179 26.2336 13.3722 9.45555
88 1 4 -0.601179 10.2984 7.71958 5.45857
89 1 4 -0.60118 28.5643 13.3722 9.45555
90 1 4 -0.60118 7.96762 7.71958 5.45857
91 1 4 -0.60118 25.8628 14.9319 13.8671
92 1 4 -0.60118 10.6692 6.15984 1.04697
93 1 4 -0.601179 24.6974 14.2591 11.9641
94 1 4 -0.601179 11.8345 6.83267 2.95001
95 1 4 -0.60118 28.9351 18.0514 9.45555
96 1 4 -0.60118 7.59682 3.04037 5.45857
97 1 4 -0.601179 30.1005 16.0329 9.45555
98 1 4 -0.601179 6.43145 5.05885 5.45857
99 1 4 -0.601179 24.6974 16.0329 9.45555
100 1 4 -0.601179 11.8345 5.05885 5.45857
101 1 4 -0.60118 25.8628 18.0514 9.45555
102 1 4 -0.60118 10.6692 3.04037 5.45857
103 1 4 -0.60118 28.9351 14.9319 13.8671
104 1 4 -0.60118 7.59682 6.15984 1.04697
105 1 4 -0.60118 30.1005 14.2591 11.9641
106 1 4 -0.60118 6.43145 6.83267 2.95001
5870 1923 5 -0.35 8.50348 9.80678 2.68087
5871 1923 6 0.7 7.91093 10.538 3.35891
5872 1923 5 -0.35 25.5844 11.2693 4.03695
5981 1960 5 -0.35 22.3599 16.713 14.504
5982 1960 6 0.7 22.7822 17.0063 13.4642
5983 1960 5 -0.35 23.2045 17.2996 12.4244
5987 1962 5 -0.35 15.8077 16.0279 3.60319
5988 1962 6 0.7 15.2257 16.7403 2.89648
5989 1962 5 -0.35 5.51075 1.63387 2.18977
6017 1972 5 -0.35 27.2836 15.9916 7.81754
6018 1972 6 0.7 27.2376 16.291 6.69778
6019 1972 5 -0.35 27.1916 16.5903 5.57801
6041 1980 5 -0.35 15.1803 4.15387 2.94219
6042 1980 6 0.7 15.9177 3.59596 2.24176
6043 1980 5 -0.35 16.6551 3.03806 1.54132
ITEM: TIMESTEP
41000
ITEM: NUMBER OF ATOMS
127
ITEM: BOX BOUNDS xy xz yz pp pp pp
0.0000000000000000e+00 3.6531964750000000e+01 9.1329911900000003e+00
0.0000000000000000e+00 2.1091739680000000e+01 9.1329911900000003e+00
0.0000000000000000e+00 1.4914112149999999e+01 5.2729349200000000e+00
ITEM: ATOMS id mol type q x y z
1 1 1 1.10383 27.399 17.6496 10.5383
2 1 1 1.10383 9.13299 3.44217 4.3758
3 1 1 1.10383 27.399 15.8188 13.1274
4 1 1 1.10383 9.13299 5.27293 1.78671
5 1 1 1.10383 25.8135 14.9034 10.5383
6 1 1 1.10383 10.7185 6.18832 4.3758
7 1 1 1.10383 28.9845 14.9034 10.5383
8 1 1 1.10383 7.5475 6.18832 4.3758
9 1 2 0.115889 18.266 5.48596 12.6084
10 1 2 0.115889 18.266 15.6058 2.30572
11 1 2 0.115888 18.266 13.716 0.969417
12 1 2 0.115888 18.266 7.37578 13.9447
13 1 2 0.11589 25.3934 11.4908 8.12521
14 1 2 0.11589 11.1386 9.60096 6.7889
15 1 2 0.115888 11.1386 11.4908 8.12521
16 1 2 0.115888 25.3934 9.60096 6.7889
17 1 2 0.115889 15.5206 8.96083 0.969417
18 1 2 0.115889 21.0114 12.1309 13.9447
19 1 2 0.115888 22.648 13.0758 12.6084
20 1 2 0.115888 13.884 8.01592 2.30572
21 1 2 0.115889 21.0114 3.90092 8.12521
22 1 2 0.115889 15.5206 17.1908 6.7889
23 1 2 0.115887 13.884 16.2459 8.12521
24 1 2 0.115887 22.648 4.84583 6.7889
25 1 2 0.115889 22.648 16.2459 8.12521
26 1 2 0.115889 13.884 4.84583 6.7889
27 1 2 0.115887 15.5206 3.90092 8.12521
28 1 2 0.115887 21.0114 17.1908 6.7889
29 1 2 0.115889 21.0114 8.96083 0.969417
30 1 2 0.115889 15.5206 12.1309 13.9447
31 1 2 0.115887 13.884 13.0758 12.6084
32 1 2 0.115887 22.648 8.01592 2.30572
33 1 3 0.671939 27.399 18.7442 13.2542
34 1 3 0.671939 9.13299 2.34751 1.65994
35 1 3 0.671939 27.399 12.8934 9.117
36 1 3 0.671939 9.13299 8.19836 5.79712
37 1 3 0.67194 24.8655 14.3561 13.2542
38 1 3 0.67194 11.6665 6.73565 1.65994
39 1 3 0.67194 29.9325 17.2815 9.117
40 1 3 0.67194 6.5995 3.81022 5.79712
41 1 3 0.67194 24.8655 17.2815 9.117
42 1 3 0.67194 11.6665 3.81022 5.79712
43 1 3 0.67194 29.9325 14.3561 13.2542
44 1 3 0.67194 6.5995 6.73565 1.65994
45 1 3 -0.11508 27.399 19.957 14.1117
46 1 3 -0.11508 9.13299 1.13474 0.802379
47 1 3 -0.11508 27.399 11.6806 8.25944
48 1 3 -0.11508 9.13299 9.41113 6.65468
49 1 3 -0.11508 23.8152 13.7497 14.1117
50 1 3 -0.11508 12.7168 7.34203 0.802379
51 1 3 -0.11508 30.9828 17.8879 8.25944
52 1 3 -0.11508 5.54921 3.20384 6.65468
53 1 3 -0.11508 23.8152 17.8879 8.25944
54 1 3 -0.11508 12.7168 3.20384 6.65468
55 1 3 -0.11508 30.9828 13.7497 14.1117
56 1 3 -0.11508 5.54921 7.34203 0.802379
57 1 3 -0.0559 18.266 5.39949 13.5316
58 1 3 -0.0559 18.266 15.6923 1.38254
59 1 3 -0.055903 18.266 14.5575 0.580159
60 1 3 -0.055903 18.266 6.53422 14.334
61 1 3 -0.0559 26.1971 11.1132 7.85825
62 1 3 -0.0559 10.3349 9.9785 7.05587
63 1 3 -0.055903 10.3349 11.1132 7.85825
64 1 3 -0.055903 26.1971 9.9785 7.05587
65 1 3 -0.0559 14.7918 8.54005 0.580159
66 1 3 -0.0559 21.7402 12.5517 14.334
67 1 3 -0.055903 22.7229 13.1191 13.5316
68 1 3 -0.055903 13.8091 7.97268 1.38254
69 1 3 -0.0559 21.7402 3.39366 7.85825
70 1 3 -0.0559 14.7918 17.6981 7.05587
71 1 3 -0.055903 13.8091 17.1307 7.85825
72 1 3 -0.055903 22.7229 3.96103 7.05587
73 1 3 -0.055901 22.7229 17.1307 7.85825
74 1 3 -0.055901 13.8091 3.96103 7.05587
75 1 3 -0.055903 14.7918 3.39366 7.85825
76 1 3 -0.055903 21.7402 17.6981 7.05587
77 1 3 -0.0559 21.7402 8.54005 0.580159
78 1 3 -0.0559 14.7918 12.5517 14.334
79 1 3 -0.055903 13.8091 13.1191 13.5316
80 1 3 -0.055903 22.7229 7.97268 1.38254
81 1 4 -1.26215 27.399 15.8188 11.1856
82 1 4 -1.26215 9.13299 5.27293 3.72853
83 1 4 -0.60118 27.399 18.9383 11.9641
84 1 4 -0.60118 9.13299 2.15347 2.95001
85 1 4 -0.601179 27.399 17.5926 13.8671
86 1 4 -0.601179 9.13299 3.49912 1.04697
87 1 4 -0.601179 26.2336 13.3722 9.45555
88 1 4 -0.601179 10.2984 7.71958 5.45857
89 1 4 -0.60118 28.5643 13.3722 9.45555
90 1 4 -0.60118 7.96762 7.71958 5.45857
91 1 4 -0.60118 25.8628 14.9319 13.8671
92 1 4 -0.60118 10.6692 6.15984 1.04697
93 1 4 -0.601179 24.6974 14.2591 11.9641
94 1 4 -0.601179 11.8345 6.83267 2.95001
95 1 4 -0.60118 28.9351 18.0514 9.45555
96 1 4 -0.60118 7.59682 3.04037 5.45857
97 1 4 -0.601179 30.1005 16.0329 9.45555
98 1 4 -0.601179 6.43145 5.05885 5.45857
99 1 4 -0.601179 24.6974 16.0329 9.45555
100 1 4 -0.601179 11.8345 5.05885 5.45857
101 1 4 -0.60118 25.8628 18.0514 9.45555
102 1 4 -0.60118 10.6692 3.04037 5.45857
103 1 4 -0.60118 28.9351 14.9319 13.8671
104 1 4 -0.60118 7.59682 6.15984 1.04697
105 1 4 -0.60118 30.1005 14.2591 11.9641
106 1 4 -0.60118 6.43145 6.83267 2.95001
7511 2470 5 -0.35 16.8373 4.15428 5.3235
7512 2470 6 0.7 17.504 4.22774 4.37709
7513 2470 5 -0.35 18.1707 4.3012 3.43067
7517 2472 5 -0.35 17.8314 10.2141 13.2667
7518 2472 6 0.7 18.9213 10.0086 12.9271
7519 2472 5 -0.35 20.0113 9.80298 12.5874
7529 2476 5 -0.35 14.3891 6.95284 4.87248
7530 2476 6 0.7 14.3915 6.03185 4.16723
7531 2476 5 -0.35 14.3939 5.11086 3.46199
7553 2484 5 -0.35 15.8726 6.6703 11.7484
7554 2484 6 0.7 15.6062 5.54185 11.7835
7555 2484 5 -0.35 15.3398 4.4134 11.8186
7562 2487 5 -0.35 21.6856 17.0452 13.3322
7563 2487 6 0.7 21.0168 16.9145 12.3935
7564 2487 5 -0.35 20.3479 16.7837 11.4548
7565 2488 5 -0.35 19.0081 14.8149 14.6933
7566 2488 6 0.7 17.9177 15.1688 14.8707
7567 2488 5 -0.35 7.69438 10.2497 0.133975
7568 2489 5 -0.35 6.08395 1.84898 2.39234
7569 2489 6 0.7 15.5297 16.9225 3.22438
7570 2489 5 -0.35 15.8424 16.1772 4.05642
ITEM: TIMESTEP
42000
ITEM: NUMBER OF ATOMS
136
ITEM: BOX BOUNDS xy xz yz pp pp pp
0.0000000000000000e+00 3.6531964750000000e+01 9.1329911900000003e+00
0.0000000000000000e+00 2.1091739680000000e+01 9.1329911900000003e+00
0.0000000000000000e+00 1.4914112149999999e+01 5.2729349200000000e+00
ITEM: ATOMS id mol type q x y z
1 1 1 1.10383 27.399 17.6496 10.5383
2 1 1 1.10383 9.13299 3.44217 4.3758
3 1 1 1.10383 27.399 15.8188 13.1274
4 1 1 1.10383 9.13299 5.27293 1.78671
5 1 1 1.10383 25.8135 14.9034 10.5383
6 1 1 1.10383 10.7185 6.18832 4.3758
7 1 1 1.10383 28.9845 14.9034 10.5383
8 1 1 1.10383 7.5475 6.18832 4.3758
9 1 2 0.115889 18.266 5.48596 12.6084
10 1 2 0.115889 18.266 15.6058 2.30572
11 1 2 0.115888 18.266 13.716 0.969417
12 1 2 0.115888 18.266 7.37578 13.9447
13 1 2 0.11589 25.3934 11.4908 8.12521
14 1 2 0.11589 11.1386 9.60096 6.7889
15 1 2 0.115888 11.1386 11.4908 8.12521
16 1 2 0.115888 25.3934 9.60096 6.7889
17 1 2 0.115889 15.5206 8.96083 0.969417
18 1 2 0.115889 21.0114 12.1309 13.9447
19 1 2 0.115888 22.648 13.0758 12.6084
20 1 2 0.115888 13.884 8.01592 2.30572
21 1 2 0.115889 21.0114 3.90092 8.12521
22 1 2 0.115889 15.5206 17.1908 6.7889
23 1 2 0.115887 13.884 16.2459 8.12521
24 1 2 0.115887 22.648 4.84583 6.7889
25 1 2 0.115889 22.648 16.2459 8.12521
26 1 2 0.115889 13.884 4.84583 6.7889
27 1 2 0.115887 15.5206 3.90092 8.12521
28 1 2 0.115887 21.0114 17.1908 6.7889
29 1 2 0.115889 21.0114 8.96083 0.969417
30 1 2 0.115889 15.5206 12.1309 13.9447
31 1 2 0.115887 13.884 13.0758 12.6084
32 1 2 0.115887 22.648 8.01592 2.30572
33 1 3 0.671939 27.399 18.7442 13.2542
34 1 3 0.671939 9.13299 2.34751 1.65994
35 1 3 0.671939 27.399 12.8934 9.117
36 1 3 0.671939 9.13299 8.19836 5.79712
37 1 3 0.67194 24.8655 14.3561 13.2542
38 1 3 0.67194 11.6665 6.73565 1.65994
39 1 3 0.67194 29.9325 17.2815 9.117
40 1 3 0.67194 6.5995 3.81022 5.79712
41 1 3 0.67194 24.8655 17.2815 9.117
42 1 3 0.67194 11.6665 3.81022 5.79712
43 1 3 0.67194 29.9325 14.3561 13.2542
44 1 3 0.67194 6.5995 6.73565 1.65994
45 1 3 -0.11508 27.399 19.957 14.1117
46 1 3 -0.11508 9.13299 1.13474 0.802379
47 1 3 -0.11508 27.399 11.6806 8.25944
48 1 3 -0.11508 9.13299 9.41113 6.65468
49 1 3 -0.11508 23.8152 13.7497 14.1117
50 1 3 -0.11508 12.7168 7.34203 0.802379
51 1 3 -0.11508 30.9828 17.8879 8.25944
52 1 3 -0.11508 5.54921 3.20384 6.65468
53 1 3 -0.11508 23.8152 17.8879 8.25944
54 1 3 -0.11508 12.7168 3.20384 6.65468
55 1 3 -0.11508 30.9828 13.7497 14.1117
56 1 3 -0.11508 5.54921 7.34203 0.802379
57 1 3 -0.0559 18.266 5.39949 13.5316
58 1 3 -0.0559 18.266 15.6923 1.38254
59 1 3 -0.055903 18.266 14.5575 0.580159
60 1 3 -0.055903 18.266 6.53422 14.334
61 1 3 -0.0559 26.1971 11.1132 7.85825
62 1 3 -0.0559 10.3349 9.9785 7.05587
63 1 3 -0.055903 10.3349 11.1132 7.85825
64 1 3 -0.055903 26.1971 9.9785 7.05587
65 1 3 -0.0559 14.7918 8.54005 0.580159
66 1 3 -0.0559 21.7402 12.5517 14.334
67 1 3 -0.055903 22.7229 13.1191 13.5316
68 1 3 -0.055903 13.8091 7.97268 1.38254
69 1 3 -0.0559 21.7402 3.39366 7.85825
70 1 3 -0.0559 14.7918 17.6981 7.05587
71 1 3 -0.055903 13.8091 17.1307 7.85825
72 1 3 -0.055903 22.7229 3.96103 7.05587
73 1 3 -0.055901 22.7229 17.1307 7.85825
74 1 3 -0.055901 13.8091 3.96103 7.05587
75 1 3 -0.055903 14.7918 3.39366 7.85825
76 1 3 -0.055903 21.7402 17.6981 7.05587
77 1 3 -0.0559 21.7402 8.54005 0.580159
78 1 3 -0.0559 14.7918 12.5517 14.334
79 1 3 -0.055903 13.8091 13.1191 13.5316
80 1 3 -0.055903 22.7229 7.97268 1.38254
81 1 4 -1.26215 27.399 15.8188 11.1856
82 1 4 -1.26215 9.13299 5.27293 3.72853
83 1 4 -0.60118 27.399 18.9383 11.9641
84 1 4 -0.60118 9.13299 2.15347 2.95001
85 1 4 -0.601179 27.399 17.5926 13.8671
86 1 4 -0.601179 9.13299 3.49912 1.04697
87 1 4 -0.601179 26.2336 13.3722 9.45555
88 1 4 -0.601179 10.2984 7.71958 5.45857
89 1 4 -0.60118 28.5643 13.3722 9.45555
90 1 4 -0.60118 7.96762 7.71958 5.45857
91 1 4 -0.60118 25.8628 14.9319 13.8671
92 1 4 -0.60118 10.6692 6.15984 1.04697
93 1 4 -0.601179 24.6974 14.2591 11.9641
94 1 4 -0.601179 11.8345 6.83267 2.95001
95 1 4 -0.60118 28.9351 18.0514 9.45555
96 1 4 -0.60118 7.59682 3.04037 5.45857
97 1 4 -0.601179 30.1005 16.0329 9.45555
98 1 4 -0.601179 6.43145 5.05885 5.45857
99 1 4 -0.601179 24.6974 16.0329 9.45555
100 1 4 -0.601179 11.8345 5.05885 5.45857
101 1 4 -0.60118 25.8628 18.0514 9.45555
102 1 4 -0.60118 10.6692 3.04037 5.45857
103 1 4 -0.60118 28.9351 14.9319 13.8671
104 1 4 -0.60118 7.59682 6.15984 1.04697
105 1 4 -0.60118 30.1005 14.2591 11.9641
106 1 4 -0.60118 6.43145 6.83267 2.95001
8987 2962 5 -0.35 14.8976 16.1308 2.31848
8988 2962 6 0.7 14.9959 15.9305 3.45682
8989 2962 5 -0.35 15.0941 15.7301 4.59515
9017 2972 5 -0.35 16.3176 15.5005 10.8427
9018 2972 6 0.7 17.0014 14.5638 10.8678
9019 2972 5 -0.35 17.6852 13.6271 10.8929
9068 2989 5 -0.35 31.985 19.2828 12.6371
9069 2989 6 0.7 32.4123 19.5095 11.5827
9070 2989 5 -0.35 23.7067 3.9174 10.5284
9095 2998 5 -0.35 19.6295 4.08985 3.33573
9096 2998 6 0.7 20.383 3.20858 3.37232
9097 2998 5 -0.35 2.87038 2.32731 3.40891
9119 3006 5 -0.35 21.9329 15.8075 2.34867
9120 3006 6 0.7 22.0267 16.7751 2.98155
9121 3006 5 -0.35 12.9876 1.92387 3.61444
9128 3009 5 -0.35 15.6514 13.0719 1.03179
9129 3009 6 0.7 24.5127 18.0588 14.855
9130 3009 5 -0.35 24.2411 17.7729 13.7641
9134 3011 5 -0.35 14.4359 5.612 10.5113
9135 3011 6 0.7 14.3622 6.7226 10.1846
9136 3011 5 -0.35 14.2885 7.83319 9.85787
9140 3013 5 -0.35 18.8995 6.03534 7.51862
9141 3013 6 0.7 18.5875 6.90155 6.81298
9142 3013 5 -0.35 18.2755 7.76775 6.10733
9143 3014 5 -0.35 12.9567 14.1351 0.870281
9144 3014 6 0.7 12.317 13.2706 0.435431
9145 3014 5 -0.35 11.6773 12.4061 0.000579964
9146 3015 5 -0.35 18.8917 15.715 8.03014
9147 3015 6 0.7 18.3047 15.2615 7.13827
9148 3015 5 -0.35 17.7178 14.808 6.2464
ITEM: TIMESTEP
43000
ITEM: NUMBER OF ATOMS
121
ITEM: BOX BOUNDS xy xz yz pp pp pp
0.0000000000000000e+00 3.6531964750000000e+01 9.1329911900000003e+00
0.0000000000000000e+00 2.1091739680000000e+01 9.1329911900000003e+00
0.0000000000000000e+00 1.4914112149999999e+01 5.2729349200000000e+00
ITEM: ATOMS id mol type q x y z
1 1 1 1.10383 27.399 17.6496 10.5383
2 1 1 1.10383 9.13299 3.44217 4.3758
3 1 1 1.10383 27.399 15.8188 13.1274
4 1 1 1.10383 9.13299 5.27293 1.78671
5 1 1 1.10383 25.8135 14.9034 10.5383
6 1 1 1.10383 10.7185 6.18832 4.3758
7 1 1 1.10383 28.9845 14.9034 10.5383
8 1 1 1.10383 7.5475 6.18832 4.3758
9 1 2 0.115889 18.266 5.48596 12.6084
10 1 2 0.115889 18.266 15.6058 2.30572
11 1 2 0.115888 18.266 13.716 0.969417
12 1 2 0.115888 18.266 7.37578 13.9447
13 1 2 0.11589 25.3934 11.4908 8.12521
14 1 2 0.11589 11.1386 9.60096 6.7889
15 1 2 0.115888 11.1386 11.4908 8.12521
16 1 2 0.115888 25.3934 9.60096 6.7889
17 1 2 0.115889 15.5206 8.96083 0.969417
18 1 2 0.115889 21.0114 12.1309 13.9447
19 1 2 0.115888 22.648 13.0758 12.6084
20 1 2 0.115888 13.884 8.01592 2.30572
21 1 2 0.115889 21.0114 3.90092 8.12521
22 1 2 0.115889 15.5206 17.1908 6.7889
23 1 2 0.115887 13.884 16.2459 8.12521
24 1 2 0.115887 22.648 4.84583 6.7889
25 1 2 0.115889 22.648 16.2459 8.12521
26 1 2 0.115889 13.884 4.84583 6.7889
27 1 2 0.115887 15.5206 3.90092 8.12521
28 1 2 0.115887 21.0114 17.1908 6.7889
29 1 2 0.115889 21.0114 8.96083 0.969417
30 1 2 0.115889 15.5206 12.1309 13.9447
31 1 2 0.115887 13.884 13.0758 12.6084
32 1 2 0.115887 22.648 8.01592 2.30572
33 1 3 0.671939 27.399 18.7442 13.2542
34 1 3 0.671939 9.13299 2.34751 1.65994
35 1 3 0.671939 27.399 12.8934 9.117
36 1 3 0.671939 9.13299 8.19836 5.79712
37 1 3 0.67194 24.8655 14.3561 13.2542
38 1 3 0.67194 11.6665 6.73565 1.65994
39 1 3 0.67194 29.9325 17.2815 9.117
40 1 3 0.67194 6.5995 3.81022 5.79712
41 1 3 0.67194 24.8655 17.2815 9.117
42 1 3 0.67194 11.6665 3.81022 5.79712
43 1 3 0.67194 29.9325 14.3561 13.2542
44 1 3 0.67194 6.5995 6.73565 1.65994
45 1 3 -0.11508 27.399 19.957 14.1117
46 1 3 -0.11508 9.13299 1.13474 0.802379
47 1 3 -0.11508 27.399 11.6806 8.25944
48 1 3 -0.11508 9.13299 9.41113 6.65468
49 1 3 -0.11508 23.8152 13.7497 14.1117
50 1 3 -0.11508 12.7168 7.34203 0.802379
51 1 3 -0.11508 30.9828 17.8879 8.25944
52 1 3 -0.11508 5.54921 3.20384 6.65468
53 1 3 -0.11508 23.8152 17.8879 8.25944
54 1 3 -0.11508 12.7168 3.20384 6.65468
55 1 3 -0.11508 30.9828 13.7497 14.1117
56 1 3 -0.11508 5.54921 7.34203 0.802379
57 1 3 -0.0559 18.266 5.39949 13.5316
58 1 3 -0.0559 18.266 15.6923 1.38254
59 1 3 -0.055903 18.266 14.5575 0.580159
60 1 3 -0.055903 18.266 6.53422 14.334
61 1 3 -0.0559 26.1971 11.1132 7.85825
62 1 3 -0.0559 10.3349 9.9785 7.05587
63 1 3 -0.055903 10.3349 11.1132 7.85825
64 1 3 -0.055903 26.1971 9.9785 7.05587
65 1 3 -0.0559 14.7918 8.54005 0.580159
66 1 3 -0.0559 21.7402 12.5517 14.334
67 1 3 -0.055903 22.7229 13.1191 13.5316
68 1 3 -0.055903 13.8091 7.97268 1.38254
69 1 3 -0.0559 21.7402 3.39366 7.85825
70 1 3 -0.0559 14.7918 17.6981 7.05587
71 1 3 -0.055903 13.8091 17.1307 7.85825
72 1 3 -0.055903 22.7229 3.96103 7.05587
73 1 3 -0.055901 22.7229 17.1307 7.85825
74 1 3 -0.055901 13.8091 3.96103 7.05587
75 1 3 -0.055903 14.7918 3.39366 7.85825
76 1 3 -0.055903 21.7402 17.6981 7.05587
77 1 3 -0.0559 21.7402 8.54005 0.580159
78 1 3 -0.0559 14.7918 12.5517 14.334
79 1 3 -0.055903 13.8091 13.1191 13.5316
80 1 3 -0.055903 22.7229 7.97268 1.38254
81 1 4 -1.26215 27.399 15.8188 11.1856
82 1 4 -1.26215 9.13299 5.27293 3.72853
83 1 4 -0.60118 27.399 18.9383 11.9641
84 1 4 -0.60118 9.13299 2.15347 2.95001
85 1 4 -0.601179 27.399 17.5926 13.8671
86 1 4 -0.601179 9.13299 3.49912 1.04697
87 1 4 -0.601179 26.2336 13.3722 9.45555
88 1 4 -0.601179 10.2984 7.71958 5.45857
89 1 4 -0.60118 28.5643 13.3722 9.45555
90 1 4 -0.60118 7.96762 7.71958 5.45857
91 1 4 -0.60118 25.8628 14.9319 13.8671
92 1 4 -0.60118 10.6692 6.15984 1.04697
93 1 4 -0.601179 24.6974 14.2591 11.9641
94 1 4 -0.601179 11.8345 6.83267 2.95001
95 1 4 -0.60118 28.9351 18.0514 9.45555
96 1 4 -0.60118 7.59682 3.04037 5.45857
97 1 4 -0.601179 30.1005 16.0329 9.45555
98 1 4 -0.601179 6.43145 5.05885 5.45857
99 1 4 -0.601179 24.6974 16.0329 9.45555
100 1 4 -0.601179 11.8345 5.05885 5.45857
101 1 4 -0.60118 25.8628 18.0514 9.45555
102 1 4 -0.60118 10.6692 3.04037 5.45857
103 1 4 -0.60118 28.9351 14.9319 13.8671
104 1 4 -0.60118 7.59682 6.15984 1.04697
105 1 4 -0.60118 30.1005 14.2591 11.9641
106 1 4 -0.60118 6.43145 6.83267 2.95001
10193 3364 5 -0.35 9.06734 4.20631 8.19568
10194 3364 6 0.7 9.08583 3.06969 7.96469
10195 3364 5 -0.35 18.2373 17.7519 7.7337
10334 3411 5 -0.35 21.9161 12.1677 8.15583
10335 3411 6 0.7 21.8348 12.926 9.02991
10336 3411 5 -0.35 21.7535 13.6843 9.90399
10346 3415 5 -0.35 24.9696 16.5879 5.59984
10347 3415 6 0.7 25.845 15.9869 6.06681
10348 3415 5 -0.35 26.7204 15.3859 6.53379
10421 3440 5 -0.35 31.2407 19.9392 13.6801
10422 3440 6 0.7 31.01 19.09 12.9242
10423 3440 5 -0.35 30.7794 18.2408 12.1684
10424 3441 5 -0.35 16.6153 5.25991 5.36058
10425 3441 6 0.7 16.4916 5.43314 4.22028
10426 3441 5 -0.35 16.3678 5.60637 3.07999
ITEM: TIMESTEP
44000
ITEM: NUMBER OF ATOMS
121
ITEM: BOX BOUNDS xy xz yz pp pp pp
0.0000000000000000e+00 3.6531964750000000e+01 9.1329911900000003e+00
0.0000000000000000e+00 2.1091739680000000e+01 9.1329911900000003e+00
0.0000000000000000e+00 1.4914112149999999e+01 5.2729349200000000e+00
ITEM: ATOMS id mol type q x y z
1 1 1 1.10383 27.399 17.6496 10.5383
2 1 1 1.10383 9.13299 3.44217 4.3758
3 1 1 1.10383 27.399 15.8188 13.1274
4 1 1 1.10383 9.13299 5.27293 1.78671
5 1 1 1.10383 25.8135 14.9034 10.5383
6 1 1 1.10383 10.7185 6.18832 4.3758
7 1 1 1.10383 28.9845 14.9034 10.5383
8 1 1 1.10383 7.5475 6.18832 4.3758
9 1 2 0.115889 18.266 5.48596 12.6084
10 1 2 0.115889 18.266 15.6058 2.30572
11 1 2 0.115888 18.266 13.716 0.969417
12 1 2 0.115888 18.266 7.37578 13.9447
13 1 2 0.11589 25.3934 11.4908 8.12521
14 1 2 0.11589 11.1386 9.60096 6.7889
15 1 2 0.115888 11.1386 11.4908 8.12521
16 1 2 0.115888 25.3934 9.60096 6.7889
17 1 2 0.115889 15.5206 8.96083 0.969417
18 1 2 0.115889 21.0114 12.1309 13.9447
19 1 2 0.115888 22.648 13.0758 12.6084
20 1 2 0.115888 13.884 8.01592 2.30572
21 1 2 0.115889 21.0114 3.90092 8.12521
22 1 2 0.115889 15.5206 17.1908 6.7889
23 1 2 0.115887 13.884 16.2459 8.12521
24 1 2 0.115887 22.648 4.84583 6.7889
25 1 2 0.115889 22.648 16.2459 8.12521
26 1 2 0.115889 13.884 4.84583 6.7889
27 1 2 0.115887 15.5206 3.90092 8.12521
28 1 2 0.115887 21.0114 17.1908 6.7889
29 1 2 0.115889 21.0114 8.96083 0.969417
30 1 2 0.115889 15.5206 12.1309 13.9447
31 1 2 0.115887 13.884 13.0758 12.6084
32 1 2 0.115887 22.648 8.01592 2.30572
33 1 3 0.671939 27.399 18.7442 13.2542
34 1 3 0.671939 9.13299 2.34751 1.65994
35 1 3 0.671939 27.399 12.8934 9.117
36 1 3 0.671939 9.13299 8.19836 5.79712
37 1 3 0.67194 24.8655 14.3561 13.2542
38 1 3 0.67194 11.6665 6.73565 1.65994
39 1 3 0.67194 29.9325 17.2815 9.117
40 1 3 0.67194 6.5995 3.81022 5.79712
41 1 3 0.67194 24.8655 17.2815 9.117
42 1 3 0.67194 11.6665 3.81022 5.79712
43 1 3 0.67194 29.9325 14.3561 13.2542
44 1 3 0.67194 6.5995 6.73565 1.65994
45 1 3 -0.11508 27.399 19.957 14.1117
46 1 3 -0.11508 9.13299 1.13474 0.802379
47 1 3 -0.11508 27.399 11.6806 8.25944
48 1 3 -0.11508 9.13299 9.41113 6.65468
49 1 3 -0.11508 23.8152 13.7497 14.1117
50 1 3 -0.11508 12.7168 7.34203 0.802379
51 1 3 -0.11508 30.9828 17.8879 8.25944
52 1 3 -0.11508 5.54921 3.20384 6.65468
53 1 3 -0.11508 23.8152 17.8879 8.25944
54 1 3 -0.11508 12.7168 3.20384 6.65468
55 1 3 -0.11508 30.9828 13.7497 14.1117
56 1 3 -0.11508 5.54921 7.34203 0.802379
57 1 3 -0.0559 18.266 5.39949 13.5316
58 1 3 -0.0559 18.266 15.6923 1.38254
59 1 3 -0.055903 18.266 14.5575 0.580159
60 1 3 -0.055903 18.266 6.53422 14.334
61 1 3 -0.0559 26.1971 11.1132 7.85825
62 1 3 -0.0559 10.3349 9.9785 7.05587
63 1 3 -0.055903 10.3349 11.1132 7.85825
64 1 3 -0.055903 26.1971 9.9785 7.05587
65 1 3 -0.0559 14.7918 8.54005 0.580159
66 1 3 -0.0559 21.7402 12.5517 14.334
67 1 3 -0.055903 22.7229 13.1191 13.5316
68 1 3 -0.055903 13.8091 7.97268 1.38254
69 1 3 -0.0559 21.7402 3.39366 7.85825
70 1 3 -0.0559 14.7918 17.6981 7.05587
71 1 3 -0.055903 13.8091 17.1307 7.85825
72 1 3 -0.055903 22.7229 3.96103 7.05587
73 1 3 -0.055901 22.7229 17.1307 7.85825
74 1 3 -0.055901 13.8091 3.96103 7.05587
75 1 3 -0.055903 14.7918 3.39366 7.85825
76 1 3 -0.055903 21.7402 17.6981 7.05587
77 1 3 -0.0559 21.7402 8.54005 0.580159
78 1 3 -0.0559 14.7918 12.5517 14.334
79 1 3 -0.055903 13.8091 13.1191 13.5316
80 1 3 -0.055903 22.7229 7.97268 1.38254
81 1 4 -1.26215 27.399 15.8188 11.1856
82 1 4 -1.26215 9.13299 5.27293 3.72853
83 1 4 -0.60118 27.399 18.9383 11.9641
84 1 4 -0.60118 9.13299 2.15347 2.95001
85 1 4 -0.601179 27.399 17.5926 13.8671
86 1 4 -0.601179 9.13299 3.49912 1.04697
87 1 4 -0.601179 26.2336 13.3722 9.45555
88 1 4 -0.601179 10.2984 7.71958 5.45857
89 1 4 -0.60118 28.5643 13.3722 9.45555
90 1 4 -0.60118 7.96762 7.71958 5.45857
91 1 4 -0.60118 25.8628 14.9319 13.8671
92 1 4 -0.60118 10.6692 6.15984 1.04697
93 1 4 -0.601179 24.6974 14.2591 11.9641
94 1 4 -0.601179 11.8345 6.83267 2.95001
95 1 4 -0.60118 28.9351 18.0514 9.45555
96 1 4 -0.60118 7.59682 3.04037 5.45857
97 1 4 -0.601179 30.1005 16.0329 9.45555
98 1 4 -0.601179 6.43145 5.05885 5.45857
99 1 4 -0.601179 24.6974 16.0329 9.45555
100 1 4 -0.601179 11.8345 5.05885 5.45857
101 1 4 -0.60118 25.8628 18.0514 9.45555
102 1 4 -0.60118 10.6692 3.04037 5.45857
103 1 4 -0.60118 28.9351 14.9319 13.8671
104 1 4 -0.60118 7.59682 6.15984 1.04697
105 1 4 -0.60118 30.1005 14.2591 11.9641
106 1 4 -0.60118 6.43145 6.83267 2.95001
11933 3944 5 -0.35 13.1735 3.71751 2.74584
11934 3944 6 0.7 13.1689 3.9514 1.60967
11935 3944 5 -0.35 13.1643 4.18529 0.473507
11987 3962 5 -0.35 21.881 4.8275 2.84554
11988 3962 6 0.7 4.58438 4.20463 2.71174
11989 3962 5 -0.35 5.55378 3.58176 2.57793
12002 3967 5 -0.35 27.5461 11.4946 13.0312
12003 3967 6 0.7 26.8574 11.152 13.8995
12004 3967 5 -0.35 26.1687 10.8094 14.7677
12056 3985 5 -0.35 12.0634 8.85568 12.4971
12057 3985 6 0.7 12.438 7.85252 12.0511
12058 3985 5 -0.35 12.8127 6.84936 11.6051
12059 3986 5 -0.35 25.5687 7.56311 11.1036
12060 3986 6 0.7 25.9394 6.67426 10.457
12061 3986 5 -0.35 8.04413 5.78541 9.81038
ITEM: TIMESTEP
45000
ITEM: NUMBER OF ATOMS
133
ITEM: BOX BOUNDS xy xz yz pp pp pp
0.0000000000000000e+00 3.6531964750000000e+01 9.1329911900000003e+00
0.0000000000000000e+00 2.1091739680000000e+01 9.1329911900000003e+00
0.0000000000000000e+00 1.4914112149999999e+01 5.2729349200000000e+00
ITEM: ATOMS id mol type q x y z
1 1 1 1.10383 27.399 17.6496 10.5383
2 1 1 1.10383 9.13299 3.44217 4.3758
3 1 1 1.10383 27.399 15.8188 13.1274
4 1 1 1.10383 9.13299 5.27293 1.78671
5 1 1 1.10383 25.8135 14.9034 10.5383
6 1 1 1.10383 10.7185 6.18832 4.3758
7 1 1 1.10383 28.9845 14.9034 10.5383
8 1 1 1.10383 7.5475 6.18832 4.3758
9 1 2 0.115889 18.266 5.48596 12.6084
10 1 2 0.115889 18.266 15.6058 2.30572
11 1 2 0.115888 18.266 13.716 0.969417
12 1 2 0.115888 18.266 7.37578 13.9447
13 1 2 0.11589 25.3934 11.4908 8.12521
14 1 2 0.11589 11.1386 9.60096 6.7889
15 1 2 0.115888 11.1386 11.4908 8.12521
16 1 2 0.115888 25.3934 9.60096 6.7889
17 1 2 0.115889 15.5206 8.96083 0.969417
18 1 2 0.115889 21.0114 12.1309 13.9447
19 1 2 0.115888 22.648 13.0758 12.6084
20 1 2 0.115888 13.884 8.01592 2.30572
21 1 2 0.115889 21.0114 3.90092 8.12521
22 1 2 0.115889 15.5206 17.1908 6.7889
23 1 2 0.115887 13.884 16.2459 8.12521
24 1 2 0.115887 22.648 4.84583 6.7889
25 1 2 0.115889 22.648 16.2459 8.12521
26 1 2 0.115889 13.884 4.84583 6.7889
27 1 2 0.115887 15.5206 3.90092 8.12521
28 1 2 0.115887 21.0114 17.1908 6.7889
29 1 2 0.115889 21.0114 8.96083 0.969417
30 1 2 0.115889 15.5206 12.1309 13.9447
31 1 2 0.115887 13.884 13.0758 12.6084
32 1 2 0.115887 22.648 8.01592 2.30572
33 1 3 0.671939 27.399 18.7442 13.2542
34 1 3 0.671939 9.13299 2.34751 1.65994
35 1 3 0.671939 27.399 12.8934 9.117
36 1 3 0.671939 9.13299 8.19836 5.79712
37 1 3 0.67194 24.8655 14.3561 13.2542
38 1 3 0.67194 11.6665 6.73565 1.65994
39 1 3 0.67194 29.9325 17.2815 9.117
40 1 3 0.67194 6.5995 3.81022 5.79712
41 1 3 0.67194 24.8655 17.2815 9.117
42 1 3 0.67194 11.6665 3.81022 5.79712
43 1 3 0.67194 29.9325 14.3561 13.2542
44 1 3 0.67194 6.5995 6.73565 1.65994
45 1 3 -0.11508 27.399 19.957 14.1117
46 1 3 -0.11508 9.13299 1.13474 0.802379
47 1 3 -0.11508 27.399 11.6806 8.25944
48 1 3 -0.11508 9.13299 9.41113 6.65468
49 1 3 -0.11508 23.8152 13.7497 14.1117
50 1 3 -0.11508 12.7168 7.34203 0.802379
51 1 3 -0.11508 30.9828 17.8879 8.25944
52 1 3 -0.11508 5.54921 3.20384 6.65468
53 1 3 -0.11508 23.8152 17.8879 8.25944
54 1 3 -0.11508 12.7168 3.20384 6.65468
55 1 3 -0.11508 30.9828 13.7497 14.1117
56 1 3 -0.11508 5.54921 7.34203 0.802379
57 1 3 -0.0559 18.266 5.39949 13.5316
58 1 3 -0.0559 18.266 15.6923 1.38254
59 1 3 -0.055903 18.266 14.5575 0.580159
60 1 3 -0.055903 18.266 6.53422 14.334
61 1 3 -0.0559 26.1971 11.1132 7.85825
62 1 3 -0.0559 10.3349 9.9785 7.05587
63 1 3 -0.055903 10.3349 11.1132 7.85825
64 1 3 -0.055903 26.1971 9.9785 7.05587
65 1 3 -0.0559 14.7918 8.54005 0.580159
66 1 3 -0.0559 21.7402 12.5517 14.334
67 1 3 -0.055903 22.7229 13.1191 13.5316
68 1 3 -0.055903 13.8091 7.97268 1.38254
69 1 3 -0.0559 21.7402 3.39366 7.85825
70 1 3 -0.0559 14.7918 17.6981 7.05587
71 1 3 -0.055903 13.8091 17.1307 7.85825
72 1 3 -0.055903 22.7229 3.96103 7.05587
73 1 3 -0.055901 22.7229 17.1307 7.85825
74 1 3 -0.055901 13.8091 3.96103 7.05587
75 1 3 -0.055903 14.7918 3.39366 7.85825
76 1 3 -0.055903 21.7402 17.6981 7.05587
77 1 3 -0.0559 21.7402 8.54005 0.580159
78 1 3 -0.0559 14.7918 12.5517 14.334
79 1 3 -0.055903 13.8091 13.1191 13.5316
80 1 3 -0.055903 22.7229 7.97268 1.38254
81 1 4 -1.26215 27.399 15.8188 11.1856
82 1 4 -1.26215 9.13299 5.27293 3.72853
83 1 4 -0.60118 27.399 18.9383 11.9641
84 1 4 -0.60118 9.13299 2.15347 2.95001
85 1 4 -0.601179 27.399 17.5926 13.8671
86 1 4 -0.601179 9.13299 3.49912 1.04697
87 1 4 -0.601179 26.2336 13.3722 9.45555
88 1 4 -0.601179 10.2984 7.71958 5.45857
89 1 4 -0.60118 28.5643 13.3722 9.45555
90 1 4 -0.60118 7.96762 7.71958 5.45857
91 1 4 -0.60118 25.8628 14.9319 13.8671
92 1 4 -0.60118 10.6692 6.15984 1.04697
93 1 4 -0.601179 24.6974 14.2591 11.9641
94 1 4 -0.601179 11.8345 6.83267 2.95001
95 1 4 -0.60118 28.9351 18.0514 9.45555
96 1 4 -0.60118 7.59682 3.04037 5.45857
97 1 4 -0.601179 30.1005 16.0329 9.45555
98 1 4 -0.601179 6.43145 5.05885 5.45857
99 1 4 -0.601179 24.6974 16.0329 9.45555
100 1 4 -0.601179 11.8345 5.05885 5.45857
101 1 4 -0.60118 25.8628 18.0514 9.45555
102 1 4 -0.60118 10.6692 3.04037 5.45857
103 1 4 -0.60118 28.9351 14.9319 13.8671
104 1 4 -0.60118 7.59682 6.15984 1.04697
105 1 4 -0.60118 30.1005 14.2591 11.9641
106 1 4 -0.60118 6.43145 6.83267 2.95001
13262 4387 5 -0.35 14.9253 4.5186 11.5657
13263 4387 6 0.7 15.6383 5.17968 10.9331
13264 4387 5 -0.35 16.3514 5.84076 10.3006
13286 4395 5 -0.35 14.0573 9.47756 12.3404
13287 4395 6 0.7 14.0991 9.38412 13.4959
13288 4395 5 -0.35 14.1409 9.29068 14.6513
13331 4410 5 -0.35 18.1859 11.8406 12.1509
13332 4410 6 0.7 17.8802 10.8561 12.6829
13333 4410 5 -0.35 17.5745 9.87163 13.2148
13340 4413 5 -0.35 21.7026 9.48315 5.57904
13341 4413 6 0.7 20.8919 8.94144 4.95068
13342 4413 5 -0.35 20.0811 8.39972 4.32233
13343 4414 5 -0.35 6.3678 3.70833 10.2304
13344 4414 6 0.7 32.9237 18.9111 10.7357
13345 4414 5 -0.35 32.0806 18.295 11.2409
13346 4415 5 -0.35 20.6014 2.66158 3.83032
13347 4415 6 0.7 20.4497 3.68392 4.35701
13348 4415 5 -0.35 20.2979 4.70625 4.8837
13355 4418 5 -0.35 12.3683 1.23836 3.21458
13356 4418 6 0.7 12.2551 0.904043 2.10958
13357 4418 5 -0.35 12.142 0.56973 1.00458
13358 4419 5 -0.35 19.3046 7.40757 10.8649
13359 4419 6 0.7 19.9623 7.27692 9.91836
13360 4419 5 -0.35 20.6199 7.14626 8.9718
13361 4420 5 -0.35 17.0574 5.04564 1.06009
13362 4420 6 0.7 16.6471 5.44052 0.0494592
13363 4420 5 -0.35 25.3698 11.1083 13.9529
ITEM: TIMESTEP
46000
ITEM: NUMBER OF ATOMS
142
ITEM: BOX BOUNDS xy xz yz pp pp pp
0.0000000000000000e+00 3.6531964750000000e+01 9.1329911900000003e+00
0.0000000000000000e+00 2.1091739680000000e+01 9.1329911900000003e+00
0.0000000000000000e+00 1.4914112149999999e+01 5.2729349200000000e+00
ITEM: ATOMS id mol type q x y z
1 1 1 1.10383 27.399 17.6496 10.5383
2 1 1 1.10383 9.13299 3.44217 4.3758
3 1 1 1.10383 27.399 15.8188 13.1274
4 1 1 1.10383 9.13299 5.27293 1.78671
5 1 1 1.10383 25.8135 14.9034 10.5383
6 1 1 1.10383 10.7185 6.18832 4.3758
7 1 1 1.10383 28.9845 14.9034 10.5383
8 1 1 1.10383 7.5475 6.18832 4.3758
9 1 2 0.115889 18.266 5.48596 12.6084
10 1 2 0.115889 18.266 15.6058 2.30572
11 1 2 0.115888 18.266 13.716 0.969417
12 1 2 0.115888 18.266 7.37578 13.9447
13 1 2 0.11589 25.3934 11.4908 8.12521
14 1 2 0.11589 11.1386 9.60096 6.7889
15 1 2 0.115888 11.1386 11.4908 8.12521
16 1 2 0.115888 25.3934 9.60096 6.7889
17 1 2 0.115889 15.5206 8.96083 0.969417
18 1 2 0.115889 21.0114 12.1309 13.9447
19 1 2 0.115888 22.648 13.0758 12.6084
20 1 2 0.115888 13.884 8.01592 2.30572
21 1 2 0.115889 21.0114 3.90092 8.12521
22 1 2 0.115889 15.5206 17.1908 6.7889
23 1 2 0.115887 13.884 16.2459 8.12521
24 1 2 0.115887 22.648 4.84583 6.7889
25 1 2 0.115889 22.648 16.2459 8.12521
26 1 2 0.115889 13.884 4.84583 6.7889
27 1 2 0.115887 15.5206 3.90092 8.12521
28 1 2 0.115887 21.0114 17.1908 6.7889
29 1 2 0.115889 21.0114 8.96083 0.969417
30 1 2 0.115889 15.5206 12.1309 13.9447
31 1 2 0.115887 13.884 13.0758 12.6084
32 1 2 0.115887 22.648 8.01592 2.30572
33 1 3 0.671939 27.399 18.7442 13.2542
34 1 3 0.671939 9.13299 2.34751 1.65994
35 1 3 0.671939 27.399 12.8934 9.117
36 1 3 0.671939 9.13299 8.19836 5.79712
37 1 3 0.67194 24.8655 14.3561 13.2542
38 1 3 0.67194 11.6665 6.73565 1.65994
39 1 3 0.67194 29.9325 17.2815 9.117
40 1 3 0.67194 6.5995 3.81022 5.79712
41 1 3 0.67194 24.8655 17.2815 9.117
42 1 3 0.67194 11.6665 3.81022 5.79712
43 1 3 0.67194 29.9325 14.3561 13.2542
44 1 3 0.67194 6.5995 6.73565 1.65994
45 1 3 -0.11508 27.399 19.957 14.1117
46 1 3 -0.11508 9.13299 1.13474 0.802379
47 1 3 -0.11508 27.399 11.6806 8.25944
48 1 3 -0.11508 9.13299 9.41113 6.65468
49 1 3 -0.11508 23.8152 13.7497 14.1117
50 1 3 -0.11508 12.7168 7.34203 0.802379
51 1 3 -0.11508 30.9828 17.8879 8.25944
52 1 3 -0.11508 5.54921 3.20384 6.65468
53 1 3 -0.11508 23.8152 17.8879 8.25944
54 1 3 -0.11508 12.7168 3.20384 6.65468
55 1 3 -0.11508 30.9828 13.7497 14.1117
56 1 3 -0.11508 5.54921 7.34203 0.802379
57 1 3 -0.0559 18.266 5.39949 13.5316
58 1 3 -0.0559 18.266 15.6923 1.38254
59 1 3 -0.055903 18.266 14.5575 0.580159
60 1 3 -0.055903 18.266 6.53422 14.334
61 1 3 -0.0559 26.1971 11.1132 7.85825
62 1 3 -0.0559 10.3349 9.9785 7.05587
63 1 3 -0.055903 10.3349 11.1132 7.85825
64 1 3 -0.055903 26.1971 9.9785 7.05587
65 1 3 -0.0559 14.7918 8.54005 0.580159
66 1 3 -0.0559 21.7402 12.5517 14.334
67 1 3 -0.055903 22.7229 13.1191 13.5316
68 1 3 -0.055903 13.8091 7.97268 1.38254
69 1 3 -0.0559 21.7402 3.39366 7.85825
70 1 3 -0.0559 14.7918 17.6981 7.05587
71 1 3 -0.055903 13.8091 17.1307 7.85825
72 1 3 -0.055903 22.7229 3.96103 7.05587
73 1 3 -0.055901 22.7229 17.1307 7.85825
74 1 3 -0.055901 13.8091 3.96103 7.05587
75 1 3 -0.055903 14.7918 3.39366 7.85825
76 1 3 -0.055903 21.7402 17.6981 7.05587
77 1 3 -0.0559 21.7402 8.54005 0.580159
78 1 3 -0.0559 14.7918 12.5517 14.334
79 1 3 -0.055903 13.8091 13.1191 13.5316
80 1 3 -0.055903 22.7229 7.97268 1.38254
81 1 4 -1.26215 27.399 15.8188 11.1856
82 1 4 -1.26215 9.13299 5.27293 3.72853
83 1 4 -0.60118 27.399 18.9383 11.9641
84 1 4 -0.60118 9.13299 2.15347 2.95001
85 1 4 -0.601179 27.399 17.5926 13.8671
86 1 4 -0.601179 9.13299 3.49912 1.04697
87 1 4 -0.601179 26.2336 13.3722 9.45555
88 1 4 -0.601179 10.2984 7.71958 5.45857
89 1 4 -0.60118 28.5643 13.3722 9.45555
90 1 4 -0.60118 7.96762 7.71958 5.45857
91 1 4 -0.60118 25.8628 14.9319 13.8671
92 1 4 -0.60118 10.6692 6.15984 1.04697
93 1 4 -0.601179 24.6974 14.2591 11.9641
94 1 4 -0.601179 11.8345 6.83267 2.95001
95 1 4 -0.60118 28.9351 18.0514 9.45555
96 1 4 -0.60118 7.59682 3.04037 5.45857
97 1 4 -0.601179 30.1005 16.0329 9.45555
98 1 4 -0.601179 6.43145 5.05885 5.45857
99 1 4 -0.601179 24.6974 16.0329 9.45555
100 1 4 -0.601179 11.8345 5.05885 5.45857
101 1 4 -0.60118 25.8628 18.0514 9.45555
102 1 4 -0.60118 10.6692 3.04037 5.45857
103 1 4 -0.60118 28.9351 14.9319 13.8671
104 1 4 -0.60118 7.59682 6.15984 1.04697
105 1 4 -0.60118 30.1005 14.2591 11.9641
106 1 4 -0.60118 6.43145 6.83267 2.95001
500 133 5 -0.35 5.77039 2.93688 1.40226
501 133 6 0.7 5.75167 3.20057 0.272779
502 133 5 -0.35 14.8659 8.73719 14.0574
560 153 5 -0.35 23.5614 20.4361 13.4774
561 153 6 0.7 14.6447 4.43526 12.3523
562 153 5 -0.35 14.8609 4.25326 11.2273
572 157 5 -0.35 24.4971 17.348 13.4603
573 157 6 0.7 24.658 17.297 14.6079
574 157 5 -0.35 15.686 11.9731 0.841471
605 168 5 -0.35 31.409 17.7548 14.8539
606 168 6 0.7 22.837 13.4391 0.278401
607 168 5 -0.35 23.398 14.3963 0.616993
638 179 5 -0.35 9.36636 9.51815 2.98108
639 179 6 0.7 8.54802 10.3048 2.74207
640 179 5 -0.35 7.72967 11.0914 2.50307
653 184 5 -0.35 29.5672 16.2554 5.17564
654 184 6 0.7 28.7438 15.5856 5.64358
655 184 5 -0.35 27.9204 14.9158 6.11152
668 189 5 -0.35 9.03992 5.49598 7.21012
669 189 6 0.7 9.79187 5.17334 8.03236
670 189 5 -0.35 10.5438 4.85069 8.85459
674 191 5 -0.35 15.9046 16.6854 13.8135
675 191 6 0.7 15.2846 16.6733 12.8332
676 191 5 -0.35 14.6647 16.6612 11.8528
701 200 5 -0.35 13.6377 13.3149 9.10993
702 200 6 0.7 13.1818 13.5111 8.06147
703 200 5 -0.35 12.7259 13.7074 7.01301
704 201 5 -0.35 15.1877 12.9924 5.30799
705 201 6 0.7 15.0853 13.872 4.5588
706 201 5 -0.35 14.9829 14.7517 3.8096
710 203 5 -0.35 25.387 6.68764 13.688
711 203 6 0.7 24.525 6.78823 14.4577
712 203 5 -0.35 14.5301 1.61588 0.313381
713 204 5 -0.35 20.4823 7.31676 3.9486
714 204 6 0.7 19.5401 7.65398 3.36197
715 204 5 -0.35 18.5979 7.99119 2.77535
ITEM: TIMESTEP
47000
ITEM: NUMBER OF ATOMS
163
ITEM: BOX BOUNDS xy xz yz pp pp pp
0.0000000000000000e+00 3.6531964750000000e+01 9.1329911900000003e+00
0.0000000000000000e+00 2.1091739680000000e+01 9.1329911900000003e+00
0.0000000000000000e+00 1.4914112149999999e+01 5.2729349200000000e+00
ITEM: ATOMS id mol type q x y z
1 1 1 1.10383 27.399 17.6496 10.5383
2 1 1 1.10383 9.13299 3.44217 4.3758
3 1 1 1.10383 27.399 15.8188 13.1274
4 1 1 1.10383 9.13299 5.27293 1.78671
5 1 1 1.10383 25.8135 14.9034 10.5383
6 1 1 1.10383 10.7185 6.18832 4.3758
7 1 1 1.10383 28.9845 14.9034 10.5383
8 1 1 1.10383 7.5475 6.18832 4.3758
9 1 2 0.115889 18.266 5.48596 12.6084
10 1 2 0.115889 18.266 15.6058 2.30572
11 1 2 0.115888 18.266 13.716 0.969417
12 1 2 0.115888 18.266 7.37578 13.9447
13 1 2 0.11589 25.3934 11.4908 8.12521
14 1 2 0.11589 11.1386 9.60096 6.7889
15 1 2 0.115888 11.1386 11.4908 8.12521
16 1 2 0.115888 25.3934 9.60096 6.7889
17 1 2 0.115889 15.5206 8.96083 0.969417
18 1 2 0.115889 21.0114 12.1309 13.9447
19 1 2 0.115888 22.648 13.0758 12.6084
20 1 2 0.115888 13.884 8.01592 2.30572
21 1 2 0.115889 21.0114 3.90092 8.12521
22 1 2 0.115889 15.5206 17.1908 6.7889
23 1 2 0.115887 13.884 16.2459 8.12521
24 1 2 0.115887 22.648 4.84583 6.7889
25 1 2 0.115889 22.648 16.2459 8.12521
26 1 2 0.115889 13.884 4.84583 6.7889
27 1 2 0.115887 15.5206 3.90092 8.12521
28 1 2 0.115887 21.0114 17.1908 6.7889
29 1 2 0.115889 21.0114 8.96083 0.969417
30 1 2 0.115889 15.5206 12.1309 13.9447
31 1 2 0.115887 13.884 13.0758 12.6084
32 1 2 0.115887 22.648 8.01592 2.30572
33 1 3 0.671939 27.399 18.7442 13.2542
34 1 3 0.671939 9.13299 2.34751 1.65994
35 1 3 0.671939 27.399 12.8934 9.117
36 1 3 0.671939 9.13299 8.19836 5.79712
37 1 3 0.67194 24.8655 14.3561 13.2542
38 1 3 0.67194 11.6665 6.73565 1.65994
39 1 3 0.67194 29.9325 17.2815 9.117
40 1 3 0.67194 6.5995 3.81022 5.79712
41 1 3 0.67194 24.8655 17.2815 9.117
42 1 3 0.67194 11.6665 3.81022 5.79712
43 1 3 0.67194 29.9325 14.3561 13.2542
44 1 3 0.67194 6.5995 6.73565 1.65994
45 1 3 -0.11508 27.399 19.957 14.1117
46 1 3 -0.11508 9.13299 1.13474 0.802379
47 1 3 -0.11508 27.399 11.6806 8.25944
48 1 3 -0.11508 9.13299 9.41113 6.65468
49 1 3 -0.11508 23.8152 13.7497 14.1117
50 1 3 -0.11508 12.7168 7.34203 0.802379
51 1 3 -0.11508 30.9828 17.8879 8.25944
52 1 3 -0.11508 5.54921 3.20384 6.65468
53 1 3 -0.11508 23.8152 17.8879 8.25944
54 1 3 -0.11508 12.7168 3.20384 6.65468
55 1 3 -0.11508 30.9828 13.7497 14.1117
56 1 3 -0.11508 5.54921 7.34203 0.802379
57 1 3 -0.0559 18.266 5.39949 13.5316
58 1 3 -0.0559 18.266 15.6923 1.38254
59 1 3 -0.055903 18.266 14.5575 0.580159
60 1 3 -0.055903 18.266 6.53422 14.334
61 1 3 -0.0559 26.1971 11.1132 7.85825
62 1 3 -0.0559 10.3349 9.9785 7.05587
63 1 3 -0.055903 10.3349 11.1132 7.85825
64 1 3 -0.055903 26.1971 9.9785 7.05587
65 1 3 -0.0559 14.7918 8.54005 0.580159
66 1 3 -0.0559 21.7402 12.5517 14.334
67 1 3 -0.055903 22.7229 13.1191 13.5316
68 1 3 -0.055903 13.8091 7.97268 1.38254
69 1 3 -0.0559 21.7402 3.39366 7.85825
70 1 3 -0.0559 14.7918 17.6981 7.05587
71 1 3 -0.055903 13.8091 17.1307 7.85825
72 1 3 -0.055903 22.7229 3.96103 7.05587
73 1 3 -0.055901 22.7229 17.1307 7.85825
74 1 3 -0.055901 13.8091 3.96103 7.05587
75 1 3 -0.055903 14.7918 3.39366 7.85825
76 1 3 -0.055903 21.7402 17.6981 7.05587
77 1 3 -0.0559 21.7402 8.54005 0.580159
78 1 3 -0.0559 14.7918 12.5517 14.334
79 1 3 -0.055903 13.8091 13.1191 13.5316
80 1 3 -0.055903 22.7229 7.97268 1.38254
81 1 4 -1.26215 27.399 15.8188 11.1856
82 1 4 -1.26215 9.13299 5.27293 3.72853
83 1 4 -0.60118 27.399 18.9383 11.9641
84 1 4 -0.60118 9.13299 2.15347 2.95001
85 1 4 -0.601179 27.399 17.5926 13.8671
86 1 4 -0.601179 9.13299 3.49912 1.04697
87 1 4 -0.601179 26.2336 13.3722 9.45555
88 1 4 -0.601179 10.2984 7.71958 5.45857
89 1 4 -0.60118 28.5643 13.3722 9.45555
90 1 4 -0.60118 7.96762 7.71958 5.45857
91 1 4 -0.60118 25.8628 14.9319 13.8671
92 1 4 -0.60118 10.6692 6.15984 1.04697
93 1 4 -0.601179 24.6974 14.2591 11.9641
94 1 4 -0.601179 11.8345 6.83267 2.95001
95 1 4 -0.60118 28.9351 18.0514 9.45555
96 1 4 -0.60118 7.59682 3.04037 5.45857
97 1 4 -0.601179 30.1005 16.0329 9.45555
98 1 4 -0.601179 6.43145 5.05885 5.45857
99 1 4 -0.601179 24.6974 16.0329 9.45555
100 1 4 -0.601179 11.8345 5.05885 5.45857
101 1 4 -0.60118 25.8628 18.0514 9.45555
102 1 4 -0.60118 10.6692 3.04037 5.45857
103 1 4 -0.60118 28.9351 14.9319 13.8671
104 1 4 -0.60118 7.59682 6.15984 1.04697
105 1 4 -0.60118 30.1005 14.2591 11.9641
106 1 4 -0.60118 6.43145 6.83267 2.95001
476 125 5 -0.35 21.2384 8.51675 14.5702
477 125 6 0.7 20.799 9.09523 13.6659
478 125 5 -0.35 20.3595 9.67371 12.7615
743 214 5 -0.35 31.0774 18.5538 14.0584
744 214 6 0.7 30.538 18.0017 13.1926
745 214 5 -0.35 29.9985 17.4496 12.3267
746 215 5 -0.35 13.7741 0.458536 1.16345
747 215 6 0.7 13.6173 0.489232 0.0145089
748 215 5 -0.35 22.5935 5.79286 13.7797
851 250 5 -0.35 9.01114 9.01617 1.666
852 250 6 0.7 9.49151 9.14077 0.617519
853 250 5 -0.35 19.1049 14.5383 14.4831
1013 304 5 -0.35 23.1562 10.1736 5.06047
1014 304 6 0.7 23.9865 10.0653 4.25764
1015 304 5 -0.35 24.8167 9.95698 3.45481
1049 316 5 -0.35 26.9148 12.5997 4.97649
1050 316 6 0.7 26.9265 12.508 3.82018
1051 316 5 -0.35 8.67226 12.4163 2.66387
1058 319 5 -0.35 26.0647 10.8667 13.2731
1059 319 6 0.7 26.1131 10.5058 12.1717
1060 319 5 -0.35 26.1615 10.145 11.0704
1061 320 5 -0.35 23.6629 11.5069 10.7708
1062 320 6 0.7 23.2854 11.4212 9.67728
1063 320 5 -0.35 22.9079 11.3354 8.58377
1097 332 5 -0.35 12.6402 11.1238 2.88565
1098 332 6 0.7 12.6994 11.187 1.72888
1099 332 5 -0.35 12.7585 11.2502 0.572119
1100 333 5 -0.35 6.06029 2.57064 2.58608
1101 333 6 0.7 5.44767 3.31029 1.93553
1102 333 5 -0.35 4.83504 4.04993 1.28498
1106 335 5 -0.35 8.25271 3.96929 9.18105
1107 335 6 0.7 17.524 18.6432 9.05576
1108 335 5 -0.35 17.6623 17.4983 8.93048
1112 337 5 -0.35 15.6774 15.6574 3.53685
1113 337 6 0.7 15.2753 15.4991 2.46035
1114 337 5 -0.35 14.8732 15.3407 1.38386
1121 340 5 -0.35 22.1415 8.35926 8.35405
1122 340 6 0.7 21.4596 8.74366 7.49797
1123 340 5 -0.35 20.7777 9.12806 6.6419
1124 341 5 -0.35 23.5673 6.71447 10.6795
1125 341 6 0.7 23.3799 7.687 11.2834
1126 341 5 -0.35 23.1925 8.65954 11.8872
1136 345 5 -0.35 18.3759 2.3314 5.00934
1137 345 6 0.7 19.2877 1.82342 4.50319
1138 345 5 -0.35 29.3324 17.1342 3.99704
1142 347 5 -0.35 17.2508 10.2159 8.88157
1143 347 6 0.7 17.5783 9.25795 8.31539
1144 347 5 -0.35 17.9059 8.29995 7.7492
1148 349 5 -0.35 15.8266 2.2405 3.21744
1149 349 6 0.7 15.4717 3.12818 3.87448
1150 349 5 -0.35 15.1169 4.01585 4.53153
1151 350 5 -0.35 20.4448 12.6472 10.9643
1152 350 6 0.7 20.2008 12.5389 9.83541
1153 350 5 -0.35 19.9568 12.4306 8.70654
1154 351 5 -0.35 20.3055 19.6053 11.0035
1155 351 6 0.7 20.7369 18.5325 11.097
1156 351 5 -0.35 21.1682 17.4598 11.1905
ITEM: TIMESTEP
48000
ITEM: NUMBER OF ATOMS
163
ITEM: BOX BOUNDS xy xz yz pp pp pp
0.0000000000000000e+00 3.6531964750000000e+01 9.1329911900000003e+00
0.0000000000000000e+00 2.1091739680000000e+01 9.1329911900000003e+00
0.0000000000000000e+00 1.4914112149999999e+01 5.2729349200000000e+00
ITEM: ATOMS id mol type q x y z
1 1 1 1.10383 27.399 17.6496 10.5383
2 1 1 1.10383 9.13299 3.44217 4.3758
3 1 1 1.10383 27.399 15.8188 13.1274
4 1 1 1.10383 9.13299 5.27293 1.78671
5 1 1 1.10383 25.8135 14.9034 10.5383
6 1 1 1.10383 10.7185 6.18832 4.3758
7 1 1 1.10383 28.9845 14.9034 10.5383
8 1 1 1.10383 7.5475 6.18832 4.3758
9 1 2 0.115889 18.266 5.48596 12.6084
10 1 2 0.115889 18.266 15.6058 2.30572
11 1 2 0.115888 18.266 13.716 0.969417
12 1 2 0.115888 18.266 7.37578 13.9447
13 1 2 0.11589 25.3934 11.4908 8.12521
14 1 2 0.11589 11.1386 9.60096 6.7889
15 1 2 0.115888 11.1386 11.4908 8.12521
16 1 2 0.115888 25.3934 9.60096 6.7889
17 1 2 0.115889 15.5206 8.96083 0.969417
18 1 2 0.115889 21.0114 12.1309 13.9447
19 1 2 0.115888 22.648 13.0758 12.6084
20 1 2 0.115888 13.884 8.01592 2.30572
21 1 2 0.115889 21.0114 3.90092 8.12521
22 1 2 0.115889 15.5206 17.1908 6.7889
23 1 2 0.115887 13.884 16.2459 8.12521
24 1 2 0.115887 22.648 4.84583 6.7889
25 1 2 0.115889 22.648 16.2459 8.12521
26 1 2 0.115889 13.884 4.84583 6.7889
27 1 2 0.115887 15.5206 3.90092 8.12521
28 1 2 0.115887 21.0114 17.1908 6.7889
29 1 2 0.115889 21.0114 8.96083 0.969417
30 1 2 0.115889 15.5206 12.1309 13.9447
31 1 2 0.115887 13.884 13.0758 12.6084
32 1 2 0.115887 22.648 8.01592 2.30572
33 1 3 0.671939 27.399 18.7442 13.2542
34 1 3 0.671939 9.13299 2.34751 1.65994
35 1 3 0.671939 27.399 12.8934 9.117
36 1 3 0.671939 9.13299 8.19836 5.79712
37 1 3 0.67194 24.8655 14.3561 13.2542
38 1 3 0.67194 11.6665 6.73565 1.65994
39 1 3 0.67194 29.9325 17.2815 9.117
40 1 3 0.67194 6.5995 3.81022 5.79712
41 1 3 0.67194 24.8655 17.2815 9.117
42 1 3 0.67194 11.6665 3.81022 5.79712
43 1 3 0.67194 29.9325 14.3561 13.2542
44 1 3 0.67194 6.5995 6.73565 1.65994
45 1 3 -0.11508 27.399 19.957 14.1117
46 1 3 -0.11508 9.13299 1.13474 0.802379
47 1 3 -0.11508 27.399 11.6806 8.25944
48 1 3 -0.11508 9.13299 9.41113 6.65468
49 1 3 -0.11508 23.8152 13.7497 14.1117
50 1 3 -0.11508 12.7168 7.34203 0.802379
51 1 3 -0.11508 30.9828 17.8879 8.25944
52 1 3 -0.11508 5.54921 3.20384 6.65468
53 1 3 -0.11508 23.8152 17.8879 8.25944
54 1 3 -0.11508 12.7168 3.20384 6.65468
55 1 3 -0.11508 30.9828 13.7497 14.1117
56 1 3 -0.11508 5.54921 7.34203 0.802379
57 1 3 -0.0559 18.266 5.39949 13.5316
58 1 3 -0.0559 18.266 15.6923 1.38254
59 1 3 -0.055903 18.266 14.5575 0.580159
60 1 3 -0.055903 18.266 6.53422 14.334
61 1 3 -0.0559 26.1971 11.1132 7.85825
62 1 3 -0.0559 10.3349 9.9785 7.05587
63 1 3 -0.055903 10.3349 11.1132 7.85825
64 1 3 -0.055903 26.1971 9.9785 7.05587
65 1 3 -0.0559 14.7918 8.54005 0.580159
66 1 3 -0.0559 21.7402 12.5517 14.334
67 1 3 -0.055903 22.7229 13.1191 13.5316
68 1 3 -0.055903 13.8091 7.97268 1.38254
69 1 3 -0.0559 21.7402 3.39366 7.85825
70 1 3 -0.0559 14.7918 17.6981 7.05587
71 1 3 -0.055903 13.8091 17.1307 7.85825
72 1 3 -0.055903 22.7229 3.96103 7.05587
73 1 3 -0.055901 22.7229 17.1307 7.85825
74 1 3 -0.055901 13.8091 3.96103 7.05587
75 1 3 -0.055903 14.7918 3.39366 7.85825
76 1 3 -0.055903 21.7402 17.6981 7.05587
77 1 3 -0.0559 21.7402 8.54005 0.580159
78 1 3 -0.0559 14.7918 12.5517 14.334
79 1 3 -0.055903 13.8091 13.1191 13.5316
80 1 3 -0.055903 22.7229 7.97268 1.38254
81 1 4 -1.26215 27.399 15.8188 11.1856
82 1 4 -1.26215 9.13299 5.27293 3.72853
83 1 4 -0.60118 27.399 18.9383 11.9641
84 1 4 -0.60118 9.13299 2.15347 2.95001
85 1 4 -0.601179 27.399 17.5926 13.8671
86 1 4 -0.601179 9.13299 3.49912 1.04697
87 1 4 -0.601179 26.2336 13.3722 9.45555
88 1 4 -0.601179 10.2984 7.71958 5.45857
89 1 4 -0.60118 28.5643 13.3722 9.45555
90 1 4 -0.60118 7.96762 7.71958 5.45857
91 1 4 -0.60118 25.8628 14.9319 13.8671
92 1 4 -0.60118 10.6692 6.15984 1.04697
93 1 4 -0.601179 24.6974 14.2591 11.9641
94 1 4 -0.601179 11.8345 6.83267 2.95001
95 1 4 -0.60118 28.9351 18.0514 9.45555
96 1 4 -0.60118 7.59682 3.04037 5.45857
97 1 4 -0.601179 30.1005 16.0329 9.45555
98 1 4 -0.601179 6.43145 5.05885 5.45857
99 1 4 -0.601179 24.6974 16.0329 9.45555
100 1 4 -0.601179 11.8345 5.05885 5.45857
101 1 4 -0.60118 25.8628 18.0514 9.45555
102 1 4 -0.60118 10.6692 3.04037 5.45857
103 1 4 -0.60118 28.9351 14.9319 13.8671
104 1 4 -0.60118 7.59682 6.15984 1.04697
105 1 4 -0.60118 30.1005 14.2591 11.9641
106 1 4 -0.60118 6.43145 6.83267 2.95001
500 133 5 -0.35 5.50799 2.2185 1.96292
501 133 6 0.7 5.56867 1.49001 1.06224
502 133 5 -0.35 5.62935 0.761526 0.161563
794 231 5 -0.35 28.7561 11.7599 11.7186
795 231 6 0.7 11.3944 11.381 11.0986
796 231 5 -0.35 12.2986 11.0022 10.4786
827 242 5 -0.35 8.84914 8.92498 1.97983
828 242 6 0.7 8.7684 9.18142 0.851414
829 242 5 -0.35 17.8206 14.7108 14.6371
845 248 5 -0.35 13.1113 11.5094 2.10642
846 248 6 0.7 12.625 11.433 1.05601
847 248 5 -0.35 12.1388 11.3566 0.00559419
911 270 5 -0.35 22.2977 7.89471 5.38721
912 270 6 0.7 21.8415 7.08521 4.69279
913 270 5 -0.35 21.3854 6.27571 3.99836
914 271 5 -0.35 20.7294 2.62734 4.55095
915 271 6 0.7 20.7728 2.76204 3.39961
916 271 5 -0.35 20.8162 2.89675 2.24828
920 273 5 -0.35 16.1854 12.2434 2.11655
921 273 6 0.7 15.7544 12.1715 1.04198
922 273 5 -0.35 24.4565 17.3725 14.8815
947 282 5 -0.35 22.8723 9.53405 10.777
948 282 6 0.7 23.5046 9.06528 9.9249
949 282 5 -0.35 24.1368 8.59652 9.07279
971 290 5 -0.35 19.1285 13.8848 6.99616
972 290 6 0.7 18.183 14.4288 6.60165
973 290 5 -0.35 17.2374 14.9728 6.20715
989 296 5 -0.35 13.5964 10.8833 6.76398
990 296 6 0.7 14.588 10.9074 6.16262
991 296 5 -0.35 15.5797 10.9316 5.56127
998 299 5 -0.35 12.8544 2.41424 1.08523
999 299 6 0.7 12.584 2.05331 0.0164933
1000 299 5 -0.35 21.4466 6.96531 13.8619
1004 301 5 -0.35 19.2542 18.5377 9.50139
1005 301 6 0.7 18.9015 17.6644 8.82415
1006 301 5 -0.35 18.5489 16.7911 8.14691
1007 302 5 -0.35 11.0106 14.5603 5.96459
1008 302 6 0.7 12.111 14.3027 5.70322
1009 302 5 -0.35 13.2114 14.045 5.44185
1019 306 5 -0.35 25.9435 11.1996 13.1849
1020 306 6 0.7 25.9475 10.2247 12.5561
1021 306 5 -0.35 25.9515 9.24991 11.9274
1028 309 5 -0.35 11.9098 8.30903 9.52052
1029 309 6 0.7 12.5352 7.85042 8.65789
1030 309 5 -0.35 13.1606 7.39181 7.79526
1037 312 5 -0.35 22.8492 12.7079 9.26256
1038 312 6 0.7 23.1343 12.8443 8.14644
1039 312 5 -0.35 23.4194 12.9806 7.03033
1040 313 5 -0.35 23.4756 12.8101 2.26485
1041 313 6 0.7 22.9001 13.78 2.5362
1042 313 5 -0.35 22.3245 14.7499 2.80755
1043 314 5 -0.35 18.163 5.01781 7.15807
1044 314 6 0.7 18.2308 5.08052 6.00176
1045 314 5 -0.35 18.2986 5.14323 4.84544
1046 315 5 -0.35 20.2658 14.1088 11.6577
1047 315 6 0.7 19.9989 15.2215 11.8481
1048 315 5 -0.35 19.7321 16.3343 12.0386
ITEM: TIMESTEP
49000
ITEM: NUMBER OF ATOMS
121
ITEM: BOX BOUNDS xy xz yz pp pp pp
0.0000000000000000e+00 3.6531964750000000e+01 9.1329911900000003e+00
0.0000000000000000e+00 2.1091739680000000e+01 9.1329911900000003e+00
0.0000000000000000e+00 1.4914112149999999e+01 5.2729349200000000e+00
ITEM: ATOMS id mol type q x y z
1 1 1 1.10383 27.399 17.6496 10.5383
2 1 1 1.10383 9.13299 3.44217 4.3758
3 1 1 1.10383 27.399 15.8188 13.1274
4 1 1 1.10383 9.13299 5.27293 1.78671
5 1 1 1.10383 25.8135 14.9034 10.5383
6 1 1 1.10383 10.7185 6.18832 4.3758
7 1 1 1.10383 28.9845 14.9034 10.5383
8 1 1 1.10383 7.5475 6.18832 4.3758
9 1 2 0.115889 18.266 5.48596 12.6084
10 1 2 0.115889 18.266 15.6058 2.30572
11 1 2 0.115888 18.266 13.716 0.969417
12 1 2 0.115888 18.266 7.37578 13.9447
13 1 2 0.11589 25.3934 11.4908 8.12521
14 1 2 0.11589 11.1386 9.60096 6.7889
15 1 2 0.115888 11.1386 11.4908 8.12521
16 1 2 0.115888 25.3934 9.60096 6.7889
17 1 2 0.115889 15.5206 8.96083 0.969417
18 1 2 0.115889 21.0114 12.1309 13.9447
19 1 2 0.115888 22.648 13.0758 12.6084
20 1 2 0.115888 13.884 8.01592 2.30572
21 1 2 0.115889 21.0114 3.90092 8.12521
22 1 2 0.115889 15.5206 17.1908 6.7889
23 1 2 0.115887 13.884 16.2459 8.12521
24 1 2 0.115887 22.648 4.84583 6.7889
25 1 2 0.115889 22.648 16.2459 8.12521
26 1 2 0.115889 13.884 4.84583 6.7889
27 1 2 0.115887 15.5206 3.90092 8.12521
28 1 2 0.115887 21.0114 17.1908 6.7889
29 1 2 0.115889 21.0114 8.96083 0.969417
30 1 2 0.115889 15.5206 12.1309 13.9447
31 1 2 0.115887 13.884 13.0758 12.6084
32 1 2 0.115887 22.648 8.01592 2.30572
33 1 3 0.671939 27.399 18.7442 13.2542
34 1 3 0.671939 9.13299 2.34751 1.65994
35 1 3 0.671939 27.399 12.8934 9.117
36 1 3 0.671939 9.13299 8.19836 5.79712
37 1 3 0.67194 24.8655 14.3561 13.2542
38 1 3 0.67194 11.6665 6.73565 1.65994
39 1 3 0.67194 29.9325 17.2815 9.117
40 1 3 0.67194 6.5995 3.81022 5.79712
41 1 3 0.67194 24.8655 17.2815 9.117
42 1 3 0.67194 11.6665 3.81022 5.79712
43 1 3 0.67194 29.9325 14.3561 13.2542
44 1 3 0.67194 6.5995 6.73565 1.65994
45 1 3 -0.11508 27.399 19.957 14.1117
46 1 3 -0.11508 9.13299 1.13474 0.802379
47 1 3 -0.11508 27.399 11.6806 8.25944
48 1 3 -0.11508 9.13299 9.41113 6.65468
49 1 3 -0.11508 23.8152 13.7497 14.1117
50 1 3 -0.11508 12.7168 7.34203 0.802379
51 1 3 -0.11508 30.9828 17.8879 8.25944
52 1 3 -0.11508 5.54921 3.20384 6.65468
53 1 3 -0.11508 23.8152 17.8879 8.25944
54 1 3 -0.11508 12.7168 3.20384 6.65468
55 1 3 -0.11508 30.9828 13.7497 14.1117
56 1 3 -0.11508 5.54921 7.34203 0.802379
57 1 3 -0.0559 18.266 5.39949 13.5316
58 1 3 -0.0559 18.266 15.6923 1.38254
59 1 3 -0.055903 18.266 14.5575 0.580159
60 1 3 -0.055903 18.266 6.53422 14.334
61 1 3 -0.0559 26.1971 11.1132 7.85825
62 1 3 -0.0559 10.3349 9.9785 7.05587
63 1 3 -0.055903 10.3349 11.1132 7.85825
64 1 3 -0.055903 26.1971 9.9785 7.05587
65 1 3 -0.0559 14.7918 8.54005 0.580159
66 1 3 -0.0559 21.7402 12.5517 14.334
67 1 3 -0.055903 22.7229 13.1191 13.5316
68 1 3 -0.055903 13.8091 7.97268 1.38254
69 1 3 -0.0559 21.7402 3.39366 7.85825
70 1 3 -0.0559 14.7918 17.6981 7.05587
71 1 3 -0.055903 13.8091 17.1307 7.85825
72 1 3 -0.055903 22.7229 3.96103 7.05587
73 1 3 -0.055901 22.7229 17.1307 7.85825
74 1 3 -0.055901 13.8091 3.96103 7.05587
75 1 3 -0.055903 14.7918 3.39366 7.85825
76 1 3 -0.055903 21.7402 17.6981 7.05587
77 1 3 -0.0559 21.7402 8.54005 0.580159
78 1 3 -0.0559 14.7918 12.5517 14.334
79 1 3 -0.055903 13.8091 13.1191 13.5316
80 1 3 -0.055903 22.7229 7.97268 1.38254
81 1 4 -1.26215 27.399 15.8188 11.1856
82 1 4 -1.26215 9.13299 5.27293 3.72853
83 1 4 -0.60118 27.399 18.9383 11.9641
84 1 4 -0.60118 9.13299 2.15347 2.95001
85 1 4 -0.601179 27.399 17.5926 13.8671
86 1 4 -0.601179 9.13299 3.49912 1.04697
87 1 4 -0.601179 26.2336 13.3722 9.45555
88 1 4 -0.601179 10.2984 7.71958 5.45857
89 1 4 -0.60118 28.5643 13.3722 9.45555
90 1 4 -0.60118 7.96762 7.71958 5.45857
91 1 4 -0.60118 25.8628 14.9319 13.8671
92 1 4 -0.60118 10.6692 6.15984 1.04697
93 1 4 -0.601179 24.6974 14.2591 11.9641
94 1 4 -0.601179 11.8345 6.83267 2.95001
95 1 4 -0.60118 28.9351 18.0514 9.45555
96 1 4 -0.60118 7.59682 3.04037 5.45857
97 1 4 -0.601179 30.1005 16.0329 9.45555
98 1 4 -0.601179 6.43145 5.05885 5.45857
99 1 4 -0.601179 24.6974 16.0329 9.45555
100 1 4 -0.601179 11.8345 5.05885 5.45857
101 1 4 -0.60118 25.8628 18.0514 9.45555
102 1 4 -0.60118 10.6692 3.04037 5.45857
103 1 4 -0.60118 28.9351 14.9319 13.8671
104 1 4 -0.60118 7.59682 6.15984 1.04697
105 1 4 -0.60118 30.1005 14.2591 11.9641
106 1 4 -0.60118 6.43145 6.83267 2.95001
2231 710 5 -0.35 22.0447 12.3679 0.0720587
2232 710 6 0.7 31.9473 17.2286 14.2224
2233 710 5 -0.35 32.717 16.8164 13.4587
2264 721 5 -0.35 17.3864 18.312 13.759
2265 721 6 0.7 17.5032 18.1059 12.6234
2266 721 5 -0.35 17.6201 17.8997 11.4879
2270 723 5 -0.35 10.6374 10.2377 1.59649
2271 723 6 0.7 10.468 10.4017 0.460701
2272 723 5 -0.35 19.4316 15.8386 14.239
2279 726 5 -0.35 12.4842 6.42195 8.37597
2280 726 6 0.7 11.3831 6.12073 8.16964
2281 726 5 -0.35 10.2821 5.81952 7.9633
2288 729 5 -0.35 22.405 5.7404 14.5324
2289 729 6 0.7 22.1288 5.3356 13.481
2290 729 5 -0.35 21.8527 4.9308 12.4296
ITEM: TIMESTEP
50000
ITEM: NUMBER OF ATOMS
139
ITEM: BOX BOUNDS xy xz yz pp pp pp
0.0000000000000000e+00 3.6531964750000000e+01 9.1329911900000003e+00
0.0000000000000000e+00 2.1091739680000000e+01 9.1329911900000003e+00
0.0000000000000000e+00 1.4914112149999999e+01 5.2729349200000000e+00
ITEM: ATOMS id mol type q x y z
1 1 1 1.10383 27.399 17.6496 10.5383
2 1 1 1.10383 9.13299 3.44217 4.3758
3 1 1 1.10383 27.399 15.8188 13.1274
4 1 1 1.10383 9.13299 5.27293 1.78671
5 1 1 1.10383 25.8135 14.9034 10.5383
6 1 1 1.10383 10.7185 6.18832 4.3758
7 1 1 1.10383 28.9845 14.9034 10.5383
8 1 1 1.10383 7.5475 6.18832 4.3758
9 1 2 0.115889 18.266 5.48596 12.6084
10 1 2 0.115889 18.266 15.6058 2.30572
11 1 2 0.115888 18.266 13.716 0.969417
12 1 2 0.115888 18.266 7.37578 13.9447
13 1 2 0.11589 25.3934 11.4908 8.12521
14 1 2 0.11589 11.1386 9.60096 6.7889
15 1 2 0.115888 11.1386 11.4908 8.12521
16 1 2 0.115888 25.3934 9.60096 6.7889
17 1 2 0.115889 15.5206 8.96083 0.969417
18 1 2 0.115889 21.0114 12.1309 13.9447
19 1 2 0.115888 22.648 13.0758 12.6084
20 1 2 0.115888 13.884 8.01592 2.30572
21 1 2 0.115889 21.0114 3.90092 8.12521
22 1 2 0.115889 15.5206 17.1908 6.7889
23 1 2 0.115887 13.884 16.2459 8.12521
24 1 2 0.115887 22.648 4.84583 6.7889
25 1 2 0.115889 22.648 16.2459 8.12521
26 1 2 0.115889 13.884 4.84583 6.7889
27 1 2 0.115887 15.5206 3.90092 8.12521
28 1 2 0.115887 21.0114 17.1908 6.7889
29 1 2 0.115889 21.0114 8.96083 0.969417
30 1 2 0.115889 15.5206 12.1309 13.9447
31 1 2 0.115887 13.884 13.0758 12.6084
32 1 2 0.115887 22.648 8.01592 2.30572
33 1 3 0.671939 27.399 18.7442 13.2542
34 1 3 0.671939 9.13299 2.34751 1.65994
35 1 3 0.671939 27.399 12.8934 9.117
36 1 3 0.671939 9.13299 8.19836 5.79712
37 1 3 0.67194 24.8655 14.3561 13.2542
38 1 3 0.67194 11.6665 6.73565 1.65994
39 1 3 0.67194 29.9325 17.2815 9.117
40 1 3 0.67194 6.5995 3.81022 5.79712
41 1 3 0.67194 24.8655 17.2815 9.117
42 1 3 0.67194 11.6665 3.81022 5.79712
43 1 3 0.67194 29.9325 14.3561 13.2542
44 1 3 0.67194 6.5995 6.73565 1.65994
45 1 3 -0.11508 27.399 19.957 14.1117
46 1 3 -0.11508 9.13299 1.13474 0.802379
47 1 3 -0.11508 27.399 11.6806 8.25944
48 1 3 -0.11508 9.13299 9.41113 6.65468
49 1 3 -0.11508 23.8152 13.7497 14.1117
50 1 3 -0.11508 12.7168 7.34203 0.802379
51 1 3 -0.11508 30.9828 17.8879 8.25944
52 1 3 -0.11508 5.54921 3.20384 6.65468
53 1 3 -0.11508 23.8152 17.8879 8.25944
54 1 3 -0.11508 12.7168 3.20384 6.65468
55 1 3 -0.11508 30.9828 13.7497 14.1117
56 1 3 -0.11508 5.54921 7.34203 0.802379
57 1 3 -0.0559 18.266 5.39949 13.5316
58 1 3 -0.0559 18.266 15.6923 1.38254
59 1 3 -0.055903 18.266 14.5575 0.580159
60 1 3 -0.055903 18.266 6.53422 14.334
61 1 3 -0.0559 26.1971 11.1132 7.85825
62 1 3 -0.0559 10.3349 9.9785 7.05587
63 1 3 -0.055903 10.3349 11.1132 7.85825
64 1 3 -0.055903 26.1971 9.9785 7.05587
65 1 3 -0.0559 14.7918 8.54005 0.580159
66 1 3 -0.0559 21.7402 12.5517 14.334
67 1 3 -0.055903 22.7229 13.1191 13.5316
68 1 3 -0.055903 13.8091 7.97268 1.38254
69 1 3 -0.0559 21.7402 3.39366 7.85825
70 1 3 -0.0559 14.7918 17.6981 7.05587
71 1 3 -0.055903 13.8091 17.1307 7.85825
72 1 3 -0.055903 22.7229 3.96103 7.05587
73 1 3 -0.055901 22.7229 17.1307 7.85825
74 1 3 -0.055901 13.8091 3.96103 7.05587
75 1 3 -0.055903 14.7918 3.39366 7.85825
76 1 3 -0.055903 21.7402 17.6981 7.05587
77 1 3 -0.0559 21.7402 8.54005 0.580159
78 1 3 -0.0559 14.7918 12.5517 14.334
79 1 3 -0.055903 13.8091 13.1191 13.5316
80 1 3 -0.055903 22.7229 7.97268 1.38254
81 1 4 -1.26215 27.399 15.8188 11.1856
82 1 4 -1.26215 9.13299 5.27293 3.72853
83 1 4 -0.60118 27.399 18.9383 11.9641
84 1 4 -0.60118 9.13299 2.15347 2.95001
85 1 4 -0.601179 27.399 17.5926 13.8671
86 1 4 -0.601179 9.13299 3.49912 1.04697
87 1 4 -0.601179 26.2336 13.3722 9.45555
88 1 4 -0.601179 10.2984 7.71958 5.45857
89 1 4 -0.60118 28.5643 13.3722 9.45555
90 1 4 -0.60118 7.96762 7.71958 5.45857
91 1 4 -0.60118 25.8628 14.9319 13.8671
92 1 4 -0.60118 10.6692 6.15984 1.04697
93 1 4 -0.601179 24.6974 14.2591 11.9641
94 1 4 -0.601179 11.8345 6.83267 2.95001
95 1 4 -0.60118 28.9351 18.0514 9.45555
96 1 4 -0.60118 7.59682 3.04037 5.45857
97 1 4 -0.601179 30.1005 16.0329 9.45555
98 1 4 -0.601179 6.43145 5.05885 5.45857
99 1 4 -0.601179 24.6974 16.0329 9.45555
100 1 4 -0.601179 11.8345 5.05885 5.45857
101 1 4 -0.60118 25.8628 18.0514 9.45555
102 1 4 -0.60118 10.6692 3.04037 5.45857
103 1 4 -0.60118 28.9351 14.9319 13.8671
104 1 4 -0.60118 7.59682 6.15984 1.04697
105 1 4 -0.60118 30.1005 14.2591 11.9641
106 1 4 -0.60118 6.43145 6.83267 2.95001
3557 1152 5 -0.35 14.8781 12.6792 0.606168
3558 1152 6 0.7 24.193 17.6859 14.406
3559 1152 5 -0.35 24.3749 17.4197 13.2917
3620 1173 5 -0.35 19.571 3.09986 4.65668
3621 1173 6 0.7 19.4024 2.39321 5.56101
3622 1173 5 -0.35 28.3667 17.5054 6.46533
3632 1177 5 -0.35 12.4957 3.31939 2.71609
3633 1177 6 0.7 12.5703 2.22549 2.33742
3634 1177 5 -0.35 12.645 1.13158 1.95874
3644 1181 5 -0.35 15.7321 15.962 4.35845
3645 1181 6 0.7 15.6573 16.8874 3.66308
3646 1181 5 -0.35 6.4496 1.99408 2.9677
3668 1189 5 -0.35 9.02635 8.50524 9.60555
3669 1189 6 0.7 9.10854 7.43291 9.17085
3670 1189 5 -0.35 9.19073 6.36059 8.73616
3686 1195 5 -0.35 17.9451 16.4277 10.1003
3687 1195 6 0.7 18.8284 16.1393 9.40603
3688 1195 5 -0.35 19.7118 15.8508 8.71172
3695 1198 5 -0.35 16.8471 9.40114 12.4567
3696 1198 6 0.7 16.6936 10.2294 11.6592
3697 1198 5 -0.35 16.5402 11.0577 10.8617
3698 1199 5 -0.35 26.4348 10.4405 13.8382
3699 1199 6 0.7 25.9645 9.38089 13.7977
3700 1199 5 -0.35 25.4942 8.32128 13.7572
3701 1200 5 -0.35 19.2447 11.6514 8.45658
3702 1200 6 0.7 18.9255 12.419 9.26557
3703 1200 5 -0.35 18.6062 13.1866 10.0746
3704 1201 5 -0.35 34.0095 19.7411 12.1695
3705 1201 6 0.7 16.8577 19.7502 11.8471
3706 1201 5 -0.35 17.972 19.7594 11.5247
3707 1202 5 -0.35 21.184 7.43078 8.80826
3708 1202 6 0.7 21.0686 7.42484 7.65403
3709 1202 5 -0.35 20.9533 7.4189 6.4998
ITEM: TIMESTEP
51000
ITEM: NUMBER OF ATOMS
124
ITEM: BOX BOUNDS xy xz yz pp pp pp
0.0000000000000000e+00 3.6531964750000000e+01 9.1329911900000003e+00
0.0000000000000000e+00 2.1091739680000000e+01 9.1329911900000003e+00
0.0000000000000000e+00 1.4914112149999999e+01 5.2729349200000000e+00
ITEM: ATOMS id mol type q x y z
1 1 1 1.10383 27.399 17.6496 10.5383
2 1 1 1.10383 9.13299 3.44217 4.3758
3 1 1 1.10383 27.399 15.8188 13.1274
4 1 1 1.10383 9.13299 5.27293 1.78671
5 1 1 1.10383 25.8135 14.9034 10.5383
6 1 1 1.10383 10.7185 6.18832 4.3758
7 1 1 1.10383 28.9845 14.9034 10.5383
8 1 1 1.10383 7.5475 6.18832 4.3758
9 1 2 0.115889 18.266 5.48596 12.6084
10 1 2 0.115889 18.266 15.6058 2.30572
11 1 2 0.115888 18.266 13.716 0.969417
12 1 2 0.115888 18.266 7.37578 13.9447
13 1 2 0.11589 25.3934 11.4908 8.12521
14 1 2 0.11589 11.1386 9.60096 6.7889
15 1 2 0.115888 11.1386 11.4908 8.12521
16 1 2 0.115888 25.3934 9.60096 6.7889
17 1 2 0.115889 15.5206 8.96083 0.969417
18 1 2 0.115889 21.0114 12.1309 13.9447
19 1 2 0.115888 22.648 13.0758 12.6084
20 1 2 0.115888 13.884 8.01592 2.30572
21 1 2 0.115889 21.0114 3.90092 8.12521
22 1 2 0.115889 15.5206 17.1908 6.7889
23 1 2 0.115887 13.884 16.2459 8.12521
24 1 2 0.115887 22.648 4.84583 6.7889
25 1 2 0.115889 22.648 16.2459 8.12521
26 1 2 0.115889 13.884 4.84583 6.7889
27 1 2 0.115887 15.5206 3.90092 8.12521
28 1 2 0.115887 21.0114 17.1908 6.7889
29 1 2 0.115889 21.0114 8.96083 0.969417
30 1 2 0.115889 15.5206 12.1309 13.9447
31 1 2 0.115887 13.884 13.0758 12.6084
32 1 2 0.115887 22.648 8.01592 2.30572
33 1 3 0.671939 27.399 18.7442 13.2542
34 1 3 0.671939 9.13299 2.34751 1.65994
35 1 3 0.671939 27.399 12.8934 9.117
36 1 3 0.671939 9.13299 8.19836 5.79712
37 1 3 0.67194 24.8655 14.3561 13.2542
38 1 3 0.67194 11.6665 6.73565 1.65994
39 1 3 0.67194 29.9325 17.2815 9.117
40 1 3 0.67194 6.5995 3.81022 5.79712
41 1 3 0.67194 24.8655 17.2815 9.117
42 1 3 0.67194 11.6665 3.81022 5.79712
43 1 3 0.67194 29.9325 14.3561 13.2542
44 1 3 0.67194 6.5995 6.73565 1.65994
45 1 3 -0.11508 27.399 19.957 14.1117
46 1 3 -0.11508 9.13299 1.13474 0.802379
47 1 3 -0.11508 27.399 11.6806 8.25944
48 1 3 -0.11508 9.13299 9.41113 6.65468
49 1 3 -0.11508 23.8152 13.7497 14.1117
50 1 3 -0.11508 12.7168 7.34203 0.802379
51 1 3 -0.11508 30.9828 17.8879 8.25944
52 1 3 -0.11508 5.54921 3.20384 6.65468
53 1 3 -0.11508 23.8152 17.8879 8.25944
54 1 3 -0.11508 12.7168 3.20384 6.65468
55 1 3 -0.11508 30.9828 13.7497 14.1117
56 1 3 -0.11508 5.54921 7.34203 0.802379
57 1 3 -0.0559 18.266 5.39949 13.5316
58 1 3 -0.0559 18.266 15.6923 1.38254
59 1 3 -0.055903 18.266 14.5575 0.580159
60 1 3 -0.055903 18.266 6.53422 14.334
61 1 3 -0.0559 26.1971 11.1132 7.85825
62 1 3 -0.0559 10.3349 9.9785 7.05587
63 1 3 -0.055903 10.3349 11.1132 7.85825
64 1 3 -0.055903 26.1971 9.9785 7.05587
65 1 3 -0.0559 14.7918 8.54005 0.580159
66 1 3 -0.0559 21.7402 12.5517 14.334
67 1 3 -0.055903 22.7229 13.1191 13.5316
68 1 3 -0.055903 13.8091 7.97268 1.38254
69 1 3 -0.0559 21.7402 3.39366 7.85825
70 1 3 -0.0559 14.7918 17.6981 7.05587
71 1 3 -0.055903 13.8091 17.1307 7.85825
72 1 3 -0.055903 22.7229 3.96103 7.05587
73 1 3 -0.055901 22.7229 17.1307 7.85825
74 1 3 -0.055901 13.8091 3.96103 7.05587
75 1 3 -0.055903 14.7918 3.39366 7.85825
76 1 3 -0.055903 21.7402 17.6981 7.05587
77 1 3 -0.0559 21.7402 8.54005 0.580159
78 1 3 -0.0559 14.7918 12.5517 14.334
79 1 3 -0.055903 13.8091 13.1191 13.5316
80 1 3 -0.055903 22.7229 7.97268 1.38254
81 1 4 -1.26215 27.399 15.8188 11.1856
82 1 4 -1.26215 9.13299 5.27293 3.72853
83 1 4 -0.60118 27.399 18.9383 11.9641
84 1 4 -0.60118 9.13299 2.15347 2.95001
85 1 4 -0.601179 27.399 17.5926 13.8671
86 1 4 -0.601179 9.13299 3.49912 1.04697
87 1 4 -0.601179 26.2336 13.3722 9.45555
88 1 4 -0.601179 10.2984 7.71958 5.45857
89 1 4 -0.60118 28.5643 13.3722 9.45555
90 1 4 -0.60118 7.96762 7.71958 5.45857
91 1 4 -0.60118 25.8628 14.9319 13.8671
92 1 4 -0.60118 10.6692 6.15984 1.04697
93 1 4 -0.601179 24.6974 14.2591 11.9641
94 1 4 -0.601179 11.8345 6.83267 2.95001
95 1 4 -0.60118 28.9351 18.0514 9.45555
96 1 4 -0.60118 7.59682 3.04037 5.45857
97 1 4 -0.601179 30.1005 16.0329 9.45555
98 1 4 -0.601179 6.43145 5.05885 5.45857
99 1 4 -0.601179 24.6974 16.0329 9.45555
100 1 4 -0.601179 11.8345 5.05885 5.45857
101 1 4 -0.60118 25.8628 18.0514 9.45555
102 1 4 -0.60118 10.6692 3.04037 5.45857
103 1 4 -0.60118 28.9351 14.9319 13.8671
104 1 4 -0.60118 7.59682 6.15984 1.04697
105 1 4 -0.60118 30.1005 14.2591 11.9641
106 1 4 -0.60118 6.43145 6.83267 2.95001
4823 1574 5 -0.35 15.1523 6.00507 10.0935
4824 1574 6 0.7 14.8855 5.02245 10.6493
4825 1574 5 -0.35 14.6188 4.03983 11.2051
5078 1659 5 -0.35 27.3728 15.9713 7.33276
5079 1659 6 0.7 28.1896 15.1681 7.1502
5080 1659 5 -0.35 29.0064 14.365 6.96765
5093 1664 5 -0.35 23.109 13.269 9.54869
5094 1664 6 0.7 23.1629 12.9166 8.44484
5095 1664 5 -0.35 23.2168 12.5641 7.34099
5099 1666 5 -0.35 25.5016 17.1519 3.91621
5100 1666 6 0.7 25.5398 16.0414 4.24925
5101 1666 5 -0.35 25.5781 14.9309 4.5823
5102 1667 5 -0.35 20.2644 8.05931 4.19849
5103 1667 6 0.7 20.1485 9.16222 3.85829
5104 1667 5 -0.35 20.0325 10.2651 3.51809
5105 1668 5 -0.35 19.3725 7.64982 8.3789
5106 1668 6 0.7 20.4529 7.99052 8.62824
5107 1668 5 -0.35 21.5334 8.33123 8.87758
ITEM: TIMESTEP
52000
ITEM: NUMBER OF ATOMS
139
ITEM: BOX BOUNDS xy xz yz pp pp pp
0.0000000000000000e+00 3.6531964750000000e+01 9.1329911900000003e+00
0.0000000000000000e+00 2.1091739680000000e+01 9.1329911900000003e+00
0.0000000000000000e+00 1.4914112149999999e+01 5.2729349200000000e+00
ITEM: ATOMS id mol type q x y z
1 1 1 1.10383 27.399 17.6496 10.5383
2 1 1 1.10383 9.13299 3.44217 4.3758
3 1 1 1.10383 27.399 15.8188 13.1274
4 1 1 1.10383 9.13299 5.27293 1.78671
5 1 1 1.10383 25.8135 14.9034 10.5383
6 1 1 1.10383 10.7185 6.18832 4.3758
7 1 1 1.10383 28.9845 14.9034 10.5383
8 1 1 1.10383 7.5475 6.18832 4.3758
9 1 2 0.115889 18.266 5.48596 12.6084
10 1 2 0.115889 18.266 15.6058 2.30572
11 1 2 0.115888 18.266 13.716 0.969417
12 1 2 0.115888 18.266 7.37578 13.9447
13 1 2 0.11589 25.3934 11.4908 8.12521
14 1 2 0.11589 11.1386 9.60096 6.7889
15 1 2 0.115888 11.1386 11.4908 8.12521
16 1 2 0.115888 25.3934 9.60096 6.7889
17 1 2 0.115889 15.5206 8.96083 0.969417
18 1 2 0.115889 21.0114 12.1309 13.9447
19 1 2 0.115888 22.648 13.0758 12.6084
20 1 2 0.115888 13.884 8.01592 2.30572
21 1 2 0.115889 21.0114 3.90092 8.12521
22 1 2 0.115889 15.5206 17.1908 6.7889
23 1 2 0.115887 13.884 16.2459 8.12521
24 1 2 0.115887 22.648 4.84583 6.7889
25 1 2 0.115889 22.648 16.2459 8.12521
26 1 2 0.115889 13.884 4.84583 6.7889
27 1 2 0.115887 15.5206 3.90092 8.12521
28 1 2 0.115887 21.0114 17.1908 6.7889
29 1 2 0.115889 21.0114 8.96083 0.969417
30 1 2 0.115889 15.5206 12.1309 13.9447
31 1 2 0.115887 13.884 13.0758 12.6084
32 1 2 0.115887 22.648 8.01592 2.30572
33 1 3 0.671939 27.399 18.7442 13.2542
34 1 3 0.671939 9.13299 2.34751 1.65994
35 1 3 0.671939 27.399 12.8934 9.117
36 1 3 0.671939 9.13299 8.19836 5.79712
37 1 3 0.67194 24.8655 14.3561 13.2542
38 1 3 0.67194 11.6665 6.73565 1.65994
39 1 3 0.67194 29.9325 17.2815 9.117
40 1 3 0.67194 6.5995 3.81022 5.79712
41 1 3 0.67194 24.8655 17.2815 9.117
42 1 3 0.67194 11.6665 3.81022 5.79712
43 1 3 0.67194 29.9325 14.3561 13.2542
44 1 3 0.67194 6.5995 6.73565 1.65994
45 1 3 -0.11508 27.399 19.957 14.1117
46 1 3 -0.11508 9.13299 1.13474 0.802379
47 1 3 -0.11508 27.399 11.6806 8.25944
48 1 3 -0.11508 9.13299 9.41113 6.65468
49 1 3 -0.11508 23.8152 13.7497 14.1117
50 1 3 -0.11508 12.7168 7.34203 0.802379
51 1 3 -0.11508 30.9828 17.8879 8.25944
52 1 3 -0.11508 5.54921 3.20384 6.65468
53 1 3 -0.11508 23.8152 17.8879 8.25944
54 1 3 -0.11508 12.7168 3.20384 6.65468
55 1 3 -0.11508 30.9828 13.7497 14.1117
56 1 3 -0.11508 5.54921 7.34203 0.802379
57 1 3 -0.0559 18.266 5.39949 13.5316
58 1 3 -0.0559 18.266 15.6923 1.38254
59 1 3 -0.055903 18.266 14.5575 0.580159
60 1 3 -0.055903 18.266 6.53422 14.334
61 1 3 -0.0559 26.1971 11.1132 7.85825
62 1 3 -0.0559 10.3349 9.9785 7.05587
63 1 3 -0.055903 10.3349 11.1132 7.85825
64 1 3 -0.055903 26.1971 9.9785 7.05587
65 1 3 -0.0559 14.7918 8.54005 0.580159
66 1 3 -0.0559 21.7402 12.5517 14.334
67 1 3 -0.055903 22.7229 13.1191 13.5316
68 1 3 -0.055903 13.8091 7.97268 1.38254
69 1 3 -0.0559 21.7402 3.39366 7.85825
70 1 3 -0.0559 14.7918 17.6981 7.05587
71 1 3 -0.055903 13.8091 17.1307 7.85825
72 1 3 -0.055903 22.7229 3.96103 7.05587
73 1 3 -0.055901 22.7229 17.1307 7.85825
74 1 3 -0.055901 13.8091 3.96103 7.05587
75 1 3 -0.055903 14.7918 3.39366 7.85825
76 1 3 -0.055903 21.7402 17.6981 7.05587
77 1 3 -0.0559 21.7402 8.54005 0.580159
78 1 3 -0.0559 14.7918 12.5517 14.334
79 1 3 -0.055903 13.8091 13.1191 13.5316
80 1 3 -0.055903 22.7229 7.97268 1.38254
81 1 4 -1.26215 27.399 15.8188 11.1856
82 1 4 -1.26215 9.13299 5.27293 3.72853
83 1 4 -0.60118 27.399 18.9383 11.9641
84 1 4 -0.60118 9.13299 2.15347 2.95001
85 1 4 -0.601179 27.399 17.5926 13.8671
86 1 4 -0.601179 9.13299 3.49912 1.04697
87 1 4 -0.601179 26.2336 13.3722 9.45555
88 1 4 -0.601179 10.2984 7.71958 5.45857
89 1 4 -0.60118 28.5643 13.3722 9.45555
90 1 4 -0.60118 7.96762 7.71958 5.45857
91 1 4 -0.60118 25.8628 14.9319 13.8671
92 1 4 -0.60118 10.6692 6.15984 1.04697
93 1 4 -0.601179 24.6974 14.2591 11.9641
94 1 4 -0.601179 11.8345 6.83267 2.95001
95 1 4 -0.60118 28.9351 18.0514 9.45555
96 1 4 -0.60118 7.59682 3.04037 5.45857
97 1 4 -0.601179 30.1005 16.0329 9.45555
98 1 4 -0.601179 6.43145 5.05885 5.45857
99 1 4 -0.601179 24.6974 16.0329 9.45555
100 1 4 -0.601179 11.8345 5.05885 5.45857
101 1 4 -0.60118 25.8628 18.0514 9.45555
102 1 4 -0.60118 10.6692 3.04037 5.45857
103 1 4 -0.60118 28.9351 14.9319 13.8671
104 1 4 -0.60118 7.59682 6.15984 1.04697
105 1 4 -0.60118 30.1005 14.2591 11.9641
106 1 4 -0.60118 6.43145 6.83267 2.95001
287 62 5 -0.35 20.009 15.0218 4.57987
288 62 6 0.7 20.4038 15.8912 3.92113
289 62 5 -0.35 20.7986 16.7605 3.26239
344 81 5 -0.35 18.961 15.1841 14.226
345 81 6 0.7 19.7857 15.9938 14.3252
346 81 5 -0.35 20.6104 16.8036 14.4244
368 89 5 -0.35 22.2224 15.2422 10.8415
369 89 6 0.7 22.7027 14.4239 10.1742
370 89 5 -0.35 23.183 13.6057 9.5068
395 98 5 -0.35 9.07105 3.14914 8.87874
396 98 6 0.7 8.83656 4.20649 8.46324
397 98 5 -0.35 8.60207 5.26383 8.04773
398 99 5 -0.35 15.7016 12.621 0.591452
399 99 6 0.7 24.5078 17.7487 14.4021
400 99 5 -0.35 24.181 17.6036 13.2986
434 111 5 -0.35 26.8785 15.5736 6.91141
435 111 6 0.7 27.3275 15.7807 5.86208
436 111 5 -0.35 27.7765 15.9879 4.81275
455 118 5 -0.35 13.6818 17.111 3.93951
456 118 6 0.7 13.7264 15.9699 3.73582
457 118 5 -0.35 13.7711 14.8288 3.53213
458 119 5 -0.35 16.5308 13.6063 3.99123
459 119 6 0.7 15.8846 12.7471 3.55548
460 119 5 -0.35 15.2385 11.8879 3.11972
467 122 5 -0.35 15.4776 16.0923 12.6918
468 122 6 0.7 32.9202 16.8064 12.2948
469 122 5 -0.35 32.0968 17.5206 11.8979
470 123 5 -0.35 4.97132 0.392715 0.684698
471 123 6 0.7 14.0474 5.82751 14.4516
472 123 5 -0.35 13.9906 5.98937 13.3043
473 124 5 -0.35 16.2116 6.95731 11.0838
474 124 6 0.7 16.5456 6.75314 9.99184
475 124 5 -0.35 16.8796 6.54897 8.89989
ITEM: TIMESTEP
53000
ITEM: NUMBER OF ATOMS
139
ITEM: BOX BOUNDS xy xz yz pp pp pp
0.0000000000000000e+00 3.6531964750000000e+01 9.1329911900000003e+00
0.0000000000000000e+00 2.1091739680000000e+01 9.1329911900000003e+00
0.0000000000000000e+00 1.4914112149999999e+01 5.2729349200000000e+00
ITEM: ATOMS id mol type q x y z
1 1 1 1.10383 27.399 17.6496 10.5383
2 1 1 1.10383 9.13299 3.44217 4.3758
3 1 1 1.10383 27.399 15.8188 13.1274
4 1 1 1.10383 9.13299 5.27293 1.78671
5 1 1 1.10383 25.8135 14.9034 10.5383
6 1 1 1.10383 10.7185 6.18832 4.3758
7 1 1 1.10383 28.9845 14.9034 10.5383
8 1 1 1.10383 7.5475 6.18832 4.3758
9 1 2 0.115889 18.266 5.48596 12.6084
10 1 2 0.115889 18.266 15.6058 2.30572
11 1 2 0.115888 18.266 13.716 0.969417
12 1 2 0.115888 18.266 7.37578 13.9447
13 1 2 0.11589 25.3934 11.4908 8.12521
14 1 2 0.11589 11.1386 9.60096 6.7889
15 1 2 0.115888 11.1386 11.4908 8.12521
16 1 2 0.115888 25.3934 9.60096 6.7889
17 1 2 0.115889 15.5206 8.96083 0.969417
18 1 2 0.115889 21.0114 12.1309 13.9447
19 1 2 0.115888 22.648 13.0758 12.6084
20 1 2 0.115888 13.884 8.01592 2.30572
21 1 2 0.115889 21.0114 3.90092 8.12521
22 1 2 0.115889 15.5206 17.1908 6.7889
23 1 2 0.115887 13.884 16.2459 8.12521
24 1 2 0.115887 22.648 4.84583 6.7889
25 1 2 0.115889 22.648 16.2459 8.12521
26 1 2 0.115889 13.884 4.84583 6.7889
27 1 2 0.115887 15.5206 3.90092 8.12521
28 1 2 0.115887 21.0114 17.1908 6.7889
29 1 2 0.115889 21.0114 8.96083 0.969417
30 1 2 0.115889 15.5206 12.1309 13.9447
31 1 2 0.115887 13.884 13.0758 12.6084
32 1 2 0.115887 22.648 8.01592 2.30572
33 1 3 0.671939 27.399 18.7442 13.2542
34 1 3 0.671939 9.13299 2.34751 1.65994
35 1 3 0.671939 27.399 12.8934 9.117
36 1 3 0.671939 9.13299 8.19836 5.79712
37 1 3 0.67194 24.8655 14.3561 13.2542
38 1 3 0.67194 11.6665 6.73565 1.65994
39 1 3 0.67194 29.9325 17.2815 9.117
40 1 3 0.67194 6.5995 3.81022 5.79712
41 1 3 0.67194 24.8655 17.2815 9.117
42 1 3 0.67194 11.6665 3.81022 5.79712
43 1 3 0.67194 29.9325 14.3561 13.2542
44 1 3 0.67194 6.5995 6.73565 1.65994
45 1 3 -0.11508 27.399 19.957 14.1117
46 1 3 -0.11508 9.13299 1.13474 0.802379
47 1 3 -0.11508 27.399 11.6806 8.25944
48 1 3 -0.11508 9.13299 9.41113 6.65468
49 1 3 -0.11508 23.8152 13.7497 14.1117
50 1 3 -0.11508 12.7168 7.34203 0.802379
51 1 3 -0.11508 30.9828 17.8879 8.25944
52 1 3 -0.11508 5.54921 3.20384 6.65468
53 1 3 -0.11508 23.8152 17.8879 8.25944
54 1 3 -0.11508 12.7168 3.20384 6.65468
55 1 3 -0.11508 30.9828 13.7497 14.1117
56 1 3 -0.11508 5.54921 7.34203 0.802379
57 1 3 -0.0559 18.266 5.39949 13.5316
58 1 3 -0.0559 18.266 15.6923 1.38254
59 1 3 -0.055903 18.266 14.5575 0.580159
60 1 3 -0.055903 18.266 6.53422 14.334
61 1 3 -0.0559 26.1971 11.1132 7.85825
62 1 3 -0.0559 10.3349 9.9785 7.05587
63 1 3 -0.055903 10.3349 11.1132 7.85825
64 1 3 -0.055903 26.1971 9.9785 7.05587
65 1 3 -0.0559 14.7918 8.54005 0.580159
66 1 3 -0.0559 21.7402 12.5517 14.334
67 1 3 -0.055903 22.7229 13.1191 13.5316
68 1 3 -0.055903 13.8091 7.97268 1.38254
69 1 3 -0.0559 21.7402 3.39366 7.85825
70 1 3 -0.0559 14.7918 17.6981 7.05587
71 1 3 -0.055903 13.8091 17.1307 7.85825
72 1 3 -0.055903 22.7229 3.96103 7.05587
73 1 3 -0.055901 22.7229 17.1307 7.85825
74 1 3 -0.055901 13.8091 3.96103 7.05587
75 1 3 -0.055903 14.7918 3.39366 7.85825
76 1 3 -0.055903 21.7402 17.6981 7.05587
77 1 3 -0.0559 21.7402 8.54005 0.580159
78 1 3 -0.0559 14.7918 12.5517 14.334
79 1 3 -0.055903 13.8091 13.1191 13.5316
80 1 3 -0.055903 22.7229 7.97268 1.38254
81 1 4 -1.26215 27.399 15.8188 11.1856
82 1 4 -1.26215 9.13299 5.27293 3.72853
83 1 4 -0.60118 27.399 18.9383 11.9641
84 1 4 -0.60118 9.13299 2.15347 2.95001
85 1 4 -0.601179 27.399 17.5926 13.8671
86 1 4 -0.601179 9.13299 3.49912 1.04697
87 1 4 -0.601179 26.2336 13.3722 9.45555
88 1 4 -0.601179 10.2984 7.71958 5.45857
89 1 4 -0.60118 28.5643 13.3722 9.45555
90 1 4 -0.60118 7.96762 7.71958 5.45857
91 1 4 -0.60118 25.8628 14.9319 13.8671
92 1 4 -0.60118 10.6692 6.15984 1.04697
93 1 4 -0.601179 24.6974 14.2591 11.9641
94 1 4 -0.601179 11.8345 6.83267 2.95001
95 1 4 -0.60118 28.9351 18.0514 9.45555
96 1 4 -0.60118 7.59682 3.04037 5.45857
97 1 4 -0.601179 30.1005 16.0329 9.45555
98 1 4 -0.601179 6.43145 5.05885 5.45857
99 1 4 -0.601179 24.6974 16.0329 9.45555
100 1 4 -0.601179 11.8345 5.05885 5.45857
101 1 4 -0.60118 25.8628 18.0514 9.45555
102 1 4 -0.60118 10.6692 3.04037 5.45857
103 1 4 -0.60118 28.9351 14.9319 13.8671
104 1 4 -0.60118 7.59682 6.15984 1.04697
105 1 4 -0.60118 30.1005 14.2591 11.9641
106 1 4 -0.60118 6.43145 6.83267 2.95001
1628 509 5 -0.35 5.56284 3.04232 2.08232
1629 509 6 0.7 5.80932 3.36251 0.994975
1630 509 5 -0.35 15.1888 8.95564 14.8217
1760 553 5 -0.35 10.9196 10.1758 0.958785
1761 553 6 0.7 10.0102 9.59758 1.38814
1762 553 5 -0.35 9.10084 9.0194 1.8175
1772 557 5 -0.35 24.5302 6.84041 8.2484
1773 557 6 0.7 7.1581 6.14387 8.49628
1774 557 5 -0.35 8.05196 5.44733 8.74417
1799 566 5 -0.35 28.1919 11.2406 13.5278
1800 566 6 0.7 29.2386 10.9165 13.1471
1801 566 5 -0.35 12.0193 10.5923 12.7663
1802 567 5 -0.35 25.0162 10.3569 14.3731
1803 567 6 0.7 24.7313 10.5255 13.2613
1804 567 5 -0.35 24.4464 10.6941 12.1495
1856 585 5 -0.35 11.2938 5.723 9.29129
1857 585 6 0.7 12.1775 6.42168 9.01457
1858 585 5 -0.35 13.0612 7.12035 8.73785
1862 587 5 -0.35 13.4884 13.9819 3.76811
1863 587 6 0.7 13.4056 14.1027 2.6174
1864 587 5 -0.35 13.3227 14.2235 1.46669
1865 588 5 -0.35 17.6581 7.19572 1.12056
1866 588 6 0.7 18.5014 7.37257 1.89717
1867 588 5 -0.35 19.3447 7.54942 2.67379
1868 589 5 -0.35 33.26 19.3502 10.5881
1869 589 6 0.7 24.4957 4.49103 11.1254
1870 589 5 -0.35 24.8644 5.45068 11.6628
1871 590 5 -0.35 18.2797 14.5415 8.37226
1872 590 6 0.7 18.3236 14.6246 7.21606
1873 590 5 -0.35 18.3674 14.7076 6.05987
1877 592 5 -0.35 16.6666 11.8549 3.49357
1878 592 6 0.7 17.5779 11.3417 3.9954
1879 592 5 -0.35 18.4891 10.8284 4.49724
ITEM: TIMESTEP
54000
ITEM: NUMBER OF ATOMS
148
ITEM: BOX BOUNDS xy xz yz pp pp pp
0.0000000000000000e+00 3.6531964750000000e+01 9.1329911900000003e+00
0.0000000000000000e+00 2.1091739680000000e+01 9.1329911900000003e+00
0.0000000000000000e+00 1.4914112149999999e+01 5.2729349200000000e+00
ITEM: ATOMS id mol type q x y z
1 1 1 1.10383 27.399 17.6496 10.5383
2 1 1 1.10383 9.13299 3.44217 4.3758
3 1 1 1.10383 27.399 15.8188 13.1274
4 1 1 1.10383 9.13299 5.27293 1.78671
5 1 1 1.10383 25.8135 14.9034 10.5383
6 1 1 1.10383 10.7185 6.18832 4.3758
7 1 1 1.10383 28.9845 14.9034 10.5383
8 1 1 1.10383 7.5475 6.18832 4.3758
9 1 2 0.115889 18.266 5.48596 12.6084
10 1 2 0.115889 18.266 15.6058 2.30572
11 1 2 0.115888 18.266 13.716 0.969417
12 1 2 0.115888 18.266 7.37578 13.9447
13 1 2 0.11589 25.3934 11.4908 8.12521
14 1 2 0.11589 11.1386 9.60096 6.7889
15 1 2 0.115888 11.1386 11.4908 8.12521
16 1 2 0.115888 25.3934 9.60096 6.7889
17 1 2 0.115889 15.5206 8.96083 0.969417
18 1 2 0.115889 21.0114 12.1309 13.9447
19 1 2 0.115888 22.648 13.0758 12.6084
20 1 2 0.115888 13.884 8.01592 2.30572
21 1 2 0.115889 21.0114 3.90092 8.12521
22 1 2 0.115889 15.5206 17.1908 6.7889
23 1 2 0.115887 13.884 16.2459 8.12521
24 1 2 0.115887 22.648 4.84583 6.7889
25 1 2 0.115889 22.648 16.2459 8.12521
26 1 2 0.115889 13.884 4.84583 6.7889
27 1 2 0.115887 15.5206 3.90092 8.12521
28 1 2 0.115887 21.0114 17.1908 6.7889
29 1 2 0.115889 21.0114 8.96083 0.969417
30 1 2 0.115889 15.5206 12.1309 13.9447
31 1 2 0.115887 13.884 13.0758 12.6084
32 1 2 0.115887 22.648 8.01592 2.30572
33 1 3 0.671939 27.399 18.7442 13.2542
34 1 3 0.671939 9.13299 2.34751 1.65994
35 1 3 0.671939 27.399 12.8934 9.117
36 1 3 0.671939 9.13299 8.19836 5.79712
37 1 3 0.67194 24.8655 14.3561 13.2542
38 1 3 0.67194 11.6665 6.73565 1.65994
39 1 3 0.67194 29.9325 17.2815 9.117
40 1 3 0.67194 6.5995 3.81022 5.79712
41 1 3 0.67194 24.8655 17.2815 9.117
42 1 3 0.67194 11.6665 3.81022 5.79712
43 1 3 0.67194 29.9325 14.3561 13.2542
44 1 3 0.67194 6.5995 6.73565 1.65994
45 1 3 -0.11508 27.399 19.957 14.1117
46 1 3 -0.11508 9.13299 1.13474 0.802379
47 1 3 -0.11508 27.399 11.6806 8.25944
48 1 3 -0.11508 9.13299 9.41113 6.65468
49 1 3 -0.11508 23.8152 13.7497 14.1117
50 1 3 -0.11508 12.7168 7.34203 0.802379
51 1 3 -0.11508 30.9828 17.8879 8.25944
52 1 3 -0.11508 5.54921 3.20384 6.65468
53 1 3 -0.11508 23.8152 17.8879 8.25944
54 1 3 -0.11508 12.7168 3.20384 6.65468
55 1 3 -0.11508 30.9828 13.7497 14.1117
56 1 3 -0.11508 5.54921 7.34203 0.802379
57 1 3 -0.0559 18.266 5.39949 13.5316
58 1 3 -0.0559 18.266 15.6923 1.38254
59 1 3 -0.055903 18.266 14.5575 0.580159
60 1 3 -0.055903 18.266 6.53422 14.334
61 1 3 -0.0559 26.1971 11.1132 7.85825
62 1 3 -0.0559 10.3349 9.9785 7.05587
63 1 3 -0.055903 10.3349 11.1132 7.85825
64 1 3 -0.055903 26.1971 9.9785 7.05587
65 1 3 -0.0559 14.7918 8.54005 0.580159
66 1 3 -0.0559 21.7402 12.5517 14.334
67 1 3 -0.055903 22.7229 13.1191 13.5316
68 1 3 -0.055903 13.8091 7.97268 1.38254
69 1 3 -0.0559 21.7402 3.39366 7.85825
70 1 3 -0.0559 14.7918 17.6981 7.05587
71 1 3 -0.055903 13.8091 17.1307 7.85825
72 1 3 -0.055903 22.7229 3.96103 7.05587
73 1 3 -0.055901 22.7229 17.1307 7.85825
74 1 3 -0.055901 13.8091 3.96103 7.05587
75 1 3 -0.055903 14.7918 3.39366 7.85825
76 1 3 -0.055903 21.7402 17.6981 7.05587
77 1 3 -0.0559 21.7402 8.54005 0.580159
78 1 3 -0.0559 14.7918 12.5517 14.334
79 1 3 -0.055903 13.8091 13.1191 13.5316
80 1 3 -0.055903 22.7229 7.97268 1.38254
81 1 4 -1.26215 27.399 15.8188 11.1856
82 1 4 -1.26215 9.13299 5.27293 3.72853
83 1 4 -0.60118 27.399 18.9383 11.9641
84 1 4 -0.60118 9.13299 2.15347 2.95001
85 1 4 -0.601179 27.399 17.5926 13.8671
86 1 4 -0.601179 9.13299 3.49912 1.04697
87 1 4 -0.601179 26.2336 13.3722 9.45555
88 1 4 -0.601179 10.2984 7.71958 5.45857
89 1 4 -0.60118 28.5643 13.3722 9.45555
90 1 4 -0.60118 7.96762 7.71958 5.45857
91 1 4 -0.60118 25.8628 14.9319 13.8671
92 1 4 -0.60118 10.6692 6.15984 1.04697
93 1 4 -0.601179 24.6974 14.2591 11.9641
94 1 4 -0.601179 11.8345 6.83267 2.95001
95 1 4 -0.60118 28.9351 18.0514 9.45555
96 1 4 -0.60118 7.59682 3.04037 5.45857
97 1 4 -0.601179 30.1005 16.0329 9.45555
98 1 4 -0.601179 6.43145 5.05885 5.45857
99 1 4 -0.601179 24.6974 16.0329 9.45555
100 1 4 -0.601179 11.8345 5.05885 5.45857
101 1 4 -0.60118 25.8628 18.0514 9.45555
102 1 4 -0.60118 10.6692 3.04037 5.45857
103 1 4 -0.60118 28.9351 14.9319 13.8671
104 1 4 -0.60118 7.59682 6.15984 1.04697
105 1 4 -0.60118 30.1005 14.2591 11.9641
106 1 4 -0.60118 6.43145 6.83267 2.95001
2930 943 5 -0.35 27.2426 17.7936 6.35391
2931 943 6 0.7 17.6434 3.02218 6.17714
2932 943 5 -0.35 17.1773 4.06957 6.00036
3110 1003 5 -0.35 14.3771 4.70125 3.79558
3111 1003 6 0.7 14.488 5.7349 4.31024
3112 1003 5 -0.35 14.5989 6.76855 4.82489
3206 1035 5 -0.35 20.8979 5.24843 3.17802
3207 1035 6 0.7 21.8336 4.56283 3.18771
3208 1035 5 -0.35 4.50329 3.87723 3.19739
3299 1066 5 -0.35 13.472 11.7315 0.594606
3300 1066 6 0.7 22.8219 17.0294 14.3695
3301 1066 5 -0.35 23.0388 17.0543 13.2302
3380 1093 5 -0.35 18.2646 6.07499 0.512354
3381 1093 6 0.7 17.6241 6.19477 1.47205
3382 1093 5 -0.35 16.9836 6.31456 2.43175
3383 1094 5 -0.35 10.5513 12.5272 4.73379
3384 1094 6 0.7 10.3103 11.5979 4.08274
3385 1094 5 -0.35 10.0692 10.6685 3.43169
3386 1095 5 -0.35 12.0913 15.604 5.29909
3387 1095 6 0.7 11.2865 16.1133 4.63685
3388 1095 5 -0.35 28.7476 16.6225 3.97462
3392 1097 5 -0.35 23.1152 7.60587 6.97546
3393 1097 6 0.7 22.9734 8.23114 6.00876
3394 1097 5 -0.35 22.8315 8.85641 5.04206
3446 1115 5 -0.35 13.785 1.9352 2.55017
3447 1115 6 0.7 14.2195 1.54928 3.5541
3448 1115 5 -0.35 23.787 16.9822 4.55804
3449 1116 5 -0.35 13.037 11.2566 5.08348
3450 1116 6 0.7 13.8626 11.7711 4.4517
3451 1116 5 -0.35 14.6883 12.2857 3.81991
3461 1120 5 -0.35 12.759 6.57783 10.6956
3462 1120 6 0.7 13.8552 6.22556 10.5546
3463 1120 5 -0.35 14.9513 5.87328 10.4135
3467 1122 5 -0.35 22.3801 15.9675 0.553604
3468 1122 6 0.7 22.7721 5.89891 14.4858
3469 1122 5 -0.35 23.1641 6.3762 13.5039
3470 1123 5 -0.35 6.00899 2.34167 0.100219
3471 1123 6 0.7 15.1374 7.97451 13.9116
3472 1123 5 -0.35 15.1327 8.33442 12.8088
3473 1124 5 -0.35 23.9786 11.4216 4.80514
3474 1124 6 0.7 23.1502 11.2767 4.00621
3475 1124 5 -0.35 22.3218 11.1318 3.20729
ITEM: TIMESTEP
55000
ITEM: NUMBER OF ATOMS
145
ITEM: BOX BOUNDS xy xz yz pp pp pp
0.0000000000000000e+00 3.6531964750000000e+01 9.1329911900000003e+00
0.0000000000000000e+00 2.1091739680000000e+01 9.1329911900000003e+00
0.0000000000000000e+00 1.4914112149999999e+01 5.2729349200000000e+00
ITEM: ATOMS id mol type q x y z
1 1 1 1.10383 27.399 17.6496 10.5383
2 1 1 1.10383 9.13299 3.44217 4.3758
3 1 1 1.10383 27.399 15.8188 13.1274
4 1 1 1.10383 9.13299 5.27293 1.78671
5 1 1 1.10383 25.8135 14.9034 10.5383
6 1 1 1.10383 10.7185 6.18832 4.3758
7 1 1 1.10383 28.9845 14.9034 10.5383
8 1 1 1.10383 7.5475 6.18832 4.3758
9 1 2 0.115889 18.266 5.48596 12.6084
10 1 2 0.115889 18.266 15.6058 2.30572
11 1 2 0.115888 18.266 13.716 0.969417
12 1 2 0.115888 18.266 7.37578 13.9447
13 1 2 0.11589 25.3934 11.4908 8.12521
14 1 2 0.11589 11.1386 9.60096 6.7889
15 1 2 0.115888 11.1386 11.4908 8.12521
16 1 2 0.115888 25.3934 9.60096 6.7889
17 1 2 0.115889 15.5206 8.96083 0.969417
18 1 2 0.115889 21.0114 12.1309 13.9447
19 1 2 0.115888 22.648 13.0758 12.6084
20 1 2 0.115888 13.884 8.01592 2.30572
21 1 2 0.115889 21.0114 3.90092 8.12521
22 1 2 0.115889 15.5206 17.1908 6.7889
23 1 2 0.115887 13.884 16.2459 8.12521
24 1 2 0.115887 22.648 4.84583 6.7889
25 1 2 0.115889 22.648 16.2459 8.12521
26 1 2 0.115889 13.884 4.84583 6.7889
27 1 2 0.115887 15.5206 3.90092 8.12521
28 1 2 0.115887 21.0114 17.1908 6.7889
29 1 2 0.115889 21.0114 8.96083 0.969417
30 1 2 0.115889 15.5206 12.1309 13.9447
31 1 2 0.115887 13.884 13.0758 12.6084
32 1 2 0.115887 22.648 8.01592 2.30572
33 1 3 0.671939 27.399 18.7442 13.2542
34 1 3 0.671939 9.13299 2.34751 1.65994
35 1 3 0.671939 27.399 12.8934 9.117
36 1 3 0.671939 9.13299 8.19836 5.79712
37 1 3 0.67194 24.8655 14.3561 13.2542
38 1 3 0.67194 11.6665 6.73565 1.65994
39 1 3 0.67194 29.9325 17.2815 9.117
40 1 3 0.67194 6.5995 3.81022 5.79712
41 1 3 0.67194 24.8655 17.2815 9.117
42 1 3 0.67194 11.6665 3.81022 5.79712
43 1 3 0.67194 29.9325 14.3561 13.2542
44 1 3 0.67194 6.5995 6.73565 1.65994
45 1 3 -0.11508 27.399 19.957 14.1117
46 1 3 -0.11508 9.13299 1.13474 0.802379
47 1 3 -0.11508 27.399 11.6806 8.25944
48 1 3 -0.11508 9.13299 9.41113 6.65468
49 1 3 -0.11508 23.8152 13.7497 14.1117
50 1 3 -0.11508 12.7168 7.34203 0.802379
51 1 3 -0.11508 30.9828 17.8879 8.25944
52 1 3 -0.11508 5.54921 3.20384 6.65468
53 1 3 -0.11508 23.8152 17.8879 8.25944
54 1 3 -0.11508 12.7168 3.20384 6.65468
55 1 3 -0.11508 30.9828 13.7497 14.1117
56 1 3 -0.11508 5.54921 7.34203 0.802379
57 1 3 -0.0559 18.266 5.39949 13.5316
58 1 3 -0.0559 18.266 15.6923 1.38254
59 1 3 -0.055903 18.266 14.5575 0.580159
60 1 3 -0.055903 18.266 6.53422 14.334
61 1 3 -0.0559 26.1971 11.1132 7.85825
62 1 3 -0.0559 10.3349 9.9785 7.05587
63 1 3 -0.055903 10.3349 11.1132 7.85825
64 1 3 -0.055903 26.1971 9.9785 7.05587
65 1 3 -0.0559 14.7918 8.54005 0.580159
66 1 3 -0.0559 21.7402 12.5517 14.334
67 1 3 -0.055903 22.7229 13.1191 13.5316
68 1 3 -0.055903 13.8091 7.97268 1.38254
69 1 3 -0.0559 21.7402 3.39366 7.85825
70 1 3 -0.0559 14.7918 17.6981 7.05587
71 1 3 -0.055903 13.8091 17.1307 7.85825
72 1 3 -0.055903 22.7229 3.96103 7.05587
73 1 3 -0.055901 22.7229 17.1307 7.85825
74 1 3 -0.055901 13.8091 3.96103 7.05587
75 1 3 -0.055903 14.7918 3.39366 7.85825
76 1 3 -0.055903 21.7402 17.6981 7.05587
77 1 3 -0.0559 21.7402 8.54005 0.580159
78 1 3 -0.0559 14.7918 12.5517 14.334
79 1 3 -0.055903 13.8091 13.1191 13.5316
80 1 3 -0.055903 22.7229 7.97268 1.38254
81 1 4 -1.26215 27.399 15.8188 11.1856
82 1 4 -1.26215 9.13299 5.27293 3.72853
83 1 4 -0.60118 27.399 18.9383 11.9641
84 1 4 -0.60118 9.13299 2.15347 2.95001
85 1 4 -0.601179 27.399 17.5926 13.8671
86 1 4 -0.601179 9.13299 3.49912 1.04697
87 1 4 -0.601179 26.2336 13.3722 9.45555
88 1 4 -0.601179 10.2984 7.71958 5.45857
89 1 4 -0.60118 28.5643 13.3722 9.45555
90 1 4 -0.60118 7.96762 7.71958 5.45857
91 1 4 -0.60118 25.8628 14.9319 13.8671
92 1 4 -0.60118 10.6692 6.15984 1.04697
93 1 4 -0.601179 24.6974 14.2591 11.9641
94 1 4 -0.601179 11.8345 6.83267 2.95001
95 1 4 -0.60118 28.9351 18.0514 9.45555
96 1 4 -0.60118 7.59682 3.04037 5.45857
97 1 4 -0.601179 30.1005 16.0329 9.45555
98 1 4 -0.601179 6.43145 5.05885 5.45857
99 1 4 -0.601179 24.6974 16.0329 9.45555
100 1 4 -0.601179 11.8345 5.05885 5.45857
101 1 4 -0.60118 25.8628 18.0514 9.45555
102 1 4 -0.60118 10.6692 3.04037 5.45857
103 1 4 -0.60118 28.9351 14.9319 13.8671
104 1 4 -0.60118 7.59682 6.15984 1.04697
105 1 4 -0.60118 30.1005 14.2591 11.9641
106 1 4 -0.60118 6.43145 6.83267 2.95001
323 74 5 -0.35 5.80635 3.46417 1.84791
324 74 6 0.7 5.39014 3.71812 0.795353
325 74 5 -0.35 14.1069 9.24499 14.6569
365 88 5 -0.35 18.2204 7.05371 0.765538
366 88 6 0.7 27.222 12.0628 14.5577
367 88 5 -0.35 27.0906 11.799 13.4358
518 139 5 -0.35 20.9495 4.62469 11.1443
519 139 6 0.7 30.3374 19.575 11.8699
520 139 5 -0.35 30.5923 18.7065 12.5954
542 147 5 -0.35 21.2848 14.6984 2.44196
543 147 6 0.7 21.5441 15.2268 1.44242
544 147 5 -0.35 21.8034 15.7553 0.442869
569 156 5 -0.35 21.8016 7.55946 4.68049
570 156 6 0.7 22.6096 8.38467 4.78912
571 156 5 -0.35 23.4175 9.20988 4.89775
614 171 5 -0.35 22.4787 12.0894 5.25802
615 171 6 0.7 22.5323 11.9098 4.11325
616 171 5 -0.35 22.5858 11.7303 2.96849
617 172 5 -0.35 13.8401 4.03414 0.704303
618 172 6 0.7 14.6866 4.49387 0.057978
619 172 5 -0.35 24.6661 10.2265 14.3258
659 186 5 -0.35 9.8387 5.65673 10.8032
660 186 6 0.7 10.1106 5.39034 9.70744
661 186 5 -0.35 10.3825 5.12395 8.61167
665 188 5 -0.35 21.5567 17.5158 13.4167
666 188 6 0.7 21.7482 17.4773 12.2733
667 188 5 -0.35 21.9397 17.4388 11.1298
668 189 5 -0.35 17.8364 13.722 12.4609
669 189 6 0.7 17.9683 14.1224 11.3802
670 189 5 -0.35 18.1001 14.5229 10.2996
671 190 5 -0.35 16.0414 7.38199 11.9016
672 190 6 0.7 15.4619 6.75684 11.1149
673 190 5 -0.35 14.8823 6.1317 10.3282
674 191 5 -0.35 18.347 12.1048 6.32708
675 191 6 0.7 18.5492 11.8909 7.4491
676 191 5 -0.35 18.7514 11.6769 8.57113
677 192 5 -0.35 18.1938 7.82085 6.07938
678 192 6 0.7 17.825 7.92758 4.98476
679 192 5 -0.35 17.4562 8.0343 3.89014
ITEM: TIMESTEP
56000
ITEM: NUMBER OF ATOMS
121
ITEM: BOX BOUNDS xy xz yz pp pp pp
0.0000000000000000e+00 3.6531964750000000e+01 9.1329911900000003e+00
0.0000000000000000e+00 2.1091739680000000e+01 9.1329911900000003e+00
0.0000000000000000e+00 1.4914112149999999e+01 5.2729349200000000e+00
ITEM: ATOMS id mol type q x y z
1 1 1 1.10383 27.399 17.6496 10.5383
2 1 1 1.10383 9.13299 3.44217 4.3758
3 1 1 1.10383 27.399 15.8188 13.1274
4 1 1 1.10383 9.13299 5.27293 1.78671
5 1 1 1.10383 25.8135 14.9034 10.5383
6 1 1 1.10383 10.7185 6.18832 4.3758
7 1 1 1.10383 28.9845 14.9034 10.5383
8 1 1 1.10383 7.5475 6.18832 4.3758
9 1 2 0.115889 18.266 5.48596 12.6084
10 1 2 0.115889 18.266 15.6058 2.30572
11 1 2 0.115888 18.266 13.716 0.969417
12 1 2 0.115888 18.266 7.37578 13.9447
13 1 2 0.11589 25.3934 11.4908 8.12521
14 1 2 0.11589 11.1386 9.60096 6.7889
15 1 2 0.115888 11.1386 11.4908 8.12521
16 1 2 0.115888 25.3934 9.60096 6.7889
17 1 2 0.115889 15.5206 8.96083 0.969417
18 1 2 0.115889 21.0114 12.1309 13.9447
19 1 2 0.115888 22.648 13.0758 12.6084
20 1 2 0.115888 13.884 8.01592 2.30572
21 1 2 0.115889 21.0114 3.90092 8.12521
22 1 2 0.115889 15.5206 17.1908 6.7889
23 1 2 0.115887 13.884 16.2459 8.12521
24 1 2 0.115887 22.648 4.84583 6.7889
25 1 2 0.115889 22.648 16.2459 8.12521
26 1 2 0.115889 13.884 4.84583 6.7889
27 1 2 0.115887 15.5206 3.90092 8.12521
28 1 2 0.115887 21.0114 17.1908 6.7889
29 1 2 0.115889 21.0114 8.96083 0.969417
30 1 2 0.115889 15.5206 12.1309 13.9447
31 1 2 0.115887 13.884 13.0758 12.6084
32 1 2 0.115887 22.648 8.01592 2.30572
33 1 3 0.671939 27.399 18.7442 13.2542
34 1 3 0.671939 9.13299 2.34751 1.65994
35 1 3 0.671939 27.399 12.8934 9.117
36 1 3 0.671939 9.13299 8.19836 5.79712
37 1 3 0.67194 24.8655 14.3561 13.2542
38 1 3 0.67194 11.6665 6.73565 1.65994
39 1 3 0.67194 29.9325 17.2815 9.117
40 1 3 0.67194 6.5995 3.81022 5.79712
41 1 3 0.67194 24.8655 17.2815 9.117
42 1 3 0.67194 11.6665 3.81022 5.79712
43 1 3 0.67194 29.9325 14.3561 13.2542
44 1 3 0.67194 6.5995 6.73565 1.65994
45 1 3 -0.11508 27.399 19.957 14.1117
46 1 3 -0.11508 9.13299 1.13474 0.802379
47 1 3 -0.11508 27.399 11.6806 8.25944
48 1 3 -0.11508 9.13299 9.41113 6.65468
49 1 3 -0.11508 23.8152 13.7497 14.1117
50 1 3 -0.11508 12.7168 7.34203 0.802379
51 1 3 -0.11508 30.9828 17.8879 8.25944
52 1 3 -0.11508 5.54921 3.20384 6.65468
53 1 3 -0.11508 23.8152 17.8879 8.25944
54 1 3 -0.11508 12.7168 3.20384 6.65468
55 1 3 -0.11508 30.9828 13.7497 14.1117
56 1 3 -0.11508 5.54921 7.34203 0.802379
57 1 3 -0.0559 18.266 5.39949 13.5316
58 1 3 -0.0559 18.266 15.6923 1.38254
59 1 3 -0.055903 18.266 14.5575 0.580159
60 1 3 -0.055903 18.266 6.53422 14.334
61 1 3 -0.0559 26.1971 11.1132 7.85825
62 1 3 -0.0559 10.3349 9.9785 7.05587
63 1 3 -0.055903 10.3349 11.1132 7.85825
64 1 3 -0.055903 26.1971 9.9785 7.05587
65 1 3 -0.0559 14.7918 8.54005 0.580159
66 1 3 -0.0559 21.7402 12.5517 14.334
67 1 3 -0.055903 22.7229 13.1191 13.5316
68 1 3 -0.055903 13.8091 7.97268 1.38254
69 1 3 -0.0559 21.7402 3.39366 7.85825
70 1 3 -0.0559 14.7918 17.6981 7.05587
71 1 3 -0.055903 13.8091 17.1307 7.85825
72 1 3 -0.055903 22.7229 3.96103 7.05587
73 1 3 -0.055901 22.7229 17.1307 7.85825
74 1 3 -0.055901 13.8091 3.96103 7.05587
75 1 3 -0.055903 14.7918 3.39366 7.85825
76 1 3 -0.055903 21.7402 17.6981 7.05587
77 1 3 -0.0559 21.7402 8.54005 0.580159
78 1 3 -0.0559 14.7918 12.5517 14.334
79 1 3 -0.055903 13.8091 13.1191 13.5316
80 1 3 -0.055903 22.7229 7.97268 1.38254
81 1 4 -1.26215 27.399 15.8188 11.1856
82 1 4 -1.26215 9.13299 5.27293 3.72853
83 1 4 -0.60118 27.399 18.9383 11.9641
84 1 4 -0.60118 9.13299 2.15347 2.95001
85 1 4 -0.601179 27.399 17.5926 13.8671
86 1 4 -0.601179 9.13299 3.49912 1.04697
87 1 4 -0.601179 26.2336 13.3722 9.45555
88 1 4 -0.601179 10.2984 7.71958 5.45857
89 1 4 -0.60118 28.5643 13.3722 9.45555
90 1 4 -0.60118 7.96762 7.71958 5.45857
91 1 4 -0.60118 25.8628 14.9319 13.8671
92 1 4 -0.60118 10.6692 6.15984 1.04697
93 1 4 -0.601179 24.6974 14.2591 11.9641
94 1 4 -0.601179 11.8345 6.83267 2.95001
95 1 4 -0.60118 28.9351 18.0514 9.45555
96 1 4 -0.60118 7.59682 3.04037 5.45857
97 1 4 -0.601179 30.1005 16.0329 9.45555
98 1 4 -0.601179 6.43145 5.05885 5.45857
99 1 4 -0.601179 24.6974 16.0329 9.45555
100 1 4 -0.601179 11.8345 5.05885 5.45857
101 1 4 -0.60118 25.8628 18.0514 9.45555
102 1 4 -0.60118 10.6692 3.04037 5.45857
103 1 4 -0.60118 28.9351 14.9319 13.8671
104 1 4 -0.60118 7.59682 6.15984 1.04697
105 1 4 -0.60118 30.1005 14.2591 11.9641
106 1 4 -0.60118 6.43145 6.83267 2.95001
548 149 5 -0.35 5.46856 4.00629 2.78377
549 149 6 0.7 4.35932 4.32989 2.88611
550 149 5 -0.35 21.5161 4.65349 2.98844
557 152 5 -0.35 21.6456 16.1602 11.1758
558 152 6 0.7 21.9808 15.1965 10.6239
559 152 5 -0.35 22.3159 14.2328 10.0721
560 153 5 -0.35 27.3595 8.86268 10.6087
561 153 6 0.7 10.1243 8.44025 10.2853
562 153 5 -0.35 11.1551 8.01783 9.96185
563 154 5 -0.35 20.1333 11.9781 10.7922
564 154 6 0.7 20.6354 11.0513 11.2765
565 154 5 -0.35 21.1375 10.1245 11.7608
569 156 5 -0.35 12.3226 4.68124 10.0317
570 156 6 0.7 11.4225 3.98252 10.2492
571 156 5 -0.35 19.6555 19.1026 10.4666
ITEM: TIMESTEP
57000
ITEM: NUMBER OF ATOMS
130
ITEM: BOX BOUNDS xy xz yz pp pp pp
0.0000000000000000e+00 3.6531964750000000e+01 9.1329911900000003e+00
0.0000000000000000e+00 2.1091739680000000e+01 9.1329911900000003e+00
0.0000000000000000e+00 1.4914112149999999e+01 5.2729349200000000e+00
ITEM: ATOMS id mol type q x y z
1 1 1 1.10383 27.399 17.6496 10.5383
2 1 1 1.10383 9.13299 3.44217 4.3758
3 1 1 1.10383 27.399 15.8188 13.1274
4 1 1 1.10383 9.13299 5.27293 1.78671
5 1 1 1.10383 25.8135 14.9034 10.5383
6 1 1 1.10383 10.7185 6.18832 4.3758
7 1 1 1.10383 28.9845 14.9034 10.5383
8 1 1 1.10383 7.5475 6.18832 4.3758
9 1 2 0.115889 18.266 5.48596 12.6084
10 1 2 0.115889 18.266 15.6058 2.30572
11 1 2 0.115888 18.266 13.716 0.969417
12 1 2 0.115888 18.266 7.37578 13.9447
13 1 2 0.11589 25.3934 11.4908 8.12521
14 1 2 0.11589 11.1386 9.60096 6.7889
15 1 2 0.115888 11.1386 11.4908 8.12521
16 1 2 0.115888 25.3934 9.60096 6.7889
17 1 2 0.115889 15.5206 8.96083 0.969417
18 1 2 0.115889 21.0114 12.1309 13.9447
19 1 2 0.115888 22.648 13.0758 12.6084
20 1 2 0.115888 13.884 8.01592 2.30572
21 1 2 0.115889 21.0114 3.90092 8.12521
22 1 2 0.115889 15.5206 17.1908 6.7889
23 1 2 0.115887 13.884 16.2459 8.12521
24 1 2 0.115887 22.648 4.84583 6.7889
25 1 2 0.115889 22.648 16.2459 8.12521
26 1 2 0.115889 13.884 4.84583 6.7889
27 1 2 0.115887 15.5206 3.90092 8.12521
28 1 2 0.115887 21.0114 17.1908 6.7889
29 1 2 0.115889 21.0114 8.96083 0.969417
30 1 2 0.115889 15.5206 12.1309 13.9447
31 1 2 0.115887 13.884 13.0758 12.6084
32 1 2 0.115887 22.648 8.01592 2.30572
33 1 3 0.671939 27.399 18.7442 13.2542
34 1 3 0.671939 9.13299 2.34751 1.65994
35 1 3 0.671939 27.399 12.8934 9.117
36 1 3 0.671939 9.13299 8.19836 5.79712
37 1 3 0.67194 24.8655 14.3561 13.2542
38 1 3 0.67194 11.6665 6.73565 1.65994
39 1 3 0.67194 29.9325 17.2815 9.117
40 1 3 0.67194 6.5995 3.81022 5.79712
41 1 3 0.67194 24.8655 17.2815 9.117
42 1 3 0.67194 11.6665 3.81022 5.79712
43 1 3 0.67194 29.9325 14.3561 13.2542
44 1 3 0.67194 6.5995 6.73565 1.65994
45 1 3 -0.11508 27.399 19.957 14.1117
46 1 3 -0.11508 9.13299 1.13474 0.802379
47 1 3 -0.11508 27.399 11.6806 8.25944
48 1 3 -0.11508 9.13299 9.41113 6.65468
49 1 3 -0.11508 23.8152 13.7497 14.1117
50 1 3 -0.11508 12.7168 7.34203 0.802379
51 1 3 -0.11508 30.9828 17.8879 8.25944
52 1 3 -0.11508 5.54921 3.20384 6.65468
53 1 3 -0.11508 23.8152 17.8879 8.25944
54 1 3 -0.11508 12.7168 3.20384 6.65468
55 1 3 -0.11508 30.9828 13.7497 14.1117
56 1 3 -0.11508 5.54921 7.34203 0.802379
57 1 3 -0.0559 18.266 5.39949 13.5316
58 1 3 -0.0559 18.266 15.6923 1.38254
59 1 3 -0.055903 18.266 14.5575 0.580159
60 1 3 -0.055903 18.266 6.53422 14.334
61 1 3 -0.0559 26.1971 11.1132 7.85825
62 1 3 -0.0559 10.3349 9.9785 7.05587
63 1 3 -0.055903 10.3349 11.1132 7.85825
64 1 3 -0.055903 26.1971 9.9785 7.05587
65 1 3 -0.0559 14.7918 8.54005 0.580159
66 1 3 -0.0559 21.7402 12.5517 14.334
67 1 3 -0.055903 22.7229 13.1191 13.5316
68 1 3 -0.055903 13.8091 7.97268 1.38254
69 1 3 -0.0559 21.7402 3.39366 7.85825
70 1 3 -0.0559 14.7918 17.6981 7.05587
71 1 3 -0.055903 13.8091 17.1307 7.85825
72 1 3 -0.055903 22.7229 3.96103 7.05587
73 1 3 -0.055901 22.7229 17.1307 7.85825
74 1 3 -0.055901 13.8091 3.96103 7.05587
75 1 3 -0.055903 14.7918 3.39366 7.85825
76 1 3 -0.055903 21.7402 17.6981 7.05587
77 1 3 -0.0559 21.7402 8.54005 0.580159
78 1 3 -0.0559 14.7918 12.5517 14.334
79 1 3 -0.055903 13.8091 13.1191 13.5316
80 1 3 -0.055903 22.7229 7.97268 1.38254
81 1 4 -1.26215 27.399 15.8188 11.1856
82 1 4 -1.26215 9.13299 5.27293 3.72853
83 1 4 -0.60118 27.399 18.9383 11.9641
84 1 4 -0.60118 9.13299 2.15347 2.95001
85 1 4 -0.601179 27.399 17.5926 13.8671
86 1 4 -0.601179 9.13299 3.49912 1.04697
87 1 4 -0.601179 26.2336 13.3722 9.45555
88 1 4 -0.601179 10.2984 7.71958 5.45857
89 1 4 -0.60118 28.5643 13.3722 9.45555
90 1 4 -0.60118 7.96762 7.71958 5.45857
91 1 4 -0.60118 25.8628 14.9319 13.8671
92 1 4 -0.60118 10.6692 6.15984 1.04697
93 1 4 -0.601179 24.6974 14.2591 11.9641
94 1 4 -0.601179 11.8345 6.83267 2.95001
95 1 4 -0.60118 28.9351 18.0514 9.45555
96 1 4 -0.60118 7.59682 3.04037 5.45857
97 1 4 -0.601179 30.1005 16.0329 9.45555
98 1 4 -0.601179 6.43145 5.05885 5.45857
99 1 4 -0.601179 24.6974 16.0329 9.45555
100 1 4 -0.601179 11.8345 5.05885 5.45857
101 1 4 -0.60118 25.8628 18.0514 9.45555
102 1 4 -0.60118 10.6692 3.04037 5.45857
103 1 4 -0.60118 28.9351 14.9319 13.8671
104 1 4 -0.60118 7.59682 6.15984 1.04697
105 1 4 -0.60118 30.1005 14.2591 11.9641
106 1 4 -0.60118 6.43145 6.83267 2.95001
191 30 5 -0.35 28.1333 11.6863 14.1345
192 30 6 0.7 27.7184 12.2685 13.221
193 30 5 -0.35 27.3035 12.8508 12.3076
215 38 5 -0.35 15.736 15.2434 12.6732
216 38 6 0.7 14.7725 15.8546 12.4643
217 38 5 -0.35 32.0749 16.4659 12.2553
218 39 5 -0.35 8.25892 9.54648 2.29548
219 39 6 0.7 7.77693 10.2875 1.54433
220 39 5 -0.35 7.29494 11.0284 0.793173
230 43 5 -0.35 15.9261 5.13285 0.979701
231 43 6 0.7 25.0618 10.5695 14.7454
232 43 5 -0.35 25.0645 10.7331 13.597
233 44 5 -0.35 20.6371 9.06126 12.5148
234 44 6 0.7 21.5633 9.49193 11.9651
235 44 5 -0.35 22.4896 9.9226 11.4153
239 46 5 -0.35 3.26749 2.30739 4.09822
240 46 6 0.7 20.5725 2.79531 4.52736
241 46 5 -0.35 19.6116 3.28322 4.95649
245 48 5 -0.35 22.6209 19.1307 13.2334
246 48 6 0.7 23.5526 18.9128 13.8892
247 48 5 -0.35 24.4843 18.6949 14.545
248 49 5 -0.35 16.4984 4.24129 5.55529
249 49 6 0.7 16.9946 4.64657 4.58826
250 49 5 -0.35 17.4907 5.05185 3.62122
ITEM: TIMESTEP
58000
ITEM: NUMBER OF ATOMS
139
ITEM: BOX BOUNDS xy xz yz pp pp pp
0.0000000000000000e+00 3.6531964750000000e+01 9.1329911900000003e+00
0.0000000000000000e+00 2.1091739680000000e+01 9.1329911900000003e+00
0.0000000000000000e+00 1.4914112149999999e+01 5.2729349200000000e+00
ITEM: ATOMS id mol type q x y z
1 1 1 1.10383 27.399 17.6496 10.5383
2 1 1 1.10383 9.13299 3.44217 4.3758
3 1 1 1.10383 27.399 15.8188 13.1274
4 1 1 1.10383 9.13299 5.27293 1.78671
5 1 1 1.10383 25.8135 14.9034 10.5383
6 1 1 1.10383 10.7185 6.18832 4.3758
7 1 1 1.10383 28.9845 14.9034 10.5383
8 1 1 1.10383 7.5475 6.18832 4.3758
9 1 2 0.115889 18.266 5.48596 12.6084
10 1 2 0.115889 18.266 15.6058 2.30572
11 1 2 0.115888 18.266 13.716 0.969417
12 1 2 0.115888 18.266 7.37578 13.9447
13 1 2 0.11589 25.3934 11.4908 8.12521
14 1 2 0.11589 11.1386 9.60096 6.7889
15 1 2 0.115888 11.1386 11.4908 8.12521
16 1 2 0.115888 25.3934 9.60096 6.7889
17 1 2 0.115889 15.5206 8.96083 0.969417
18 1 2 0.115889 21.0114 12.1309 13.9447
19 1 2 0.115888 22.648 13.0758 12.6084
20 1 2 0.115888 13.884 8.01592 2.30572
21 1 2 0.115889 21.0114 3.90092 8.12521
22 1 2 0.115889 15.5206 17.1908 6.7889
23 1 2 0.115887 13.884 16.2459 8.12521
24 1 2 0.115887 22.648 4.84583 6.7889
25 1 2 0.115889 22.648 16.2459 8.12521
26 1 2 0.115889 13.884 4.84583 6.7889
27 1 2 0.115887 15.5206 3.90092 8.12521
28 1 2 0.115887 21.0114 17.1908 6.7889
29 1 2 0.115889 21.0114 8.96083 0.969417
30 1 2 0.115889 15.5206 12.1309 13.9447
31 1 2 0.115887 13.884 13.0758 12.6084
32 1 2 0.115887 22.648 8.01592 2.30572
33 1 3 0.671939 27.399 18.7442 13.2542
34 1 3 0.671939 9.13299 2.34751 1.65994
35 1 3 0.671939 27.399 12.8934 9.117
36 1 3 0.671939 9.13299 8.19836 5.79712
37 1 3 0.67194 24.8655 14.3561 13.2542
38 1 3 0.67194 11.6665 6.73565 1.65994
39 1 3 0.67194 29.9325 17.2815 9.117
40 1 3 0.67194 6.5995 3.81022 5.79712
41 1 3 0.67194 24.8655 17.2815 9.117
42 1 3 0.67194 11.6665 3.81022 5.79712
43 1 3 0.67194 29.9325 14.3561 13.2542
44 1 3 0.67194 6.5995 6.73565 1.65994
45 1 3 -0.11508 27.399 19.957 14.1117
46 1 3 -0.11508 9.13299 1.13474 0.802379
47 1 3 -0.11508 27.399 11.6806 8.25944
48 1 3 -0.11508 9.13299 9.41113 6.65468
49 1 3 -0.11508 23.8152 13.7497 14.1117
50 1 3 -0.11508 12.7168 7.34203 0.802379
51 1 3 -0.11508 30.9828 17.8879 8.25944
52 1 3 -0.11508 5.54921 3.20384 6.65468
53 1 3 -0.11508 23.8152 17.8879 8.25944
54 1 3 -0.11508 12.7168 3.20384 6.65468
55 1 3 -0.11508 30.9828 13.7497 14.1117
56 1 3 -0.11508 5.54921 7.34203 0.802379
57 1 3 -0.0559 18.266 5.39949 13.5316
58 1 3 -0.0559 18.266 15.6923 1.38254
59 1 3 -0.055903 18.266 14.5575 0.580159
60 1 3 -0.055903 18.266 6.53422 14.334
61 1 3 -0.0559 26.1971 11.1132 7.85825
62 1 3 -0.0559 10.3349 9.9785 7.05587
63 1 3 -0.055903 10.3349 11.1132 7.85825
64 1 3 -0.055903 26.1971 9.9785 7.05587
65 1 3 -0.0559 14.7918 8.54005 0.580159
66 1 3 -0.0559 21.7402 12.5517 14.334
67 1 3 -0.055903 22.7229 13.1191 13.5316
68 1 3 -0.055903 13.8091 7.97268 1.38254
69 1 3 -0.0559 21.7402 3.39366 7.85825
70 1 3 -0.0559 14.7918 17.6981 7.05587
71 1 3 -0.055903 13.8091 17.1307 7.85825
72 1 3 -0.055903 22.7229 3.96103 7.05587
73 1 3 -0.055901 22.7229 17.1307 7.85825
74 1 3 -0.055901 13.8091 3.96103 7.05587
75 1 3 -0.055903 14.7918 3.39366 7.85825
76 1 3 -0.055903 21.7402 17.6981 7.05587
77 1 3 -0.0559 21.7402 8.54005 0.580159
78 1 3 -0.0559 14.7918 12.5517 14.334
79 1 3 -0.055903 13.8091 13.1191 13.5316
80 1 3 -0.055903 22.7229 7.97268 1.38254
81 1 4 -1.26215 27.399 15.8188 11.1856
82 1 4 -1.26215 9.13299 5.27293 3.72853
83 1 4 -0.60118 27.399 18.9383 11.9641
84 1 4 -0.60118 9.13299 2.15347 2.95001
85 1 4 -0.601179 27.399 17.5926 13.8671
86 1 4 -0.601179 9.13299 3.49912 1.04697
87 1 4 -0.601179 26.2336 13.3722 9.45555
88 1 4 -0.601179 10.2984 7.71958 5.45857
89 1 4 -0.60118 28.5643 13.3722 9.45555
90 1 4 -0.60118 7.96762 7.71958 5.45857
91 1 4 -0.60118 25.8628 14.9319 13.8671
92 1 4 -0.60118 10.6692 6.15984 1.04697
93 1 4 -0.601179 24.6974 14.2591 11.9641
94 1 4 -0.601179 11.8345 6.83267 2.95001
95 1 4 -0.60118 28.9351 18.0514 9.45555
96 1 4 -0.60118 7.59682 3.04037 5.45857
97 1 4 -0.601179 30.1005 16.0329 9.45555
98 1 4 -0.601179 6.43145 5.05885 5.45857
99 1 4 -0.601179 24.6974 16.0329 9.45555
100 1 4 -0.601179 11.8345 5.05885 5.45857
101 1 4 -0.60118 25.8628 18.0514 9.45555
102 1 4 -0.60118 10.6692 3.04037 5.45857
103 1 4 -0.60118 28.9351 14.9319 13.8671
104 1 4 -0.60118 7.59682 6.15984 1.04697
105 1 4 -0.60118 30.1005 14.2591 11.9641
106 1 4 -0.60118 6.43145 6.83267 2.95001
1712 537 5 -0.35 18.3232 6.36669 0.326722
1713 537 6 0.7 27.3834 12.1338 14.1939
1714 537 5 -0.35 27.3107 12.6279 13.1469
1886 595 5 -0.35 14.9667 16.524 2.63538
1887 595 6 0.7 6.12953 1.82529 2.69412
1888 595 5 -0.35 6.42535 2.9454 2.75285
1949 616 5 -0.35 21.155 12.4899 0.250169
1950 616 6 0.7 30.6755 17.5449 14.0928
1951 616 5 -0.35 31.0629 17.327 13.0214
1979 626 5 -0.35 14.3375 2.58549 3.37689
1980 626 6 0.7 13.5148 3.33712 3.05466
1981 626 5 -0.35 12.6921 4.08875 2.73242
1994 631 5 -0.35 26.3537 6.57292 12.0757
1995 631 6 0.7 9.21834 6.57909 11.8165
1996 631 5 -0.35 10.349 6.58526 11.5574
2000 633 5 -0.35 21.6976 10.5565 4.01852
2001 633 6 0.7 20.655 10.1883 3.66803
2002 633 5 -0.35 19.6123 9.82 3.31753
2003 634 5 -0.35 23.4909 9.37583 13.5451
2004 634 6 0.7 22.9336 9.55347 12.5435
2005 634 5 -0.35 22.3762 9.73112 11.5418
2006 635 5 -0.35 24.387 10.533 1.36349
2007 635 6 0.7 24.4106 10.6583 0.210514
2008 635 5 -0.35 15.3011 16.0565 13.9716
2009 636 5 -0.35 18.5995 3.01554 3.6831
2010 636 6 0.7 18.103 4.06231 3.62537
2011 636 5 -0.35 17.6065 5.10908 3.56765
2012 637 5 -0.35 12.2955 15.1998 1.01742
2013 637 6 0.7 11.3886 14.77 0.435687
2014 637 5 -0.35 19.6147 19.6132 14.7681
2015 638 5 -0.35 14.9563 9.36112 11.2503
2016 638 6 0.7 13.9764 9.18703 10.6544
2017 638 5 -0.35 12.9965 9.01295 10.0586
ITEM: TIMESTEP
59000
ITEM: NUMBER OF ATOMS
127
ITEM: BOX BOUNDS xy xz yz pp pp pp
0.0000000000000000e+00 3.6531964750000000e+01 9.1329911900000003e+00
0.0000000000000000e+00 2.1091739680000000e+01 9.1329911900000003e+00
0.0000000000000000e+00 1.4914112149999999e+01 5.2729349200000000e+00
ITEM: ATOMS id mol type q x y z
1 1 1 1.10383 27.399 17.6496 10.5383
2 1 1 1.10383 9.13299 3.44217 4.3758
3 1 1 1.10383 27.399 15.8188 13.1274
4 1 1 1.10383 9.13299 5.27293 1.78671
5 1 1 1.10383 25.8135 14.9034 10.5383
6 1 1 1.10383 10.7185 6.18832 4.3758
7 1 1 1.10383 28.9845 14.9034 10.5383
8 1 1 1.10383 7.5475 6.18832 4.3758
9 1 2 0.115889 18.266 5.48596 12.6084
10 1 2 0.115889 18.266 15.6058 2.30572
11 1 2 0.115888 18.266 13.716 0.969417
12 1 2 0.115888 18.266 7.37578 13.9447
13 1 2 0.11589 25.3934 11.4908 8.12521
14 1 2 0.11589 11.1386 9.60096 6.7889
15 1 2 0.115888 11.1386 11.4908 8.12521
16 1 2 0.115888 25.3934 9.60096 6.7889
17 1 2 0.115889 15.5206 8.96083 0.969417
18 1 2 0.115889 21.0114 12.1309 13.9447
19 1 2 0.115888 22.648 13.0758 12.6084
20 1 2 0.115888 13.884 8.01592 2.30572
21 1 2 0.115889 21.0114 3.90092 8.12521
22 1 2 0.115889 15.5206 17.1908 6.7889
23 1 2 0.115887 13.884 16.2459 8.12521
24 1 2 0.115887 22.648 4.84583 6.7889
25 1 2 0.115889 22.648 16.2459 8.12521
26 1 2 0.115889 13.884 4.84583 6.7889
27 1 2 0.115887 15.5206 3.90092 8.12521
28 1 2 0.115887 21.0114 17.1908 6.7889
29 1 2 0.115889 21.0114 8.96083 0.969417
30 1 2 0.115889 15.5206 12.1309 13.9447
31 1 2 0.115887 13.884 13.0758 12.6084
32 1 2 0.115887 22.648 8.01592 2.30572
33 1 3 0.671939 27.399 18.7442 13.2542
34 1 3 0.671939 9.13299 2.34751 1.65994
35 1 3 0.671939 27.399 12.8934 9.117
36 1 3 0.671939 9.13299 8.19836 5.79712
37 1 3 0.67194 24.8655 14.3561 13.2542
38 1 3 0.67194 11.6665 6.73565 1.65994
39 1 3 0.67194 29.9325 17.2815 9.117
40 1 3 0.67194 6.5995 3.81022 5.79712
41 1 3 0.67194 24.8655 17.2815 9.117
42 1 3 0.67194 11.6665 3.81022 5.79712
43 1 3 0.67194 29.9325 14.3561 13.2542
44 1 3 0.67194 6.5995 6.73565 1.65994
45 1 3 -0.11508 27.399 19.957 14.1117
46 1 3 -0.11508 9.13299 1.13474 0.802379
47 1 3 -0.11508 27.399 11.6806 8.25944
48 1 3 -0.11508 9.13299 9.41113 6.65468
49 1 3 -0.11508 23.8152 13.7497 14.1117
50 1 3 -0.11508 12.7168 7.34203 0.802379
51 1 3 -0.11508 30.9828 17.8879 8.25944
52 1 3 -0.11508 5.54921 3.20384 6.65468
53 1 3 -0.11508 23.8152 17.8879 8.25944
54 1 3 -0.11508 12.7168 3.20384 6.65468
55 1 3 -0.11508 30.9828 13.7497 14.1117
56 1 3 -0.11508 5.54921 7.34203 0.802379
57 1 3 -0.0559 18.266 5.39949 13.5316
58 1 3 -0.0559 18.266 15.6923 1.38254
59 1 3 -0.055903 18.266 14.5575 0.580159
60 1 3 -0.055903 18.266 6.53422 14.334
61 1 3 -0.0559 26.1971 11.1132 7.85825
62 1 3 -0.0559 10.3349 9.9785 7.05587
63 1 3 -0.055903 10.3349 11.1132 7.85825
64 1 3 -0.055903 26.1971 9.9785 7.05587
65 1 3 -0.0559 14.7918 8.54005 0.580159
66 1 3 -0.0559 21.7402 12.5517 14.334
67 1 3 -0.055903 22.7229 13.1191 13.5316
68 1 3 -0.055903 13.8091 7.97268 1.38254
69 1 3 -0.0559 21.7402 3.39366 7.85825
70 1 3 -0.0559 14.7918 17.6981 7.05587
71 1 3 -0.055903 13.8091 17.1307 7.85825
72 1 3 -0.055903 22.7229 3.96103 7.05587
73 1 3 -0.055901 22.7229 17.1307 7.85825
74 1 3 -0.055901 13.8091 3.96103 7.05587
75 1 3 -0.055903 14.7918 3.39366 7.85825
76 1 3 -0.055903 21.7402 17.6981 7.05587
77 1 3 -0.0559 21.7402 8.54005 0.580159
78 1 3 -0.0559 14.7918 12.5517 14.334
79 1 3 -0.055903 13.8091 13.1191 13.5316
80 1 3 -0.055903 22.7229 7.97268 1.38254
81 1 4 -1.26215 27.399 15.8188 11.1856
82 1 4 -1.26215 9.13299 5.27293 3.72853
83 1 4 -0.60118 27.399 18.9383 11.9641
84 1 4 -0.60118 9.13299 2.15347 2.95001
85 1 4 -0.601179 27.399 17.5926 13.8671
86 1 4 -0.601179 9.13299 3.49912 1.04697
87 1 4 -0.601179 26.2336 13.3722 9.45555
88 1 4 -0.601179 10.2984 7.71958 5.45857
89 1 4 -0.60118 28.5643 13.3722 9.45555
90 1 4 -0.60118 7.96762 7.71958 5.45857
91 1 4 -0.60118 25.8628 14.9319 13.8671
92 1 4 -0.60118 10.6692 6.15984 1.04697
93 1 4 -0.601179 24.6974 14.2591 11.9641
94 1 4 -0.601179 11.8345 6.83267 2.95001
95 1 4 -0.60118 28.9351 18.0514 9.45555
96 1 4 -0.60118 7.59682 3.04037 5.45857
97 1 4 -0.601179 30.1005 16.0329 9.45555
98 1 4 -0.601179 6.43145 5.05885 5.45857
99 1 4 -0.601179 24.6974 16.0329 9.45555
100 1 4 -0.601179 11.8345 5.05885 5.45857
101 1 4 -0.60118 25.8628 18.0514 9.45555
102 1 4 -0.60118 10.6692 3.04037 5.45857
103 1 4 -0.60118 28.9351 14.9319 13.8671
104 1 4 -0.60118 7.59682 6.15984 1.04697
105 1 4 -0.60118 30.1005 14.2591 11.9641
106 1 4 -0.60118 6.43145 6.83267 2.95001
3374 1091 5 -0.35 11.1708 11.3606 3.92768
3375 1091 6 0.7 10.6517 10.6643 3.15868
3376 1091 5 -0.35 10.1326 9.96808 2.38968
3470 1123 5 -0.35 27.1702 17.6616 6.32704
3471 1123 6 0.7 18.1986 2.95645 6.60865
3472 1123 5 -0.35 18.3599 4.07012 6.89026
3482 1127 5 -0.35 25.1067 9.98926 3.67028
3483 1127 6 0.7 24.0268 9.78609 4.04204
3484 1127 5 -0.35 22.9469 9.58293 4.41381
3503 1134 5 -0.35 27.5896 12.1137 12.7368
3504 1134 6 0.7 26.7944 11.2766 12.8478
3505 1134 5 -0.35 25.9992 10.4394 12.9589
3542 1147 5 -0.35 28.3234 10.0126 10.8322
3543 1147 6 0.7 10.0737 8.95487 10.3563
3544 1147 5 -0.35 10.09 7.8971 9.8804
3566 1155 5 -0.35 13.5704 9.61592 7.92136
3567 1155 6 0.7 13.6468 8.49079 8.19309
3568 1155 5 -0.35 13.7232 7.36565 8.46481
3569 1156 5 -0.35 15.5999 3.31208 0.167432
3570 1156 6 0.7 24.1872 8.39491 14.0757
3571 1156 5 -0.35 23.6416 8.20481 13.0699
ITEM: TIMESTEP
60000
ITEM: NUMBER OF ATOMS
127
ITEM: BOX BOUNDS xy xz yz pp pp pp
0.0000000000000000e+00 3.6531964750000000e+01 9.1329911900000003e+00
0.0000000000000000e+00 2.1091739680000000e+01 9.1329911900000003e+00
0.0000000000000000e+00 1.4914112149999999e+01 5.2729349200000000e+00
ITEM: ATOMS id mol type q x y z
1 1 1 1.10383 27.399 17.6496 10.5383
2 1 1 1.10383 9.13299 3.44217 4.3758
3 1 1 1.10383 27.399 15.8188 13.1274
4 1 1 1.10383 9.13299 5.27293 1.78671
5 1 1 1.10383 25.8135 14.9034 10.5383
6 1 1 1.10383 10.7185 6.18832 4.3758
7 1 1 1.10383 28.9845 14.9034 10.5383
8 1 1 1.10383 7.5475 6.18832 4.3758
9 1 2 0.115889 18.266 5.48596 12.6084
10 1 2 0.115889 18.266 15.6058 2.30572
11 1 2 0.115888 18.266 13.716 0.969417
12 1 2 0.115888 18.266 7.37578 13.9447
13 1 2 0.11589 25.3934 11.4908 8.12521
14 1 2 0.11589 11.1386 9.60096 6.7889
15 1 2 0.115888 11.1386 11.4908 8.12521
16 1 2 0.115888 25.3934 9.60096 6.7889
17 1 2 0.115889 15.5206 8.96083 0.969417
18 1 2 0.115889 21.0114 12.1309 13.9447
19 1 2 0.115888 22.648 13.0758 12.6084
20 1 2 0.115888 13.884 8.01592 2.30572
21 1 2 0.115889 21.0114 3.90092 8.12521
22 1 2 0.115889 15.5206 17.1908 6.7889
23 1 2 0.115887 13.884 16.2459 8.12521
24 1 2 0.115887 22.648 4.84583 6.7889
25 1 2 0.115889 22.648 16.2459 8.12521
26 1 2 0.115889 13.884 4.84583 6.7889
27 1 2 0.115887 15.5206 3.90092 8.12521
28 1 2 0.115887 21.0114 17.1908 6.7889
29 1 2 0.115889 21.0114 8.96083 0.969417
30 1 2 0.115889 15.5206 12.1309 13.9447
31 1 2 0.115887 13.884 13.0758 12.6084
32 1 2 0.115887 22.648 8.01592 2.30572
33 1 3 0.671939 27.399 18.7442 13.2542
34 1 3 0.671939 9.13299 2.34751 1.65994
35 1 3 0.671939 27.399 12.8934 9.117
36 1 3 0.671939 9.13299 8.19836 5.79712
37 1 3 0.67194 24.8655 14.3561 13.2542
38 1 3 0.67194 11.6665 6.73565 1.65994
39 1 3 0.67194 29.9325 17.2815 9.117
40 1 3 0.67194 6.5995 3.81022 5.79712
41 1 3 0.67194 24.8655 17.2815 9.117
42 1 3 0.67194 11.6665 3.81022 5.79712
43 1 3 0.67194 29.9325 14.3561 13.2542
44 1 3 0.67194 6.5995 6.73565 1.65994
45 1 3 -0.11508 27.399 19.957 14.1117
46 1 3 -0.11508 9.13299 1.13474 0.802379
47 1 3 -0.11508 27.399 11.6806 8.25944
48 1 3 -0.11508 9.13299 9.41113 6.65468
49 1 3 -0.11508 23.8152 13.7497 14.1117
50 1 3 -0.11508 12.7168 7.34203 0.802379
51 1 3 -0.11508 30.9828 17.8879 8.25944
52 1 3 -0.11508 5.54921 3.20384 6.65468
53 1 3 -0.11508 23.8152 17.8879 8.25944
54 1 3 -0.11508 12.7168 3.20384 6.65468
55 1 3 -0.11508 30.9828 13.7497 14.1117
56 1 3 -0.11508 5.54921 7.34203 0.802379
57 1 3 -0.0559 18.266 5.39949 13.5316
58 1 3 -0.0559 18.266 15.6923 1.38254
59 1 3 -0.055903 18.266 14.5575 0.580159
60 1 3 -0.055903 18.266 6.53422 14.334
61 1 3 -0.0559 26.1971 11.1132 7.85825
62 1 3 -0.0559 10.3349 9.9785 7.05587
63 1 3 -0.055903 10.3349 11.1132 7.85825
64 1 3 -0.055903 26.1971 9.9785 7.05587
65 1 3 -0.0559 14.7918 8.54005 0.580159
66 1 3 -0.0559 21.7402 12.5517 14.334
67 1 3 -0.055903 22.7229 13.1191 13.5316
68 1 3 -0.055903 13.8091 7.97268 1.38254
69 1 3 -0.0559 21.7402 3.39366 7.85825
70 1 3 -0.0559 14.7918 17.6981 7.05587
71 1 3 -0.055903 13.8091 17.1307 7.85825
72 1 3 -0.055903 22.7229 3.96103 7.05587
73 1 3 -0.055901 22.7229 17.1307 7.85825
74 1 3 -0.055901 13.8091 3.96103 7.05587
75 1 3 -0.055903 14.7918 3.39366 7.85825
76 1 3 -0.055903 21.7402 17.6981 7.05587
77 1 3 -0.0559 21.7402 8.54005 0.580159
78 1 3 -0.0559 14.7918 12.5517 14.334
79 1 3 -0.055903 13.8091 13.1191 13.5316
80 1 3 -0.055903 22.7229 7.97268 1.38254
81 1 4 -1.26215 27.399 15.8188 11.1856
82 1 4 -1.26215 9.13299 5.27293 3.72853
83 1 4 -0.60118 27.399 18.9383 11.9641
84 1 4 -0.60118 9.13299 2.15347 2.95001
85 1 4 -0.601179 27.399 17.5926 13.8671
86 1 4 -0.601179 9.13299 3.49912 1.04697
87 1 4 -0.601179 26.2336 13.3722 9.45555
88 1 4 -0.601179 10.2984 7.71958 5.45857
89 1 4 -0.60118 28.5643 13.3722 9.45555
90 1 4 -0.60118 7.96762 7.71958 5.45857
91 1 4 -0.60118 25.8628 14.9319 13.8671
92 1 4 -0.60118 10.6692 6.15984 1.04697
93 1 4 -0.601179 24.6974 14.2591 11.9641
94 1 4 -0.601179 11.8345 6.83267 2.95001
95 1 4 -0.60118 28.9351 18.0514 9.45555
96 1 4 -0.60118 7.59682 3.04037 5.45857
97 1 4 -0.601179 30.1005 16.0329 9.45555
98 1 4 -0.601179 6.43145 5.05885 5.45857
99 1 4 -0.601179 24.6974 16.0329 9.45555
100 1 4 -0.601179 11.8345 5.05885 5.45857
101 1 4 -0.60118 25.8628 18.0514 9.45555
102 1 4 -0.60118 10.6692 3.04037 5.45857
103 1 4 -0.60118 28.9351 14.9319 13.8671
104 1 4 -0.60118 7.59682 6.15984 1.04697
105 1 4 -0.60118 30.1005 14.2591 11.9641
106 1 4 -0.60118 6.43145 6.83267 2.95001
4688 1529 5 -0.35 6.25701 3.23611 2.63074
4689 1529 6 0.7 6.2355 2.1088 2.90333
4690 1529 5 -0.35 15.347 16.8003 3.17591
4745 1548 5 -0.35 9.11445 3.37907 9.07514
4746 1548 6 0.7 8.92385 4.27105 8.35845
4747 1548 5 -0.35 8.73325 5.16303 7.64176
4796 1565 5 -0.35 22.3973 7.1609 5.2902
4797 1565 6 0.7 22.0672 6.18308 4.76053
4798 1565 5 -0.35 21.7372 5.20526 4.23086
4814 1571 5 -0.35 21.3027 16.4124 2.66734
4815 1571 6 0.7 21.8487 15.567 2.09047
4816 1571 5 -0.35 22.3948 14.7216 1.5136
4817 1572 5 -0.35 11.2564 14.1674 5.66215
4818 1572 6 0.7 10.5026 13.3672 5.29201
4819 1572 5 -0.35 9.74882 12.567 4.92186
4820 1573 5 -0.35 20.483 5.81857 0.878069
4821 1573 6 0.7 19.6465 5.99365 0.0937243
4822 1573 5 -0.35 27.943 11.4417 14.2235
4823 1574 5 -0.35 17.0716 14.0843 10.2642
4824 1574 6 0.7 16.7247 13.3951 9.39802
4825 1574 5 -0.35 16.3779 12.7059 8.53186
ITEM: TIMESTEP
61000
ITEM: NUMBER OF ATOMS
142
ITEM: BOX BOUNDS xy xz yz pp pp pp
0.0000000000000000e+00 3.6531964750000000e+01 9.1329911900000003e+00
0.0000000000000000e+00 2.1091739680000000e+01 9.1329911900000003e+00
0.0000000000000000e+00 1.4914112149999999e+01 5.2729349200000000e+00
ITEM: ATOMS id mol type q x y z
1 1 1 1.10383 27.399 17.6496 10.5383
2 1 1 1.10383 9.13299 3.44217 4.3758
3 1 1 1.10383 27.399 15.8188 13.1274
4 1 1 1.10383 9.13299 5.27293 1.78671
5 1 1 1.10383 25.8135 14.9034 10.5383
6 1 1 1.10383 10.7185 6.18832 4.3758
7 1 1 1.10383 28.9845 14.9034 10.5383
8 1 1 1.10383 7.5475 6.18832 4.3758
9 1 2 0.115889 18.266 5.48596 12.6084
10 1 2 0.115889 18.266 15.6058 2.30572
11 1 2 0.115888 18.266 13.716 0.969417
12 1 2 0.115888 18.266 7.37578 13.9447
13 1 2 0.11589 25.3934 11.4908 8.12521
14 1 2 0.11589 11.1386 9.60096 6.7889
15 1 2 0.115888 11.1386 11.4908 8.12521
16 1 2 0.115888 25.3934 9.60096 6.7889
17 1 2 0.115889 15.5206 8.96083 0.969417
18 1 2 0.115889 21.0114 12.1309 13.9447
19 1 2 0.115888 22.648 13.0758 12.6084
20 1 2 0.115888 13.884 8.01592 2.30572
21 1 2 0.115889 21.0114 3.90092 8.12521
22 1 2 0.115889 15.5206 17.1908 6.7889
23 1 2 0.115887 13.884 16.2459 8.12521
24 1 2 0.115887 22.648 4.84583 6.7889
25 1 2 0.115889 22.648 16.2459 8.12521
26 1 2 0.115889 13.884 4.84583 6.7889
27 1 2 0.115887 15.5206 3.90092 8.12521
28 1 2 0.115887 21.0114 17.1908 6.7889
29 1 2 0.115889 21.0114 8.96083 0.969417
30 1 2 0.115889 15.5206 12.1309 13.9447
31 1 2 0.115887 13.884 13.0758 12.6084
32 1 2 0.115887 22.648 8.01592 2.30572
33 1 3 0.671939 27.399 18.7442 13.2542
34 1 3 0.671939 9.13299 2.34751 1.65994
35 1 3 0.671939 27.399 12.8934 9.117
36 1 3 0.671939 9.13299 8.19836 5.79712
37 1 3 0.67194 24.8655 14.3561 13.2542
38 1 3 0.67194 11.6665 6.73565 1.65994
39 1 3 0.67194 29.9325 17.2815 9.117
40 1 3 0.67194 6.5995 3.81022 5.79712
41 1 3 0.67194 24.8655 17.2815 9.117
42 1 3 0.67194 11.6665 3.81022 5.79712
43 1 3 0.67194 29.9325 14.3561 13.2542
44 1 3 0.67194 6.5995 6.73565 1.65994
45 1 3 -0.11508 27.399 19.957 14.1117
46 1 3 -0.11508 9.13299 1.13474 0.802379
47 1 3 -0.11508 27.399 11.6806 8.25944
48 1 3 -0.11508 9.13299 9.41113 6.65468
49 1 3 -0.11508 23.8152 13.7497 14.1117
50 1 3 -0.11508 12.7168 7.34203 0.802379
51 1 3 -0.11508 30.9828 17.8879 8.25944
52 1 3 -0.11508 5.54921 3.20384 6.65468
53 1 3 -0.11508 23.8152 17.8879 8.25944
54 1 3 -0.11508 12.7168 3.20384 6.65468
55 1 3 -0.11508 30.9828 13.7497 14.1117
56 1 3 -0.11508 5.54921 7.34203 0.802379
57 1 3 -0.0559 18.266 5.39949 13.5316
58 1 3 -0.0559 18.266 15.6923 1.38254
59 1 3 -0.055903 18.266 14.5575 0.580159
60 1 3 -0.055903 18.266 6.53422 14.334
61 1 3 -0.0559 26.1971 11.1132 7.85825
62 1 3 -0.0559 10.3349 9.9785 7.05587
63 1 3 -0.055903 10.3349 11.1132 7.85825
64 1 3 -0.055903 26.1971 9.9785 7.05587
65 1 3 -0.0559 14.7918 8.54005 0.580159
66 1 3 -0.0559 21.7402 12.5517 14.334
67 1 3 -0.055903 22.7229 13.1191 13.5316
68 1 3 -0.055903 13.8091 7.97268 1.38254
69 1 3 -0.0559 21.7402 3.39366 7.85825
70 1 3 -0.0559 14.7918 17.6981 7.05587
71 1 3 -0.055903 13.8091 17.1307 7.85825
72 1 3 -0.055903 22.7229 3.96103 7.05587
73 1 3 -0.055901 22.7229 17.1307 7.85825
74 1 3 -0.055901 13.8091 3.96103 7.05587
75 1 3 -0.055903 14.7918 3.39366 7.85825
76 1 3 -0.055903 21.7402 17.6981 7.05587
77 1 3 -0.0559 21.7402 8.54005 0.580159
78 1 3 -0.0559 14.7918 12.5517 14.334
79 1 3 -0.055903 13.8091 13.1191 13.5316
80 1 3 -0.055903 22.7229 7.97268 1.38254
81 1 4 -1.26215 27.399 15.8188 11.1856
82 1 4 -1.26215 9.13299 5.27293 3.72853
83 1 4 -0.60118 27.399 18.9383 11.9641
84 1 4 -0.60118 9.13299 2.15347 2.95001
85 1 4 -0.601179 27.399 17.5926 13.8671
86 1 4 -0.601179 9.13299 3.49912 1.04697
87 1 4 -0.601179 26.2336 13.3722 9.45555
88 1 4 -0.601179 10.2984 7.71958 5.45857
89 1 4 -0.60118 28.5643 13.3722 9.45555
90 1 4 -0.60118 7.96762 7.71958 5.45857
91 1 4 -0.60118 25.8628 14.9319 13.8671
92 1 4 -0.60118 10.6692 6.15984 1.04697
93 1 4 -0.601179 24.6974 14.2591 11.9641
94 1 4 -0.601179 11.8345 6.83267 2.95001
95 1 4 -0.60118 28.9351 18.0514 9.45555
96 1 4 -0.60118 7.59682 3.04037 5.45857
97 1 4 -0.601179 30.1005 16.0329 9.45555
98 1 4 -0.601179 6.43145 5.05885 5.45857
99 1 4 -0.601179 24.6974 16.0329 9.45555
100 1 4 -0.601179 11.8345 5.05885 5.45857
101 1 4 -0.60118 25.8628 18.0514 9.45555
102 1 4 -0.60118 10.6692 3.04037 5.45857
103 1 4 -0.60118 28.9351 14.9319 13.8671
104 1 4 -0.60118 7.59682 6.15984 1.04697
105 1 4 -0.60118 30.1005 14.2591 11.9641
106 1 4 -0.60118 6.43145 6.83267 2.95001
5870 1923 5 -0.35 25.3276 11.174 12.1022
5871 1923 6 0.7 24.6317 11.2587 11.178
5872 1923 5 -0.35 23.9357 11.3433 10.2538
5948 1949 5 -0.35 20.0028 5.25424 10.4865
5949 1949 6 0.7 20.6313 4.45102 11.0391
5950 1949 5 -0.35 30.3929 19.4666 11.5917
6098 1999 5 -0.35 15.9635 9.05197 13.8797
6099 1999 6 0.7 16.8789 9.6862 13.5551
6100 1999 5 -0.35 17.7944 10.3204 13.2304
6116 2005 5 -0.35 19.2954 13.8827 11.4723
6117 2005 6 0.7 18.6069 13.6353 12.3725
6118 2005 5 -0.35 17.9183 13.3878 13.2726
6122 2007 5 -0.35 32.2134 17.0536 12.5597
6123 2007 6 0.7 14.6493 16.5764 11.769
6124 2007 5 -0.35 15.3512 16.0992 10.9783
6137 2012 5 -0.35 10.1049 5.10542 9.42107
6138 2012 6 0.7 9.29704 5.41093 8.64675
6139 2012 5 -0.35 8.48913 5.71645 7.87244
6140 2013 5 -0.35 19.6107 8.55383 10.6213
6141 2013 6 0.7 19.8262 9.64102 10.9636
6142 2013 5 -0.35 20.0417 10.7282 11.3059
6146 2015 5 -0.35 7.50318 10.3169 2.51166
6147 2015 6 0.7 7.2021 10.2002 1.3975
6148 2015 5 -0.35 6.90101 10.0836 0.283348
6161 2020 5 -0.35 12.9318 13.2101 8.01281
6162 2020 6 0.7 13.6573 13.4855 8.87502
6163 2020 5 -0.35 14.3828 13.7609 9.73723
6179 2026 5 -0.35 14.7888 4.46216 2.89044
6180 2026 6 0.7 14.7516 4.49206 1.73142
6181 2026 5 -0.35 14.7145 4.52196 0.572399
6182 2027 5 -0.35 18.2553 16.3899 12.8362
6183 2027 6 0.7 18.5304 17.1648 13.6544
6184 2027 5 -0.35 18.8055 17.9397 14.4726
6185 2028 5 -0.35 15.4694 14.191 4.84214
6186 2028 6 0.7 14.9446 13.2163 4.49547
6187 2028 5 -0.35 14.4199 12.2416 4.1488
ITEM: TIMESTEP
62000
ITEM: NUMBER OF ATOMS
133
ITEM: BOX BOUNDS xy xz yz pp pp pp
0.0000000000000000e+00 3.6531964750000000e+01 9.1329911900000003e+00
0.0000000000000000e+00 2.1091739680000000e+01 9.1329911900000003e+00
0.0000000000000000e+00 1.4914112149999999e+01 5.2729349200000000e+00
ITEM: ATOMS id mol type q x y z
1 1 1 1.10383 27.399 17.6496 10.5383
2 1 1 1.10383 9.13299 3.44217 4.3758
3 1 1 1.10383 27.399 15.8188 13.1274
4 1 1 1.10383 9.13299 5.27293 1.78671
5 1 1 1.10383 25.8135 14.9034 10.5383
6 1 1 1.10383 10.7185 6.18832 4.3758
7 1 1 1.10383 28.9845 14.9034 10.5383
8 1 1 1.10383 7.5475 6.18832 4.3758
9 1 2 0.115889 18.266 5.48596 12.6084
10 1 2 0.115889 18.266 15.6058 2.30572
11 1 2 0.115888 18.266 13.716 0.969417
12 1 2 0.115888 18.266 7.37578 13.9447
13 1 2 0.11589 25.3934 11.4908 8.12521
14 1 2 0.11589 11.1386 9.60096 6.7889
15 1 2 0.115888 11.1386 11.4908 8.12521
16 1 2 0.115888 25.3934 9.60096 6.7889
17 1 2 0.115889 15.5206 8.96083 0.969417
18 1 2 0.115889 21.0114 12.1309 13.9447
19 1 2 0.115888 22.648 13.0758 12.6084
20 1 2 0.115888 13.884 8.01592 2.30572
21 1 2 0.115889 21.0114 3.90092 8.12521
22 1 2 0.115889 15.5206 17.1908 6.7889
23 1 2 0.115887 13.884 16.2459 8.12521
24 1 2 0.115887 22.648 4.84583 6.7889
25 1 2 0.115889 22.648 16.2459 8.12521
26 1 2 0.115889 13.884 4.84583 6.7889
27 1 2 0.115887 15.5206 3.90092 8.12521
28 1 2 0.115887 21.0114 17.1908 6.7889
29 1 2 0.115889 21.0114 8.96083 0.969417
30 1 2 0.115889 15.5206 12.1309 13.9447
31 1 2 0.115887 13.884 13.0758 12.6084
32 1 2 0.115887 22.648 8.01592 2.30572
33 1 3 0.671939 27.399 18.7442 13.2542
34 1 3 0.671939 9.13299 2.34751 1.65994
35 1 3 0.671939 27.399 12.8934 9.117
36 1 3 0.671939 9.13299 8.19836 5.79712
37 1 3 0.67194 24.8655 14.3561 13.2542
38 1 3 0.67194 11.6665 6.73565 1.65994
39 1 3 0.67194 29.9325 17.2815 9.117
40 1 3 0.67194 6.5995 3.81022 5.79712
41 1 3 0.67194 24.8655 17.2815 9.117
42 1 3 0.67194 11.6665 3.81022 5.79712
43 1 3 0.67194 29.9325 14.3561 13.2542
44 1 3 0.67194 6.5995 6.73565 1.65994
45 1 3 -0.11508 27.399 19.957 14.1117
46 1 3 -0.11508 9.13299 1.13474 0.802379
47 1 3 -0.11508 27.399 11.6806 8.25944
48 1 3 -0.11508 9.13299 9.41113 6.65468
49 1 3 -0.11508 23.8152 13.7497 14.1117
50 1 3 -0.11508 12.7168 7.34203 0.802379
51 1 3 -0.11508 30.9828 17.8879 8.25944
52 1 3 -0.11508 5.54921 3.20384 6.65468
53 1 3 -0.11508 23.8152 17.8879 8.25944
54 1 3 -0.11508 12.7168 3.20384 6.65468
55 1 3 -0.11508 30.9828 13.7497 14.1117
56 1 3 -0.11508 5.54921 7.34203 0.802379
57 1 3 -0.0559 18.266 5.39949 13.5316
58 1 3 -0.0559 18.266 15.6923 1.38254
59 1 3 -0.055903 18.266 14.5575 0.580159
60 1 3 -0.055903 18.266 6.53422 14.334
61 1 3 -0.0559 26.1971 11.1132 7.85825
62 1 3 -0.0559 10.3349 9.9785 7.05587
63 1 3 -0.055903 10.3349 11.1132 7.85825
64 1 3 -0.055903 26.1971 9.9785 7.05587
65 1 3 -0.0559 14.7918 8.54005 0.580159
66 1 3 -0.0559 21.7402 12.5517 14.334
67 1 3 -0.055903 22.7229 13.1191 13.5316
68 1 3 -0.055903 13.8091 7.97268 1.38254
69 1 3 -0.0559 21.7402 3.39366 7.85825
70 1 3 -0.0559 14.7918 17.6981 7.05587
71 1 3 -0.055903 13.8091 17.1307 7.85825
72 1 3 -0.055903 22.7229 3.96103 7.05587
73 1 3 -0.055901 22.7229 17.1307 7.85825
74 1 3 -0.055901 13.8091 3.96103 7.05587
75 1 3 -0.055903 14.7918 3.39366 7.85825
76 1 3 -0.055903 21.7402 17.6981 7.05587
77 1 3 -0.0559 21.7402 8.54005 0.580159
78 1 3 -0.0559 14.7918 12.5517 14.334
79 1 3 -0.055903 13.8091 13.1191 13.5316
80 1 3 -0.055903 22.7229 7.97268 1.38254
81 1 4 -1.26215 27.399 15.8188 11.1856
82 1 4 -1.26215 9.13299 5.27293 3.72853
83 1 4 -0.60118 27.399 18.9383 11.9641
84 1 4 -0.60118 9.13299 2.15347 2.95001
85 1 4 -0.601179 27.399 17.5926 13.8671
86 1 4 -0.601179 9.13299 3.49912 1.04697
87 1 4 -0.601179 26.2336 13.3722 9.45555
88 1 4 -0.601179 10.2984 7.71958 5.45857
89 1 4 -0.60118 28.5643 13.3722 9.45555
90 1 4 -0.60118 7.96762 7.71958 5.45857
91 1 4 -0.60118 25.8628 14.9319 13.8671
92 1 4 -0.60118 10.6692 6.15984 1.04697
93 1 4 -0.601179 24.6974 14.2591 11.9641
94 1 4 -0.601179 11.8345 6.83267 2.95001
95 1 4 -0.60118 28.9351 18.0514 9.45555
96 1 4 -0.60118 7.59682 3.04037 5.45857
97 1 4 -0.601179 30.1005 16.0329 9.45555
98 1 4 -0.601179 6.43145 5.05885 5.45857
99 1 4 -0.601179 24.6974 16.0329 9.45555
100 1 4 -0.601179 11.8345 5.05885 5.45857
101 1 4 -0.60118 25.8628 18.0514 9.45555
102 1 4 -0.60118 10.6692 3.04037 5.45857
103 1 4 -0.60118 28.9351 14.9319 13.8671
104 1 4 -0.60118 7.59682 6.15984 1.04697
105 1 4 -0.60118 30.1005 14.2591 11.9641
106 1 4 -0.60118 6.43145 6.83267 2.95001
7604 2501 5 -0.35 24.7246 11.7473 3.79332
7605 2501 6 0.7 25.7754 11.258 3.74838
7606 2501 5 -0.35 8.56022 10.7687 3.70344
7619 2506 5 -0.35 26.5897 14.6328 5.71397
7620 2506 6 0.7 27.1951 14.9328 6.65689
7621 2506 5 -0.35 27.8004 15.2328 7.59982
7646 2515 5 -0.35 14.0004 3.60898 0.844546
7647 2515 6 0.7 13.0919 3.19423 1.4346
7648 2515 5 -0.35 12.1834 2.77949 2.02465
7688 2529 5 -0.35 23.3253 17.5465 12.3369
7689 2529 6 0.7 22.6793 16.828 11.695
7690 2529 5 -0.35 22.0333 16.1094 11.0531
7715 2538 5 -0.35 17.2098 2.3325 5.74167
7716 2538 6 0.7 17.0578 2.50188 4.60421
7717 2538 5 -0.35 16.9058 2.67127 3.46676
7742 2547 5 -0.35 13.549 9.22183 5.21068
7743 2547 6 0.7 14.1619 9.66495 4.33118
7744 2547 5 -0.35 14.7749 10.1081 3.45168
7745 2548 5 -0.35 16.5983 7.49149 3.80299
7746 2548 6 0.7 17.4623 7.85424 3.11931
7747 2548 5 -0.35 18.3264 8.21699 2.43563
7751 2550 5 -0.35 20.2136 5.89671 4.25949
7752 2550 6 0.7 20.2832 5.5825 3.14503
7753 2550 5 -0.35 20.3529 5.26828 2.03057
7781 2560 5 -0.35 13.626 8.26202 11.9084
7782 2560 6 0.7 12.5692 8.04611 11.4818
7783 2560 5 -0.35 11.5123 7.8302 11.0553
ITEM: TIMESTEP
63000
ITEM: NUMBER OF ATOMS
136
ITEM: BOX BOUNDS xy xz yz pp pp pp
0.0000000000000000e+00 3.6531964750000000e+01 9.1329911900000003e+00
0.0000000000000000e+00 2.1091739680000000e+01 9.1329911900000003e+00
0.0000000000000000e+00 1.4914112149999999e+01 5.2729349200000000e+00
ITEM: ATOMS id mol type q x y z
1 1 1 1.10383 27.399 17.6496 10.5383
2 1 1 1.10383 9.13299 3.44217 4.3758
3 1 1 1.10383 27.399 15.8188 13.1274
4 1 1 1.10383 9.13299 5.27293 1.78671
5 1 1 1.10383 25.8135 14.9034 10.5383
6 1 1 1.10383 10.7185 6.18832 4.3758
7 1 1 1.10383 28.9845 14.9034 10.5383
8 1 1 1.10383 7.5475 6.18832 4.3758
9 1 2 0.115889 18.266 5.48596 12.6084
10 1 2 0.115889 18.266 15.6058 2.30572
11 1 2 0.115888 18.266 13.716 0.969417
12 1 2 0.115888 18.266 7.37578 13.9447
13 1 2 0.11589 25.3934 11.4908 8.12521
14 1 2 0.11589 11.1386 9.60096 6.7889
15 1 2 0.115888 11.1386 11.4908 8.12521
16 1 2 0.115888 25.3934 9.60096 6.7889
17 1 2 0.115889 15.5206 8.96083 0.969417
18 1 2 0.115889 21.0114 12.1309 13.9447
19 1 2 0.115888 22.648 13.0758 12.6084
20 1 2 0.115888 13.884 8.01592 2.30572
21 1 2 0.115889 21.0114 3.90092 8.12521
22 1 2 0.115889 15.5206 17.1908 6.7889
23 1 2 0.115887 13.884 16.2459 8.12521
24 1 2 0.115887 22.648 4.84583 6.7889
25 1 2 0.115889 22.648 16.2459 8.12521
26 1 2 0.115889 13.884 4.84583 6.7889
27 1 2 0.115887 15.5206 3.90092 8.12521
28 1 2 0.115887 21.0114 17.1908 6.7889
29 1 2 0.115889 21.0114 8.96083 0.969417
30 1 2 0.115889 15.5206 12.1309 13.9447
31 1 2 0.115887 13.884 13.0758 12.6084
32 1 2 0.115887 22.648 8.01592 2.30572
33 1 3 0.671939 27.399 18.7442 13.2542
34 1 3 0.671939 9.13299 2.34751 1.65994
35 1 3 0.671939 27.399 12.8934 9.117
36 1 3 0.671939 9.13299 8.19836 5.79712
37 1 3 0.67194 24.8655 14.3561 13.2542
38 1 3 0.67194 11.6665 6.73565 1.65994
39 1 3 0.67194 29.9325 17.2815 9.117
40 1 3 0.67194 6.5995 3.81022 5.79712
41 1 3 0.67194 24.8655 17.2815 9.117
42 1 3 0.67194 11.6665 3.81022 5.79712
43 1 3 0.67194 29.9325 14.3561 13.2542
44 1 3 0.67194 6.5995 6.73565 1.65994
45 1 3 -0.11508 27.399 19.957 14.1117
46 1 3 -0.11508 9.13299 1.13474 0.802379
47 1 3 -0.11508 27.399 11.6806 8.25944
48 1 3 -0.11508 9.13299 9.41113 6.65468
49 1 3 -0.11508 23.8152 13.7497 14.1117
50 1 3 -0.11508 12.7168 7.34203 0.802379
51 1 3 -0.11508 30.9828 17.8879 8.25944
52 1 3 -0.11508 5.54921 3.20384 6.65468
53 1 3 -0.11508 23.8152 17.8879 8.25944
54 1 3 -0.11508 12.7168 3.20384 6.65468
55 1 3 -0.11508 30.9828 13.7497 14.1117
56 1 3 -0.11508 5.54921 7.34203 0.802379
57 1 3 -0.0559 18.266 5.39949 13.5316
58 1 3 -0.0559 18.266 15.6923 1.38254
59 1 3 -0.055903 18.266 14.5575 0.580159
60 1 3 -0.055903 18.266 6.53422 14.334
61 1 3 -0.0559 26.1971 11.1132 7.85825
62 1 3 -0.0559 10.3349 9.9785 7.05587
63 1 3 -0.055903 10.3349 11.1132 7.85825
64 1 3 -0.055903 26.1971 9.9785 7.05587
65 1 3 -0.0559 14.7918 8.54005 0.580159
66 1 3 -0.0559 21.7402 12.5517 14.334
67 1 3 -0.055903 22.7229 13.1191 13.5316
68 1 3 -0.055903 13.8091 7.97268 1.38254
69 1 3 -0.0559 21.7402 3.39366 7.85825
70 1 3 -0.0559 14.7918 17.6981 7.05587
71 1 3 -0.055903 13.8091 17.1307 7.85825
72 1 3 -0.055903 22.7229 3.96103 7.05587
73 1 3 -0.055901 22.7229 17.1307 7.85825
74 1 3 -0.055901 13.8091 3.96103 7.05587
75 1 3 -0.055903 14.7918 3.39366 7.85825
76 1 3 -0.055903 21.7402 17.6981 7.05587
77 1 3 -0.0559 21.7402 8.54005 0.580159
78 1 3 -0.0559 14.7918 12.5517 14.334
79 1 3 -0.055903 13.8091 13.1191 13.5316
80 1 3 -0.055903 22.7229 7.97268 1.38254
81 1 4 -1.26215 27.399 15.8188 11.1856
82 1 4 -1.26215 9.13299 5.27293 3.72853
83 1 4 -0.60118 27.399 18.9383 11.9641
84 1 4 -0.60118 9.13299 2.15347 2.95001
85 1 4 -0.601179 27.399 17.5926 13.8671
86 1 4 -0.601179 9.13299 3.49912 1.04697
87 1 4 -0.601179 26.2336 13.3722 9.45555
88 1 4 -0.601179 10.2984 7.71958 5.45857
89 1 4 -0.60118 28.5643 13.3722 9.45555
90 1 4 -0.60118 7.96762 7.71958 5.45857
91 1 4 -0.60118 25.8628 14.9319 13.8671
92 1 4 -0.60118 10.6692 6.15984 1.04697
93 1 4 -0.601179 24.6974 14.2591 11.9641
94 1 4 -0.601179 11.8345 6.83267 2.95001
95 1 4 -0.60118 28.9351 18.0514 9.45555
96 1 4 -0.60118 7.59682 3.04037 5.45857
97 1 4 -0.601179 30.1005 16.0329 9.45555
98 1 4 -0.601179 6.43145 5.05885 5.45857
99 1 4 -0.601179 24.6974 16.0329 9.45555
100 1 4 -0.601179 11.8345 5.05885 5.45857
101 1 4 -0.60118 25.8628 18.0514 9.45555
102 1 4 -0.60118 10.6692 3.04037 5.45857
103 1 4 -0.60118 28.9351 14.9319 13.8671
104 1 4 -0.60118 7.59682 6.15984 1.04697
105 1 4 -0.60118 30.1005 14.2591 11.9641
106 1 4 -0.60118 6.43145 6.83267 2.95001
8999 2966 5 -0.35 21.6714 16.7804 10.732
9000 2966 6 0.7 21.3311 15.6732 10.7946
9001 2966 5 -0.35 20.9909 14.566 10.8571
9011 2970 5 -0.35 17.8646 14.1775 14.683
9012 2970 6 0.7 18.0527 14.4493 13.571
9013 2970 5 -0.35 18.2408 14.7211 12.4591
9047 2982 5 -0.35 23.7157 18.3494 14.7283
9048 2982 6 0.7 23.7538 17.8737 13.671
9049 2982 5 -0.35 23.7918 17.398 12.6137
9110 3003 5 -0.35 8.9211 3.22373 8.45783
9111 3003 6 0.7 18.2515 18.0187 7.9496
9112 3003 5 -0.35 18.4489 16.9948 7.44137
9260 3053 5 -0.35 24.296 10.5346 2.52912
9261 3053 6 0.7 24.5923 10.824 1.44559
9262 3053 5 -0.35 6.62261 11.1134 0.362053
9281 3060 5 -0.35 22.6324 10.7495 9.41229
9282 3060 6 0.7 22.3385 11.8094 9.04375
9283 3060 5 -0.35 22.0447 12.8693 8.6752
9290 3063 5 -0.35 14.1155 12.6968 9.75018
9291 3063 6 0.7 14.6137 13.744 9.77861
9292 3063 5 -0.35 15.1119 14.7912 9.80705
9296 3065 5 -0.35 4.33487 3.89534 2.95896
9297 3065 6 0.7 22 4.60467 3.6528
9298 3065 5 -0.35 21.3992 5.314 4.34665
9302 3067 5 -0.35 16.8612 10.0748 11.9948
9303 3067 6 0.7 17.9423 9.68361 12.1494
9304 3067 5 -0.35 19.0233 9.29238 12.304
9308 3069 5 -0.35 28.8331 10.7737 14.1847
9309 3069 6 0.7 28.4775 10.8837 13.086
9310 3069 5 -0.35 28.1219 10.9937 11.9874
ITEM: TIMESTEP
64000
ITEM: NUMBER OF ATOMS
130
ITEM: BOX BOUNDS xy xz yz pp pp pp
0.0000000000000000e+00 3.6531964750000000e+01 9.1329911900000003e+00
0.0000000000000000e+00 2.1091739680000000e+01 9.1329911900000003e+00
0.0000000000000000e+00 1.4914112149999999e+01 5.2729349200000000e+00
ITEM: ATOMS id mol type q x y z
1 1 1 1.10383 27.399 17.6496 10.5383
2 1 1 1.10383 9.13299 3.44217 4.3758
3 1 1 1.10383 27.399 15.8188 13.1274
4 1 1 1.10383 9.13299 5.27293 1.78671
5 1 1 1.10383 25.8135 14.9034 10.5383
6 1 1 1.10383 10.7185 6.18832 4.3758
7 1 1 1.10383 28.9845 14.9034 10.5383
8 1 1 1.10383 7.5475 6.18832 4.3758
9 1 2 0.115889 18.266 5.48596 12.6084
10 1 2 0.115889 18.266 15.6058 2.30572
11 1 2 0.115888 18.266 13.716 0.969417
12 1 2 0.115888 18.266 7.37578 13.9447
13 1 2 0.11589 25.3934 11.4908 8.12521
14 1 2 0.11589 11.1386 9.60096 6.7889
15 1 2 0.115888 11.1386 11.4908 8.12521
16 1 2 0.115888 25.3934 9.60096 6.7889
17 1 2 0.115889 15.5206 8.96083 0.969417
18 1 2 0.115889 21.0114 12.1309 13.9447
19 1 2 0.115888 22.648 13.0758 12.6084
20 1 2 0.115888 13.884 8.01592 2.30572
21 1 2 0.115889 21.0114 3.90092 8.12521
22 1 2 0.115889 15.5206 17.1908 6.7889
23 1 2 0.115887 13.884 16.2459 8.12521
24 1 2 0.115887 22.648 4.84583 6.7889
25 1 2 0.115889 22.648 16.2459 8.12521
26 1 2 0.115889 13.884 4.84583 6.7889
27 1 2 0.115887 15.5206 3.90092 8.12521
28 1 2 0.115887 21.0114 17.1908 6.7889
29 1 2 0.115889 21.0114 8.96083 0.969417
30 1 2 0.115889 15.5206 12.1309 13.9447
31 1 2 0.115887 13.884 13.0758 12.6084
32 1 2 0.115887 22.648 8.01592 2.30572
33 1 3 0.671939 27.399 18.7442 13.2542
34 1 3 0.671939 9.13299 2.34751 1.65994
35 1 3 0.671939 27.399 12.8934 9.117
36 1 3 0.671939 9.13299 8.19836 5.79712
37 1 3 0.67194 24.8655 14.3561 13.2542
38 1 3 0.67194 11.6665 6.73565 1.65994
39 1 3 0.67194 29.9325 17.2815 9.117
40 1 3 0.67194 6.5995 3.81022 5.79712
41 1 3 0.67194 24.8655 17.2815 9.117
42 1 3 0.67194 11.6665 3.81022 5.79712
43 1 3 0.67194 29.9325 14.3561 13.2542
44 1 3 0.67194 6.5995 6.73565 1.65994
45 1 3 -0.11508 27.399 19.957 14.1117
46 1 3 -0.11508 9.13299 1.13474 0.802379
47 1 3 -0.11508 27.399 11.6806 8.25944
48 1 3 -0.11508 9.13299 9.41113 6.65468
49 1 3 -0.11508 23.8152 13.7497 14.1117
50 1 3 -0.11508 12.7168 7.34203 0.802379
51 1 3 -0.11508 30.9828 17.8879 8.25944
52 1 3 -0.11508 5.54921 3.20384 6.65468
53 1 3 -0.11508 23.8152 17.8879 8.25944
54 1 3 -0.11508 12.7168 3.20384 6.65468
55 1 3 -0.11508 30.9828 13.7497 14.1117
56 1 3 -0.11508 5.54921 7.34203 0.802379
57 1 3 -0.0559 18.266 5.39949 13.5316
58 1 3 -0.0559 18.266 15.6923 1.38254
59 1 3 -0.055903 18.266 14.5575 0.580159
60 1 3 -0.055903 18.266 6.53422 14.334
61 1 3 -0.0559 26.1971 11.1132 7.85825
62 1 3 -0.0559 10.3349 9.9785 7.05587
63 1 3 -0.055903 10.3349 11.1132 7.85825
64 1 3 -0.055903 26.1971 9.9785 7.05587
65 1 3 -0.0559 14.7918 8.54005 0.580159
66 1 3 -0.0559 21.7402 12.5517 14.334
67 1 3 -0.055903 22.7229 13.1191 13.5316
68 1 3 -0.055903 13.8091 7.97268 1.38254
69 1 3 -0.0559 21.7402 3.39366 7.85825
70 1 3 -0.0559 14.7918 17.6981 7.05587
71 1 3 -0.055903 13.8091 17.1307 7.85825
72 1 3 -0.055903 22.7229 3.96103 7.05587
73 1 3 -0.055901 22.7229 17.1307 7.85825
74 1 3 -0.055901 13.8091 3.96103 7.05587
75 1 3 -0.055903 14.7918 3.39366 7.85825
76 1 3 -0.055903 21.7402 17.6981 7.05587
77 1 3 -0.0559 21.7402 8.54005 0.580159
78 1 3 -0.0559 14.7918 12.5517 14.334
79 1 3 -0.055903 13.8091 13.1191 13.5316
80 1 3 -0.055903 22.7229 7.97268 1.38254
81 1 4 -1.26215 27.399 15.8188 11.1856
82 1 4 -1.26215 9.13299 5.27293 3.72853
83 1 4 -0.60118 27.399 18.9383 11.9641
84 1 4 -0.60118 9.13299 2.15347 2.95001
85 1 4 -0.601179 27.399 17.5926 13.8671
86 1 4 -0.601179 9.13299 3.49912 1.04697
87 1 4 -0.601179 26.2336 13.3722 9.45555
88 1 4 -0.601179 10.2984 7.71958 5.45857
89 1 4 -0.60118 28.5643 13.3722 9.45555
90 1 4 -0.60118 7.96762 7.71958 5.45857
91 1 4 -0.60118 25.8628 14.9319 13.8671
92 1 4 -0.60118 10.6692 6.15984 1.04697
93 1 4 -0.601179 24.6974 14.2591 11.9641
94 1 4 -0.601179 11.8345 6.83267 2.95001
95 1 4 -0.60118 28.9351 18.0514 9.45555
96 1 4 -0.60118 7.59682 3.04037 5.45857
97 1 4 -0.601179 30.1005 16.0329 9.45555
98 1 4 -0.601179 6.43145 5.05885 5.45857
99 1 4 -0.601179 24.6974 16.0329 9.45555
100 1 4 -0.601179 11.8345 5.05885 5.45857
101 1 4 -0.60118 25.8628 18.0514 9.45555
102 1 4 -0.60118 10.6692 3.04037 5.45857
103 1 4 -0.60118 28.9351 14.9319 13.8671
104 1 4 -0.60118 7.59682 6.15984 1.04697
105 1 4 -0.60118 30.1005 14.2591 11.9641
106 1 4 -0.60118 6.43145 6.83267 2.95001
10745 3548 5 -0.35 11.7627 14.9026 5.92158
10746 3548 6 0.7 28.9405 15.0115 6.30852
10747 3548 5 -0.35 27.8524 15.1205 6.69546
10826 3575 5 -0.35 27.2836 11.5272 14.746
10827 3575 6 0.7 27.1777 11.7424 13.611
10828 3575 5 -0.35 27.0717 11.9576 12.4761
10829 3576 5 -0.35 19.48 3.41071 2.57047
10830 3576 6 0.7 18.5214 4.06114 2.51025
10831 3576 5 -0.35 17.5628 4.71156 2.45004
10835 3578 5 -0.35 6.2496 2.481 1.44943
10836 3578 6 0.7 5.77721 2.32392 0.401683
10837 3578 5 -0.35 14.4378 7.43976 14.268
10850 3583 5 -0.35 24.9165 5.5599 9.96002
10851 3583 6 0.7 7.47905 6.18772 9.44523
10852 3583 5 -0.35 8.30756 6.81555 8.93044
10856 3585 5 -0.35 14.2111 3.66843 1.14253
10857 3585 6 0.7 14.8185 4.15307 0.281269
10858 3585 5 -0.35 24.5589 9.91064 14.3341
10859 3586 5 -0.35 19.3943 5.71139 5.51087
10860 3586 6 0.7 18.3094 5.77151 5.91699
10861 3586 5 -0.35 17.2244 5.83162 6.3231
10871 3590 5 -0.35 19.4513 10.7651 10.3161
10872 3590 6 0.7 19.0949 10.2022 11.2657
10873 3590 5 -0.35 18.7385 9.6393 12.2153
ITEM: TIMESTEP
65000
ITEM: NUMBER OF ATOMS
124
ITEM: BOX BOUNDS xy xz yz pp pp pp
0.0000000000000000e+00 3.6531964750000000e+01 9.1329911900000003e+00
0.0000000000000000e+00 2.1091739680000000e+01 9.1329911900000003e+00
0.0000000000000000e+00 1.4914112149999999e+01 5.2729349200000000e+00
ITEM: ATOMS id mol type q x y z
1 1 1 1.10383 27.399 17.6496 10.5383
2 1 1 1.10383 9.13299 3.44217 4.3758
3 1 1 1.10383 27.399 15.8188 13.1274
4 1 1 1.10383 9.13299 5.27293 1.78671
5 1 1 1.10383 25.8135 14.9034 10.5383
6 1 1 1.10383 10.7185 6.18832 4.3758
7 1 1 1.10383 28.9845 14.9034 10.5383
8 1 1 1.10383 7.5475 6.18832 4.3758
9 1 2 0.115889 18.266 5.48596 12.6084
10 1 2 0.115889 18.266 15.6058 2.30572
11 1 2 0.115888 18.266 13.716 0.969417
12 1 2 0.115888 18.266 7.37578 13.9447
13 1 2 0.11589 25.3934 11.4908 8.12521
14 1 2 0.11589 11.1386 9.60096 6.7889
15 1 2 0.115888 11.1386 11.4908 8.12521
16 1 2 0.115888 25.3934 9.60096 6.7889
17 1 2 0.115889 15.5206 8.96083 0.969417
18 1 2 0.115889 21.0114 12.1309 13.9447
19 1 2 0.115888 22.648 13.0758 12.6084
20 1 2 0.115888 13.884 8.01592 2.30572
21 1 2 0.115889 21.0114 3.90092 8.12521
22 1 2 0.115889 15.5206 17.1908 6.7889
23 1 2 0.115887 13.884 16.2459 8.12521
24 1 2 0.115887 22.648 4.84583 6.7889
25 1 2 0.115889 22.648 16.2459 8.12521
26 1 2 0.115889 13.884 4.84583 6.7889
27 1 2 0.115887 15.5206 3.90092 8.12521
28 1 2 0.115887 21.0114 17.1908 6.7889
29 1 2 0.115889 21.0114 8.96083 0.969417
30 1 2 0.115889 15.5206 12.1309 13.9447
31 1 2 0.115887 13.884 13.0758 12.6084
32 1 2 0.115887 22.648 8.01592 2.30572
33 1 3 0.671939 27.399 18.7442 13.2542
34 1 3 0.671939 9.13299 2.34751 1.65994
35 1 3 0.671939 27.399 12.8934 9.117
36 1 3 0.671939 9.13299 8.19836 5.79712
37 1 3 0.67194 24.8655 14.3561 13.2542
38 1 3 0.67194 11.6665 6.73565 1.65994
39 1 3 0.67194 29.9325 17.2815 9.117
40 1 3 0.67194 6.5995 3.81022 5.79712
41 1 3 0.67194 24.8655 17.2815 9.117
42 1 3 0.67194 11.6665 3.81022 5.79712
43 1 3 0.67194 29.9325 14.3561 13.2542
44 1 3 0.67194 6.5995 6.73565 1.65994
45 1 3 -0.11508 27.399 19.957 14.1117
46 1 3 -0.11508 9.13299 1.13474 0.802379
47 1 3 -0.11508 27.399 11.6806 8.25944
48 1 3 -0.11508 9.13299 9.41113 6.65468
49 1 3 -0.11508 23.8152 13.7497 14.1117
50 1 3 -0.11508 12.7168 7.34203 0.802379
51 1 3 -0.11508 30.9828 17.8879 8.25944
52 1 3 -0.11508 5.54921 3.20384 6.65468
53 1 3 -0.11508 23.8152 17.8879 8.25944
54 1 3 -0.11508 12.7168 3.20384 6.65468
55 1 3 -0.11508 30.9828 13.7497 14.1117
56 1 3 -0.11508 5.54921 7.34203 0.802379
57 1 3 -0.0559 18.266 5.39949 13.5316
58 1 3 -0.0559 18.266 15.6923 1.38254
59 1 3 -0.055903 18.266 14.5575 0.580159
60 1 3 -0.055903 18.266 6.53422 14.334
61 1 3 -0.0559 26.1971 11.1132 7.85825
62 1 3 -0.0559 10.3349 9.9785 7.05587
63 1 3 -0.055903 10.3349 11.1132 7.85825
64 1 3 -0.055903 26.1971 9.9785 7.05587
65 1 3 -0.0559 14.7918 8.54005 0.580159
66 1 3 -0.0559 21.7402 12.5517 14.334
67 1 3 -0.055903 22.7229 13.1191 13.5316
68 1 3 -0.055903 13.8091 7.97268 1.38254
69 1 3 -0.0559 21.7402 3.39366 7.85825
70 1 3 -0.0559 14.7918 17.6981 7.05587
71 1 3 -0.055903 13.8091 17.1307 7.85825
72 1 3 -0.055903 22.7229 3.96103 7.05587
73 1 3 -0.055901 22.7229 17.1307 7.85825
74 1 3 -0.055901 13.8091 3.96103 7.05587
75 1 3 -0.055903 14.7918 3.39366 7.85825
76 1 3 -0.055903 21.7402 17.6981 7.05587
77 1 3 -0.0559 21.7402 8.54005 0.580159
78 1 3 -0.0559 14.7918 12.5517 14.334
79 1 3 -0.055903 13.8091 13.1191 13.5316
80 1 3 -0.055903 22.7229 7.97268 1.38254
81 1 4 -1.26215 27.399 15.8188 11.1856
82 1 4 -1.26215 9.13299 5.27293 3.72853
83 1 4 -0.60118 27.399 18.9383 11.9641
84 1 4 -0.60118 9.13299 2.15347 2.95001
85 1 4 -0.601179 27.399 17.5926 13.8671
86 1 4 -0.601179 9.13299 3.49912 1.04697
87 1 4 -0.601179 26.2336 13.3722 9.45555
88 1 4 -0.601179 10.2984 7.71958 5.45857
89 1 4 -0.60118 28.5643 13.3722 9.45555
90 1 4 -0.60118 7.96762 7.71958 5.45857
91 1 4 -0.60118 25.8628 14.9319 13.8671
92 1 4 -0.60118 10.6692 6.15984 1.04697
93 1 4 -0.601179 24.6974 14.2591 11.9641
94 1 4 -0.601179 11.8345 6.83267 2.95001
95 1 4 -0.60118 28.9351 18.0514 9.45555
96 1 4 -0.60118 7.59682 3.04037 5.45857
97 1 4 -0.601179 30.1005 16.0329 9.45555
98 1 4 -0.601179 6.43145 5.05885 5.45857
99 1 4 -0.601179 24.6974 16.0329 9.45555
100 1 4 -0.601179 11.8345 5.05885 5.45857
101 1 4 -0.60118 25.8628 18.0514 9.45555
102 1 4 -0.60118 10.6692 3.04037 5.45857
103 1 4 -0.60118 28.9351 14.9319 13.8671
104 1 4 -0.60118 7.59682 6.15984 1.04697
105 1 4 -0.60118 30.1005 14.2591 11.9641
106 1 4 -0.60118 6.43145 6.83267 2.95001
578 159 5 -0.35 21.3559 17.7327 10.7505
579 159 6 0.7 22.4501 17.8307 11.123
580 159 5 -0.35 23.5442 17.9287 11.4954
599 166 5 -0.35 18.0655 14.9879 5.25833
600 166 6 0.7 17.2126 15.5985 4.76298
601 166 5 -0.35 16.3598 16.2092 4.26763
602 167 5 -0.35 18.0292 13.5617 14.0973
603 167 6 0.7 18.5729 14.3553 14.7454
604 167 5 -0.35 9.98373 9.87602 0.479412
608 169 5 -0.35 31.563 17.9027 14.2878
609 169 6 0.7 31.4206 17.9268 13.1368
610 169 5 -0.35 31.2782 17.951 11.9858
614 171 5 -0.35 24.0996 7.77346 11.8612
615 171 6 0.7 23.8497 6.97435 11.0584
616 171 5 -0.35 23.5998 6.17524 10.2555
617 172 5 -0.35 9.01991 4.10985 8.60818
618 172 6 0.7 8.69646 5.15162 9.00277
619 172 5 -0.35 8.37302 6.1934 9.39735
ITEM: TIMESTEP
66000
ITEM: NUMBER OF ATOMS
139
ITEM: BOX BOUNDS xy xz yz pp pp pp
0.0000000000000000e+00 3.6531964750000000e+01 9.1329911900000003e+00
0.0000000000000000e+00 2.1091739680000000e+01 9.1329911900000003e+00
0.0000000000000000e+00 1.4914112149999999e+01 5.2729349200000000e+00
ITEM: ATOMS id mol type q x y z
1 1 1 1.10383 27.399 17.6496 10.5383
2 1 1 1.10383 9.13299 3.44217 4.3758
3 1 1 1.10383 27.399 15.8188 13.1274
4 1 1 1.10383 9.13299 5.27293 1.78671
5 1 1 1.10383 25.8135 14.9034 10.5383
6 1 1 1.10383 10.7185 6.18832 4.3758
7 1 1 1.10383 28.9845 14.9034 10.5383
8 1 1 1.10383 7.5475 6.18832 4.3758
9 1 2 0.115889 18.266 5.48596 12.6084
10 1 2 0.115889 18.266 15.6058 2.30572
11 1 2 0.115888 18.266 13.716 0.969417
12 1 2 0.115888 18.266 7.37578 13.9447
13 1 2 0.11589 25.3934 11.4908 8.12521
14 1 2 0.11589 11.1386 9.60096 6.7889
15 1 2 0.115888 11.1386 11.4908 8.12521
16 1 2 0.115888 25.3934 9.60096 6.7889
17 1 2 0.115889 15.5206 8.96083 0.969417
18 1 2 0.115889 21.0114 12.1309 13.9447
19 1 2 0.115888 22.648 13.0758 12.6084
20 1 2 0.115888 13.884 8.01592 2.30572
21 1 2 0.115889 21.0114 3.90092 8.12521
22 1 2 0.115889 15.5206 17.1908 6.7889
23 1 2 0.115887 13.884 16.2459 8.12521
24 1 2 0.115887 22.648 4.84583 6.7889
25 1 2 0.115889 22.648 16.2459 8.12521
26 1 2 0.115889 13.884 4.84583 6.7889
27 1 2 0.115887 15.5206 3.90092 8.12521
28 1 2 0.115887 21.0114 17.1908 6.7889
29 1 2 0.115889 21.0114 8.96083 0.969417
30 1 2 0.115889 15.5206 12.1309 13.9447
31 1 2 0.115887 13.884 13.0758 12.6084
32 1 2 0.115887 22.648 8.01592 2.30572
33 1 3 0.671939 27.399 18.7442 13.2542
34 1 3 0.671939 9.13299 2.34751 1.65994
35 1 3 0.671939 27.399 12.8934 9.117
36 1 3 0.671939 9.13299 8.19836 5.79712
37 1 3 0.67194 24.8655 14.3561 13.2542
38 1 3 0.67194 11.6665 6.73565 1.65994
39 1 3 0.67194 29.9325 17.2815 9.117
40 1 3 0.67194 6.5995 3.81022 5.79712
41 1 3 0.67194 24.8655 17.2815 9.117
42 1 3 0.67194 11.6665 3.81022 5.79712
43 1 3 0.67194 29.9325 14.3561 13.2542
44 1 3 0.67194 6.5995 6.73565 1.65994
45 1 3 -0.11508 27.399 19.957 14.1117
46 1 3 -0.11508 9.13299 1.13474 0.802379
47 1 3 -0.11508 27.399 11.6806 8.25944
48 1 3 -0.11508 9.13299 9.41113 6.65468
49 1 3 -0.11508 23.8152 13.7497 14.1117
50 1 3 -0.11508 12.7168 7.34203 0.802379
51 1 3 -0.11508 30.9828 17.8879 8.25944
52 1 3 -0.11508 5.54921 3.20384 6.65468
53 1 3 -0.11508 23.8152 17.8879 8.25944
54 1 3 -0.11508 12.7168 3.20384 6.65468
55 1 3 -0.11508 30.9828 13.7497 14.1117
56 1 3 -0.11508 5.54921 7.34203 0.802379
57 1 3 -0.0559 18.266 5.39949 13.5316
58 1 3 -0.0559 18.266 15.6923 1.38254
59 1 3 -0.055903 18.266 14.5575 0.580159
60 1 3 -0.055903 18.266 6.53422 14.334
61 1 3 -0.0559 26.1971 11.1132 7.85825
62 1 3 -0.0559 10.3349 9.9785 7.05587
63 1 3 -0.055903 10.3349 11.1132 7.85825
64 1 3 -0.055903 26.1971 9.9785 7.05587
65 1 3 -0.0559 14.7918 8.54005 0.580159
66 1 3 -0.0559 21.7402 12.5517 14.334
67 1 3 -0.055903 22.7229 13.1191 13.5316
68 1 3 -0.055903 13.8091 7.97268 1.38254
69 1 3 -0.0559 21.7402 3.39366 7.85825
70 1 3 -0.0559 14.7918 17.6981 7.05587
71 1 3 -0.055903 13.8091 17.1307 7.85825
72 1 3 -0.055903 22.7229 3.96103 7.05587
73 1 3 -0.055901 22.7229 17.1307 7.85825
74 1 3 -0.055901 13.8091 3.96103 7.05587
75 1 3 -0.055903 14.7918 3.39366 7.85825
76 1 3 -0.055903 21.7402 17.6981 7.05587
77 1 3 -0.0559 21.7402 8.54005 0.580159
78 1 3 -0.0559 14.7918 12.5517 14.334
79 1 3 -0.055903 13.8091 13.1191 13.5316
80 1 3 -0.055903 22.7229 7.97268 1.38254
81 1 4 -1.26215 27.399 15.8188 11.1856
82 1 4 -1.26215 9.13299 5.27293 3.72853
83 1 4 -0.60118 27.399 18.9383 11.9641
84 1 4 -0.60118 9.13299 2.15347 2.95001
85 1 4 -0.601179 27.399 17.5926 13.8671
86 1 4 -0.601179 9.13299 3.49912 1.04697
87 1 4 -0.601179 26.2336 13.3722 9.45555
88 1 4 -0.601179 10.2984 7.71958 5.45857
89 1 4 -0.60118 28.5643 13.3722 9.45555
90 1 4 -0.60118 7.96762 7.71958 5.45857
91 1 4 -0.60118 25.8628 14.9319 13.8671
92 1 4 -0.60118 10.6692 6.15984 1.04697
93 1 4 -0.601179 24.6974 14.2591 11.9641
94 1 4 -0.601179 11.8345 6.83267 2.95001
95 1 4 -0.60118 28.9351 18.0514 9.45555
96 1 4 -0.60118 7.59682 3.04037 5.45857
97 1 4 -0.601179 30.1005 16.0329 9.45555
98 1 4 -0.601179 6.43145 5.05885 5.45857
99 1 4 -0.601179 24.6974 16.0329 9.45555
100 1 4 -0.601179 11.8345 5.05885 5.45857
101 1 4 -0.60118 25.8628 18.0514 9.45555
102 1 4 -0.60118 10.6692 3.04037 5.45857
103 1 4 -0.60118 28.9351 14.9319 13.8671
104 1 4 -0.60118 7.59682 6.15984 1.04697
105 1 4 -0.60118 30.1005 14.2591 11.9641
106 1 4 -0.60118 6.43145 6.83267 2.95001
644 181 5 -0.35 14.8805 9.23017 13.7561
645 181 6 0.7 14.5977 9.14909 14.8781
646 181 5 -0.35 5.1819 3.79506 1.0861
701 200 5 -0.35 27.3993 11.6008 12.7409
702 200 6 0.7 27.9742 11.7151 13.742
703 200 5 -0.35 28.5491 11.8293 14.743
731 210 5 -0.35 9.37635 5.07252 7.5608
732 210 6 0.7 9.42028 3.97275 7.92711
733 210 5 -0.35 18.5972 18.6918 8.29342
767 222 5 -0.35 20.3748 4.01554 2.18669
768 222 6 0.7 20.5029 3.97654 1.03444
769 222 5 -0.35 11.498 9.21049 14.7963
788 229 5 -0.35 19.4369 15.5343 8.11567
789 229 6 0.7 18.2791 15.4654 8.09538
790 229 5 -0.35 17.1213 15.3964 8.07509
794 231 5 -0.35 13.7985 11.4592 0.701249
795 231 6 0.7 12.6709 11.2026 0.609864
796 231 5 -0.35 11.5433 10.946 0.51848
809 236 5 -0.35 15.5299 4.53564 2.31778
810 236 6 0.7 16.3123 4.84269 1.51834
811 236 5 -0.35 17.0948 5.14975 0.718905
821 240 5 -0.35 21.7381 10.1105 6.54011
822 240 6 0.7 22.4088 10.7465 5.83927
823 240 5 -0.35 23.0796 11.3825 5.13842
824 241 5 -0.35 13.5351 13.918 3.46224
825 241 6 0.7 14.6044 14.2544 3.76058
826 241 5 -0.35 15.6737 14.5908 4.05892
827 242 5 -0.35 14.8774 9.95097 4.57282
828 242 6 0.7 15.444 8.99931 4.22803
829 242 5 -0.35 16.0106 8.04766 3.88324
830 243 5 -0.35 20.1214 8.55934 10.0418
831 243 6 0.7 19.93 8.30227 8.92694
832 243 5 -0.35 19.7386 8.0452 7.81209
ITEM: TIMESTEP
67000
ITEM: NUMBER OF ATOMS
124
ITEM: BOX BOUNDS xy xz yz pp pp pp
0.0000000000000000e+00 3.6531964750000000e+01 9.1329911900000003e+00
0.0000000000000000e+00 2.1091739680000000e+01 9.1329911900000003e+00
0.0000000000000000e+00 1.4914112149999999e+01 5.2729349200000000e+00
ITEM: ATOMS id mol type q x y z
1 1 1 1.10383 27.399 17.6496 10.5383
2 1 1 1.10383 9.13299 3.44217 4.3758
3 1 1 1.10383 27.399 15.8188 13.1274
4 1 1 1.10383 9.13299 5.27293 1.78671
5 1 1 1.10383 25.8135 14.9034 10.5383
6 1 1 1.10383 10.7185 6.18832 4.3758
7 1 1 1.10383 28.9845 14.9034 10.5383
8 1 1 1.10383 7.5475 6.18832 4.3758
9 1 2 0.115889 18.266 5.48596 12.6084
10 1 2 0.115889 18.266 15.6058 2.30572
11 1 2 0.115888 18.266 13.716 0.969417
12 1 2 0.115888 18.266 7.37578 13.9447
13 1 2 0.11589 25.3934 11.4908 8.12521
14 1 2 0.11589 11.1386 9.60096 6.7889
15 1 2 0.115888 11.1386 11.4908 8.12521
16 1 2 0.115888 25.3934 9.60096 6.7889
17 1 2 0.115889 15.5206 8.96083 0.969417
18 1 2 0.115889 21.0114 12.1309 13.9447
19 1 2 0.115888 22.648 13.0758 12.6084
20 1 2 0.115888 13.884 8.01592 2.30572
21 1 2 0.115889 21.0114 3.90092 8.12521
22 1 2 0.115889 15.5206 17.1908 6.7889
23 1 2 0.115887 13.884 16.2459 8.12521
24 1 2 0.115887 22.648 4.84583 6.7889
25 1 2 0.115889 22.648 16.2459 8.12521
26 1 2 0.115889 13.884 4.84583 6.7889
27 1 2 0.115887 15.5206 3.90092 8.12521
28 1 2 0.115887 21.0114 17.1908 6.7889
29 1 2 0.115889 21.0114 8.96083 0.969417
30 1 2 0.115889 15.5206 12.1309 13.9447
31 1 2 0.115887 13.884 13.0758 12.6084
32 1 2 0.115887 22.648 8.01592 2.30572
33 1 3 0.671939 27.399 18.7442 13.2542
34 1 3 0.671939 9.13299 2.34751 1.65994
35 1 3 0.671939 27.399 12.8934 9.117
36 1 3 0.671939 9.13299 8.19836 5.79712
37 1 3 0.67194 24.8655 14.3561 13.2542
38 1 3 0.67194 11.6665 6.73565 1.65994
39 1 3 0.67194 29.9325 17.2815 9.117
40 1 3 0.67194 6.5995 3.81022 5.79712
41 1 3 0.67194 24.8655 17.2815 9.117
42 1 3 0.67194 11.6665 3.81022 5.79712
43 1 3 0.67194 29.9325 14.3561 13.2542
44 1 3 0.67194 6.5995 6.73565 1.65994
45 1 3 -0.11508 27.399 19.957 14.1117
46 1 3 -0.11508 9.13299 1.13474 0.802379
47 1 3 -0.11508 27.399 11.6806 8.25944
48 1 3 -0.11508 9.13299 9.41113 6.65468
49 1 3 -0.11508 23.8152 13.7497 14.1117
50 1 3 -0.11508 12.7168 7.34203 0.802379
51 1 3 -0.11508 30.9828 17.8879 8.25944
52 1 3 -0.11508 5.54921 3.20384 6.65468
53 1 3 -0.11508 23.8152 17.8879 8.25944
54 1 3 -0.11508 12.7168 3.20384 6.65468
55 1 3 -0.11508 30.9828 13.7497 14.1117
56 1 3 -0.11508 5.54921 7.34203 0.802379
57 1 3 -0.0559 18.266 5.39949 13.5316
58 1 3 -0.0559 18.266 15.6923 1.38254
59 1 3 -0.055903 18.266 14.5575 0.580159
60 1 3 -0.055903 18.266 6.53422 14.334
61 1 3 -0.0559 26.1971 11.1132 7.85825
62 1 3 -0.0559 10.3349 9.9785 7.05587
63 1 3 -0.055903 10.3349 11.1132 7.85825
64 1 3 -0.055903 26.1971 9.9785 7.05587
65 1 3 -0.0559 14.7918 8.54005 0.580159
66 1 3 -0.0559 21.7402 12.5517 14.334
67 1 3 -0.055903 22.7229 13.1191 13.5316
68 1 3 -0.055903 13.8091 7.97268 1.38254
69 1 3 -0.0559 21.7402 3.39366 7.85825
70 1 3 -0.0559 14.7918 17.6981 7.05587
71 1 3 -0.055903 13.8091 17.1307 7.85825
72 1 3 -0.055903 22.7229 3.96103 7.05587
73 1 3 -0.055901 22.7229 17.1307 7.85825
74 1 3 -0.055901 13.8091 3.96103 7.05587
75 1 3 -0.055903 14.7918 3.39366 7.85825
76 1 3 -0.055903 21.7402 17.6981 7.05587
77 1 3 -0.0559 21.7402 8.54005 0.580159
78 1 3 -0.0559 14.7918 12.5517 14.334
79 1 3 -0.055903 13.8091 13.1191 13.5316
80 1 3 -0.055903 22.7229 7.97268 1.38254
81 1 4 -1.26215 27.399 15.8188 11.1856
82 1 4 -1.26215 9.13299 5.27293 3.72853
83 1 4 -0.60118 27.399 18.9383 11.9641
84 1 4 -0.60118 9.13299 2.15347 2.95001
85 1 4 -0.601179 27.399 17.5926 13.8671
86 1 4 -0.601179 9.13299 3.49912 1.04697
87 1 4 -0.601179 26.2336 13.3722 9.45555
88 1 4 -0.601179 10.2984 7.71958 5.45857
89 1 4 -0.60118 28.5643 13.3722 9.45555
90 1 4 -0.60118 7.96762 7.71958 5.45857
91 1 4 -0.60118 25.8628 14.9319 13.8671
92 1 4 -0.60118 10.6692 6.15984 1.04697
93 1 4 -0.601179 24.6974 14.2591 11.9641
94 1 4 -0.601179 11.8345 6.83267 2.95001
95 1 4 -0.60118 28.9351 18.0514 9.45555
96 1 4 -0.60118 7.59682 3.04037 5.45857
97 1 4 -0.601179 30.1005 16.0329 9.45555
98 1 4 -0.601179 6.43145 5.05885 5.45857
99 1 4 -0.601179 24.6974 16.0329 9.45555
100 1 4 -0.601179 11.8345 5.05885 5.45857
101 1 4 -0.60118 25.8628 18.0514 9.45555
102 1 4 -0.60118 10.6692 3.04037 5.45857
103 1 4 -0.60118 28.9351 14.9319 13.8671
104 1 4 -0.60118 7.59682 6.15984 1.04697
105 1 4 -0.60118 30.1005 14.2591 11.9641
106 1 4 -0.60118 6.43145 6.83267 2.95001
2117 672 5 -0.35 19.4408 3.78367 5.66315
2118 672 6 0.7 18.4742 3.16114 5.81733
2119 672 5 -0.35 17.5077 2.53861 5.97151
2138 679 5 -0.35 8.6258 7.8513 9.80019
2139 679 6 0.7 25.873 7.4398 9.42815
2140 679 5 -0.35 24.8543 7.0283 9.05612
2144 681 5 -0.35 19.4072 15.3854 10.59
2145 681 6 0.7 18.2824 15.2647 10.3333
2146 681 5 -0.35 17.1576 15.144 10.0767
2147 682 5 -0.35 21.9025 11.4664 0.500168
2148 682 6 0.7 31.4035 16.9938 14.3441
2149 682 5 -0.35 31.7716 17.2484 13.2738
2156 685 5 -0.35 21.8136 17.1997 13.3788
2157 685 6 0.7 21.788 17.1994 12.2191
2158 685 5 -0.35 21.7623 17.199 11.0594
2159 686 5 -0.35 24.9692 12.54 3.80276
2160 686 6 0.7 25.1638 11.6128 3.1334
2161 686 5 -0.35 25.3583 10.6856 2.46405
ITEM: TIMESTEP
68000
ITEM: NUMBER OF ATOMS
145
ITEM: BOX BOUNDS xy xz yz pp pp pp
0.0000000000000000e+00 3.6531964750000000e+01 9.1329911900000003e+00
0.0000000000000000e+00 2.1091739680000000e+01 9.1329911900000003e+00
0.0000000000000000e+00 1.4914112149999999e+01 5.2729349200000000e+00
ITEM: ATOMS id mol type q x y z
1 1 1 1.10383 27.399 17.6496 10.5383
2 1 1 1.10383 9.13299 3.44217 4.3758
3 1 1 1.10383 27.399 15.8188 13.1274
4 1 1 1.10383 9.13299 5.27293 1.78671
5 1 1 1.10383 25.8135 14.9034 10.5383
6 1 1 1.10383 10.7185 6.18832 4.3758
7 1 1 1.10383 28.9845 14.9034 10.5383
8 1 1 1.10383 7.5475 6.18832 4.3758
9 1 2 0.115889 18.266 5.48596 12.6084
10 1 2 0.115889 18.266 15.6058 2.30572
11 1 2 0.115888 18.266 13.716 0.969417
12 1 2 0.115888 18.266 7.37578 13.9447
13 1 2 0.11589 25.3934 11.4908 8.12521
14 1 2 0.11589 11.1386 9.60096 6.7889
15 1 2 0.115888 11.1386 11.4908 8.12521
16 1 2 0.115888 25.3934 9.60096 6.7889
17 1 2 0.115889 15.5206 8.96083 0.969417
18 1 2 0.115889 21.0114 12.1309 13.9447
19 1 2 0.115888 22.648 13.0758 12.6084
20 1 2 0.115888 13.884 8.01592 2.30572
21 1 2 0.115889 21.0114 3.90092 8.12521
22 1 2 0.115889 15.5206 17.1908 6.7889
23 1 2 0.115887 13.884 16.2459 8.12521
24 1 2 0.115887 22.648 4.84583 6.7889
25 1 2 0.115889 22.648 16.2459 8.12521
26 1 2 0.115889 13.884 4.84583 6.7889
27 1 2 0.115887 15.5206 3.90092 8.12521
28 1 2 0.115887 21.0114 17.1908 6.7889
29 1 2 0.115889 21.0114 8.96083 0.969417
30 1 2 0.115889 15.5206 12.1309 13.9447
31 1 2 0.115887 13.884 13.0758 12.6084
32 1 2 0.115887 22.648 8.01592 2.30572
33 1 3 0.671939 27.399 18.7442 13.2542
34 1 3 0.671939 9.13299 2.34751 1.65994
35 1 3 0.671939 27.399 12.8934 9.117
36 1 3 0.671939 9.13299 8.19836 5.79712
37 1 3 0.67194 24.8655 14.3561 13.2542
38 1 3 0.67194 11.6665 6.73565 1.65994
39 1 3 0.67194 29.9325 17.2815 9.117
40 1 3 0.67194 6.5995 3.81022 5.79712
41 1 3 0.67194 24.8655 17.2815 9.117
42 1 3 0.67194 11.6665 3.81022 5.79712
43 1 3 0.67194 29.9325 14.3561 13.2542
44 1 3 0.67194 6.5995 6.73565 1.65994
45 1 3 -0.11508 27.399 19.957 14.1117
46 1 3 -0.11508 9.13299 1.13474 0.802379
47 1 3 -0.11508 27.399 11.6806 8.25944
48 1 3 -0.11508 9.13299 9.41113 6.65468
49 1 3 -0.11508 23.8152 13.7497 14.1117
50 1 3 -0.11508 12.7168 7.34203 0.802379
51 1 3 -0.11508 30.9828 17.8879 8.25944
52 1 3 -0.11508 5.54921 3.20384 6.65468
53 1 3 -0.11508 23.8152 17.8879 8.25944
54 1 3 -0.11508 12.7168 3.20384 6.65468
55 1 3 -0.11508 30.9828 13.7497 14.1117
56 1 3 -0.11508 5.54921 7.34203 0.802379
57 1 3 -0.0559 18.266 5.39949 13.5316
58 1 3 -0.0559 18.266 15.6923 1.38254
59 1 3 -0.055903 18.266 14.5575 0.580159
60 1 3 -0.055903 18.266 6.53422 14.334
61 1 3 -0.0559 26.1971 11.1132 7.85825
62 1 3 -0.0559 10.3349 9.9785 7.05587
63 1 3 -0.055903 10.3349 11.1132 7.85825
64 1 3 -0.055903 26.1971 9.9785 7.05587
65 1 3 -0.0559 14.7918 8.54005 0.580159
66 1 3 -0.0559 21.7402 12.5517 14.334
67 1 3 -0.055903 22.7229 13.1191 13.5316
68 1 3 -0.055903 13.8091 7.97268 1.38254
69 1 3 -0.0559 21.7402 3.39366 7.85825
70 1 3 -0.0559 14.7918 17.6981 7.05587
71 1 3 -0.055903 13.8091 17.1307 7.85825
72 1 3 -0.055903 22.7229 3.96103 7.05587
73 1 3 -0.055901 22.7229 17.1307 7.85825
74 1 3 -0.055901 13.8091 3.96103 7.05587
75 1 3 -0.055903 14.7918 3.39366 7.85825
76 1 3 -0.055903 21.7402 17.6981 7.05587
77 1 3 -0.0559 21.7402 8.54005 0.580159
78 1 3 -0.0559 14.7918 12.5517 14.334
79 1 3 -0.055903 13.8091 13.1191 13.5316
80 1 3 -0.055903 22.7229 7.97268 1.38254
81 1 4 -1.26215 27.399 15.8188 11.1856
82 1 4 -1.26215 9.13299 5.27293 3.72853
83 1 4 -0.60118 27.399 18.9383 11.9641
84 1 4 -0.60118 9.13299 2.15347 2.95001
85 1 4 -0.601179 27.399 17.5926 13.8671
86 1 4 -0.601179 9.13299 3.49912 1.04697
87 1 4 -0.601179 26.2336 13.3722 9.45555
88 1 4 -0.601179 10.2984 7.71958 5.45857
89 1 4 -0.60118 28.5643 13.3722 9.45555
90 1 4 -0.60118 7.96762 7.71958 5.45857
91 1 4 -0.60118 25.8628 14.9319 13.8671
92 1 4 -0.60118 10.6692 6.15984 1.04697
93 1 4 -0.601179 24.6974 14.2591 11.9641
94 1 4 -0.601179 11.8345 6.83267 2.95001
95 1 4 -0.60118 28.9351 18.0514 9.45555
96 1 4 -0.60118 7.59682 3.04037 5.45857
97 1 4 -0.601179 30.1005 16.0329 9.45555
98 1 4 -0.601179 6.43145 5.05885 5.45857
99 1 4 -0.601179 24.6974 16.0329 9.45555
100 1 4 -0.601179 11.8345 5.05885 5.45857
101 1 4 -0.60118 25.8628 18.0514 9.45555
102 1 4 -0.60118 10.6692 3.04037 5.45857
103 1 4 -0.60118 28.9351 14.9319 13.8671
104 1 4 -0.60118 7.59682 6.15984 1.04697
105 1 4 -0.60118 30.1005 14.2591 11.9641
106 1 4 -0.60118 6.43145 6.83267 2.95001
3374 1091 5 -0.35 12.0609 3.18219 2.63675
3375 1091 6 0.7 13.0528 3.6245 3.04439
3376 1091 5 -0.35 14.0447 4.06681 3.45203
3503 1134 5 -0.35 9.21195 3.416 9.03457
3504 1134 6 0.7 18.1078 18.1601 8.66789
3505 1134 5 -0.35 17.8707 17.0855 8.30121
3530 1143 5 -0.35 22.2116 13.2785 9.79615
3531 1143 6 0.7 22.5264 13.3796 8.68428
3532 1143 5 -0.35 22.8413 13.4807 7.57242
3536 1145 5 -0.35 11.5542 6.50072 9.28476
3537 1145 6 0.7 10.7684 6.27971 8.46059
3538 1145 5 -0.35 9.98254 6.0587 7.63643
3617 1172 5 -0.35 18.3084 14.0084 14.414
3618 1172 6 0.7 9.28645 8.81795 0.651577
3619 1172 5 -0.35 9.39752 8.90048 1.8033
3641 1180 5 -0.35 6.22298 10.4047 0.377786
3642 1180 6 0.7 15.5223 15.9852 14.1858
3643 1180 5 -0.35 15.6886 16.2927 13.0798
3668 1189 5 -0.35 18.1932 4.95631 9.6283
3669 1189 6 0.7 18.1278 5.37822 8.54973
3670 1189 5 -0.35 18.0624 5.80013 7.47116
3671 1190 5 -0.35 21.2294 2.92518 4.23039
3672 1190 6 0.7 20.6356 2.11246 4.80701
3673 1190 5 -0.35 29.1748 17.1186 5.38363
3686 1195 5 -0.35 22.2673 20.2296 13.2218
3687 1195 6 0.7 13.2193 4.88136 12.1649
3688 1195 5 -0.35 13.3043 5.35189 11.1081
3689 1196 5 -0.35 19.3044 10.9842 9.34796
3690 1196 6 0.7 18.8928 11.3527 8.32794
3691 1196 5 -0.35 18.4812 11.7211 7.30791
3692 1197 5 -0.35 13.1219 13.6288 5.06651
3693 1197 6 0.7 12.2091 14.0231 4.46903
3694 1197 5 -0.35 11.2963 14.4174 3.87155
3695 1198 5 -0.35 29.3726 10.5887 14.3314
3696 1198 6 0.7 11.5478 10.2213 13.3234
3697 1198 5 -0.35 11.989 9.85398 12.3155
3698 1199 5 -0.35 22.2398 13.6031 1.1078
3699 1199 6 0.7 31.4454 19.1057 14.8872
3700 1199 5 -0.35 31.518 19.3353 13.7525
ITEM: TIMESTEP
69000
ITEM: NUMBER OF ATOMS
133
ITEM: BOX BOUNDS xy xz yz pp pp pp
0.0000000000000000e+00 3.6531964750000000e+01 9.1329911900000003e+00
0.0000000000000000e+00 2.1091739680000000e+01 9.1329911900000003e+00
0.0000000000000000e+00 1.4914112149999999e+01 5.2729349200000000e+00
ITEM: ATOMS id mol type q x y z
1 1 1 1.10383 27.399 17.6496 10.5383
2 1 1 1.10383 9.13299 3.44217 4.3758
3 1 1 1.10383 27.399 15.8188 13.1274
4 1 1 1.10383 9.13299 5.27293 1.78671
5 1 1 1.10383 25.8135 14.9034 10.5383
6 1 1 1.10383 10.7185 6.18832 4.3758
7 1 1 1.10383 28.9845 14.9034 10.5383
8 1 1 1.10383 7.5475 6.18832 4.3758
9 1 2 0.115889 18.266 5.48596 12.6084
10 1 2 0.115889 18.266 15.6058 2.30572
11 1 2 0.115888 18.266 13.716 0.969417
12 1 2 0.115888 18.266 7.37578 13.9447
13 1 2 0.11589 25.3934 11.4908 8.12521
14 1 2 0.11589 11.1386 9.60096 6.7889
15 1 2 0.115888 11.1386 11.4908 8.12521
16 1 2 0.115888 25.3934 9.60096 6.7889
17 1 2 0.115889 15.5206 8.96083 0.969417
18 1 2 0.115889 21.0114 12.1309 13.9447
19 1 2 0.115888 22.648 13.0758 12.6084
20 1 2 0.115888 13.884 8.01592 2.30572
21 1 2 0.115889 21.0114 3.90092 8.12521
22 1 2 0.115889 15.5206 17.1908 6.7889
23 1 2 0.115887 13.884 16.2459 8.12521
24 1 2 0.115887 22.648 4.84583 6.7889
25 1 2 0.115889 22.648 16.2459 8.12521
26 1 2 0.115889 13.884 4.84583 6.7889
27 1 2 0.115887 15.5206 3.90092 8.12521
28 1 2 0.115887 21.0114 17.1908 6.7889
29 1 2 0.115889 21.0114 8.96083 0.969417
30 1 2 0.115889 15.5206 12.1309 13.9447
31 1 2 0.115887 13.884 13.0758 12.6084
32 1 2 0.115887 22.648 8.01592 2.30572
33 1 3 0.671939 27.399 18.7442 13.2542
34 1 3 0.671939 9.13299 2.34751 1.65994
35 1 3 0.671939 27.399 12.8934 9.117
36 1 3 0.671939 9.13299 8.19836 5.79712
37 1 3 0.67194 24.8655 14.3561 13.2542
38 1 3 0.67194 11.6665 6.73565 1.65994
39 1 3 0.67194 29.9325 17.2815 9.117
40 1 3 0.67194 6.5995 3.81022 5.79712
41 1 3 0.67194 24.8655 17.2815 9.117
42 1 3 0.67194 11.6665 3.81022 5.79712
43 1 3 0.67194 29.9325 14.3561 13.2542
44 1 3 0.67194 6.5995 6.73565 1.65994
45 1 3 -0.11508 27.399 19.957 14.1117
46 1 3 -0.11508 9.13299 1.13474 0.802379
47 1 3 -0.11508 27.399 11.6806 8.25944
48 1 3 -0.11508 9.13299 9.41113 6.65468
49 1 3 -0.11508 23.8152 13.7497 14.1117
50 1 3 -0.11508 12.7168 7.34203 0.802379
51 1 3 -0.11508 30.9828 17.8879 8.25944
52 1 3 -0.11508 5.54921 3.20384 6.65468
53 1 3 -0.11508 23.8152 17.8879 8.25944
54 1 3 -0.11508 12.7168 3.20384 6.65468
55 1 3 -0.11508 30.9828 13.7497 14.1117
56 1 3 -0.11508 5.54921 7.34203 0.802379
57 1 3 -0.0559 18.266 5.39949 13.5316
58 1 3 -0.0559 18.266 15.6923 1.38254
59 1 3 -0.055903 18.266 14.5575 0.580159
60 1 3 -0.055903 18.266 6.53422 14.334
61 1 3 -0.0559 26.1971 11.1132 7.85825
62 1 3 -0.0559 10.3349 9.9785 7.05587
63 1 3 -0.055903 10.3349 11.1132 7.85825
64 1 3 -0.055903 26.1971 9.9785 7.05587
65 1 3 -0.0559 14.7918 8.54005 0.580159
66 1 3 -0.0559 21.7402 12.5517 14.334
67 1 3 -0.055903 22.7229 13.1191 13.5316
68 1 3 -0.055903 13.8091 7.97268 1.38254
69 1 3 -0.0559 21.7402 3.39366 7.85825
70 1 3 -0.0559 14.7918 17.6981 7.05587
71 1 3 -0.055903 13.8091 17.1307 7.85825
72 1 3 -0.055903 22.7229 3.96103 7.05587
73 1 3 -0.055901 22.7229 17.1307 7.85825
74 1 3 -0.055901 13.8091 3.96103 7.05587
75 1 3 -0.055903 14.7918 3.39366 7.85825
76 1 3 -0.055903 21.7402 17.6981 7.05587
77 1 3 -0.0559 21.7402 8.54005 0.580159
78 1 3 -0.0559 14.7918 12.5517 14.334
79 1 3 -0.055903 13.8091 13.1191 13.5316
80 1 3 -0.055903 22.7229 7.97268 1.38254
81 1 4 -1.26215 27.399 15.8188 11.1856
82 1 4 -1.26215 9.13299 5.27293 3.72853
83 1 4 -0.60118 27.399 18.9383 11.9641
84 1 4 -0.60118 9.13299 2.15347 2.95001
85 1 4 -0.601179 27.399 17.5926 13.8671
86 1 4 -0.601179 9.13299 3.49912 1.04697
87 1 4 -0.601179 26.2336 13.3722 9.45555
88 1 4 -0.601179 10.2984 7.71958 5.45857
89 1 4 -0.60118 28.5643 13.3722 9.45555
90 1 4 -0.60118 7.96762 7.71958 5.45857
91 1 4 -0.60118 25.8628 14.9319 13.8671
92 1 4 -0.60118 10.6692 6.15984 1.04697
93 1 4 -0.601179 24.6974 14.2591 11.9641
94 1 4 -0.601179 11.8345 6.83267 2.95001
95 1 4 -0.60118 28.9351 18.0514 9.45555
96 1 4 -0.60118 7.59682 3.04037 5.45857
97 1 4 -0.601179 30.1005 16.0329 9.45555
98 1 4 -0.601179 6.43145 5.05885 5.45857
99 1 4 -0.601179 24.6974 16.0329 9.45555
100 1 4 -0.601179 11.8345 5.05885 5.45857
101 1 4 -0.60118 25.8628 18.0514 9.45555
102 1 4 -0.60118 10.6692 3.04037 5.45857
103 1 4 -0.60118 28.9351 14.9319 13.8671
104 1 4 -0.60118 7.59682 6.15984 1.04697
105 1 4 -0.60118 30.1005 14.2591 11.9641
106 1 4 -0.60118 6.43145 6.83267 2.95001
5195 1698 5 -0.35 20.2528 15.5149 13.6588
5196 1698 6 0.7 19.8311 15.8272 14.6933
5197 1698 5 -0.35 10.2764 10.8666 0.81372
5213 1704 5 -0.35 26.7399 10.2361 11.9598
5214 1704 6 0.7 27.1098 9.64673 11.0317
5215 1704 5 -0.35 27.4797 9.05734 10.1036
5234 1711 5 -0.35 13.7396 3.91394 10.6867
5235 1711 6 0.7 23.0765 19.8056 11.8263
5236 1711 5 -0.35 23.2803 19.8785 12.9659
5246 1715 5 -0.35 14.7402 15.8898 11.9215
5247 1715 6 0.7 15.7214 15.674 12.5016
5248 1715 5 -0.35 16.7025 15.4583 13.0816
5249 1716 5 -0.35 12.0649 17.0642 3.90972
5250 1716 6 0.7 3.2982 2.34336 3.83347
5251 1716 5 -0.35 3.66455 3.44135 3.75722
5252 1717 5 -0.35 2.9851 2.5463 0.24764
5253 1717 6 0.7 12.0437 7.78877 14.0045
5254 1717 5 -0.35 11.9692 7.75829 12.8473
5255 1718 5 -0.35 21.126 11.8313 3.97683
5256 1718 6 0.7 20.0043 12.0769 3.81248
5257 1718 5 -0.35 18.8826 12.3226 3.64814
5264 1721 5 -0.35 18.199 18.9151 11.3499
5265 1721 6 0.7 18.4665 17.8165 11.0911
5266 1721 5 -0.35 18.7341 16.7178 10.8323
5267 1722 5 -0.35 23.5597 15.1312 3.28363
5268 1722 6 0.7 22.6314 15.2419 3.97026
5269 1722 5 -0.35 21.703 15.3527 4.65689
ITEM: TIMESTEP
70000
ITEM: NUMBER OF ATOMS
127
ITEM: BOX BOUNDS xy xz yz pp pp pp
0.0000000000000000e+00 3.6531964750000000e+01 9.1329911900000003e+00
0.0000000000000000e+00 2.1091739680000000e+01 9.1329911900000003e+00
0.0000000000000000e+00 1.4914112149999999e+01 5.2729349200000000e+00
ITEM: ATOMS id mol type q x y z
1 1 1 1.10383 27.399 17.6496 10.5383
2 1 1 1.10383 9.13299 3.44217 4.3758
3 1 1 1.10383 27.399 15.8188 13.1274
4 1 1 1.10383 9.13299 5.27293 1.78671
5 1 1 1.10383 25.8135 14.9034 10.5383
6 1 1 1.10383 10.7185 6.18832 4.3758
7 1 1 1.10383 28.9845 14.9034 10.5383
8 1 1 1.10383 7.5475 6.18832 4.3758
9 1 2 0.115889 18.266 5.48596 12.6084
10 1 2 0.115889 18.266 15.6058 2.30572
11 1 2 0.115888 18.266 13.716 0.969417
12 1 2 0.115888 18.266 7.37578 13.9447
13 1 2 0.11589 25.3934 11.4908 8.12521
14 1 2 0.11589 11.1386 9.60096 6.7889
15 1 2 0.115888 11.1386 11.4908 8.12521
16 1 2 0.115888 25.3934 9.60096 6.7889
17 1 2 0.115889 15.5206 8.96083 0.969417
18 1 2 0.115889 21.0114 12.1309 13.9447
19 1 2 0.115888 22.648 13.0758 12.6084
20 1 2 0.115888 13.884 8.01592 2.30572
21 1 2 0.115889 21.0114 3.90092 8.12521
22 1 2 0.115889 15.5206 17.1908 6.7889
23 1 2 0.115887 13.884 16.2459 8.12521
24 1 2 0.115887 22.648 4.84583 6.7889
25 1 2 0.115889 22.648 16.2459 8.12521
26 1 2 0.115889 13.884 4.84583 6.7889
27 1 2 0.115887 15.5206 3.90092 8.12521
28 1 2 0.115887 21.0114 17.1908 6.7889
29 1 2 0.115889 21.0114 8.96083 0.969417
30 1 2 0.115889 15.5206 12.1309 13.9447
31 1 2 0.115887 13.884 13.0758 12.6084
32 1 2 0.115887 22.648 8.01592 2.30572
33 1 3 0.671939 27.399 18.7442 13.2542
34 1 3 0.671939 9.13299 2.34751 1.65994
35 1 3 0.671939 27.399 12.8934 9.117
36 1 3 0.671939 9.13299 8.19836 5.79712
37 1 3 0.67194 24.8655 14.3561 13.2542
38 1 3 0.67194 11.6665 6.73565 1.65994
39 1 3 0.67194 29.9325 17.2815 9.117
40 1 3 0.67194 6.5995 3.81022 5.79712
41 1 3 0.67194 24.8655 17.2815 9.117
42 1 3 0.67194 11.6665 3.81022 5.79712
43 1 3 0.67194 29.9325 14.3561 13.2542
44 1 3 0.67194 6.5995 6.73565 1.65994
45 1 3 -0.11508 27.399 19.957 14.1117
46 1 3 -0.11508 9.13299 1.13474 0.802379
47 1 3 -0.11508 27.399 11.6806 8.25944
48 1 3 -0.11508 9.13299 9.41113 6.65468
49 1 3 -0.11508 23.8152 13.7497 14.1117
50 1 3 -0.11508 12.7168 7.34203 0.802379
51 1 3 -0.11508 30.9828 17.8879 8.25944
52 1 3 -0.11508 5.54921 3.20384 6.65468
53 1 3 -0.11508 23.8152 17.8879 8.25944
54 1 3 -0.11508 12.7168 3.20384 6.65468
55 1 3 -0.11508 30.9828 13.7497 14.1117
56 1 3 -0.11508 5.54921 7.34203 0.802379
57 1 3 -0.0559 18.266 5.39949 13.5316
58 1 3 -0.0559 18.266 15.6923 1.38254
59 1 3 -0.055903 18.266 14.5575 0.580159
60 1 3 -0.055903 18.266 6.53422 14.334
61 1 3 -0.0559 26.1971 11.1132 7.85825
62 1 3 -0.0559 10.3349 9.9785 7.05587
63 1 3 -0.055903 10.3349 11.1132 7.85825
64 1 3 -0.055903 26.1971 9.9785 7.05587
65 1 3 -0.0559 14.7918 8.54005 0.580159
66 1 3 -0.0559 21.7402 12.5517 14.334
67 1 3 -0.055903 22.7229 13.1191 13.5316
68 1 3 -0.055903 13.8091 7.97268 1.38254
69 1 3 -0.0559 21.7402 3.39366 7.85825
70 1 3 -0.0559 14.7918 17.6981 7.05587
71 1 3 -0.055903 13.8091 17.1307 7.85825
72 1 3 -0.055903 22.7229 3.96103 7.05587
73 1 3 -0.055901 22.7229 17.1307 7.85825
74 1 3 -0.055901 13.8091 3.96103 7.05587
75 1 3 -0.055903 14.7918 3.39366 7.85825
76 1 3 -0.055903 21.7402 17.6981 7.05587
77 1 3 -0.0559 21.7402 8.54005 0.580159
78 1 3 -0.0559 14.7918 12.5517 14.334
79 1 3 -0.055903 13.8091 13.1191 13.5316
80 1 3 -0.055903 22.7229 7.97268 1.38254
81 1 4 -1.26215 27.399 15.8188 11.1856
82 1 4 -1.26215 9.13299 5.27293 3.72853
83 1 4 -0.60118 27.399 18.9383 11.9641
84 1 4 -0.60118 9.13299 2.15347 2.95001
85 1 4 -0.601179 27.399 17.5926 13.8671
86 1 4 -0.601179 9.13299 3.49912 1.04697
87 1 4 -0.601179 26.2336 13.3722 9.45555
88 1 4 -0.601179 10.2984 7.71958 5.45857
89 1 4 -0.60118 28.5643 13.3722 9.45555
90 1 4 -0.60118 7.96762 7.71958 5.45857
91 1 4 -0.60118 25.8628 14.9319 13.8671
92 1 4 -0.60118 10.6692 6.15984 1.04697
93 1 4 -0.601179 24.6974 14.2591 11.9641
94 1 4 -0.601179 11.8345 6.83267 2.95001
95 1 4 -0.60118 28.9351 18.0514 9.45555
96 1 4 -0.60118 7.59682 3.04037 5.45857
97 1 4 -0.601179 30.1005 16.0329 9.45555
98 1 4 -0.601179 6.43145 5.05885 5.45857
99 1 4 -0.601179 24.6974 16.0329 9.45555
100 1 4 -0.601179 11.8345 5.05885 5.45857
101 1 4 -0.60118 25.8628 18.0514 9.45555
102 1 4 -0.60118 10.6692 3.04037 5.45857
103 1 4 -0.60118 28.9351 14.9319 13.8671
104 1 4 -0.60118 7.59682 6.15984 1.04697
105 1 4 -0.60118 30.1005 14.2591 11.9641
106 1 4 -0.60118 6.43145 6.83267 2.95001
6749 2216 5 -0.35 26.789 11.289 12.0113
6750 2216 6 0.7 26.8652 10.2735 11.4557
6751 2216 5 -0.35 26.9413 9.25811 10.9001
6776 2225 5 -0.35 21.21 5.72141 4.27161
6777 2225 6 0.7 21.4836 5.24344 3.25069
6778 2225 5 -0.35 21.7573 4.76547 2.22976
6782 2227 5 -0.35 24.8643 10.4152 2.37125
6783 2227 6 0.7 7.50116 9.87734 1.88011
6784 2227 5 -0.35 8.40395 9.33943 1.38896
6818 2239 5 -0.35 21.3821 10.9984 9.99711
6819 2239 6 0.7 20.232 10.9572 9.85148
6820 2239 5 -0.35 19.0819 10.9161 9.70584
6821 2240 5 -0.35 23.6142 7.05502 11.4145
6822 2240 6 0.7 22.8302 6.78441 12.2256
6823 2240 5 -0.35 22.0463 6.5138 13.0366
6824 2241 5 -0.35 17.8668 15.5757 10.7423
6825 2241 6 0.7 17.3059 14.9127 11.5113
6826 2241 5 -0.35 16.7449 14.2497 12.2803
6827 2242 5 -0.35 11.5037 15.6081 4.53226
6828 2242 6 0.7 12.6448 15.6047 4.32384
6829 2242 5 -0.35 13.786 15.6013 4.11542
ITEM: TIMESTEP
71000
ITEM: NUMBER OF ATOMS
121
ITEM: BOX BOUNDS xy xz yz pp pp pp
0.0000000000000000e+00 3.6531964750000000e+01 9.1329911900000003e+00
0.0000000000000000e+00 2.1091739680000000e+01 9.1329911900000003e+00
0.0000000000000000e+00 1.4914112149999999e+01 5.2729349200000000e+00
ITEM: ATOMS id mol type q x y z
1 1 1 1.10383 27.399 17.6496 10.5383
2 1 1 1.10383 9.13299 3.44217 4.3758
3 1 1 1.10383 27.399 15.8188 13.1274
4 1 1 1.10383 9.13299 5.27293 1.78671
5 1 1 1.10383 25.8135 14.9034 10.5383
6 1 1 1.10383 10.7185 6.18832 4.3758
7 1 1 1.10383 28.9845 14.9034 10.5383
8 1 1 1.10383 7.5475 6.18832 4.3758
9 1 2 0.115889 18.266 5.48596 12.6084
10 1 2 0.115889 18.266 15.6058 2.30572
11 1 2 0.115888 18.266 13.716 0.969417
12 1 2 0.115888 18.266 7.37578 13.9447
13 1 2 0.11589 25.3934 11.4908 8.12521
14 1 2 0.11589 11.1386 9.60096 6.7889
15 1 2 0.115888 11.1386 11.4908 8.12521
16 1 2 0.115888 25.3934 9.60096 6.7889
17 1 2 0.115889 15.5206 8.96083 0.969417
18 1 2 0.115889 21.0114 12.1309 13.9447
19 1 2 0.115888 22.648 13.0758 12.6084
20 1 2 0.115888 13.884 8.01592 2.30572
21 1 2 0.115889 21.0114 3.90092 8.12521
22 1 2 0.115889 15.5206 17.1908 6.7889
23 1 2 0.115887 13.884 16.2459 8.12521
24 1 2 0.115887 22.648 4.84583 6.7889
25 1 2 0.115889 22.648 16.2459 8.12521
26 1 2 0.115889 13.884 4.84583 6.7889
27 1 2 0.115887 15.5206 3.90092 8.12521
28 1 2 0.115887 21.0114 17.1908 6.7889
29 1 2 0.115889 21.0114 8.96083 0.969417
30 1 2 0.115889 15.5206 12.1309 13.9447
31 1 2 0.115887 13.884 13.0758 12.6084
32 1 2 0.115887 22.648 8.01592 2.30572
33 1 3 0.671939 27.399 18.7442 13.2542
34 1 3 0.671939 9.13299 2.34751 1.65994
35 1 3 0.671939 27.399 12.8934 9.117
36 1 3 0.671939 9.13299 8.19836 5.79712
37 1 3 0.67194 24.8655 14.3561 13.2542
38 1 3 0.67194 11.6665 6.73565 1.65994
39 1 3 0.67194 29.9325 17.2815 9.117
40 1 3 0.67194 6.5995 3.81022 5.79712
41 1 3 0.67194 24.8655 17.2815 9.117
42 1 3 0.67194 11.6665 3.81022 5.79712
43 1 3 0.67194 29.9325 14.3561 13.2542
44 1 3 0.67194 6.5995 6.73565 1.65994
45 1 3 -0.11508 27.399 19.957 14.1117
46 1 3 -0.11508 9.13299 1.13474 0.802379
47 1 3 -0.11508 27.399 11.6806 8.25944
48 1 3 -0.11508 9.13299 9.41113 6.65468
49 1 3 -0.11508 23.8152 13.7497 14.1117
50 1 3 -0.11508 12.7168 7.34203 0.802379
51 1 3 -0.11508 30.9828 17.8879 8.25944
52 1 3 -0.11508 5.54921 3.20384 6.65468
53 1 3 -0.11508 23.8152 17.8879 8.25944
54 1 3 -0.11508 12.7168 3.20384 6.65468
55 1 3 -0.11508 30.9828 13.7497 14.1117
56 1 3 -0.11508 5.54921 7.34203 0.802379
57 1 3 -0.0559 18.266 5.39949 13.5316
58 1 3 -0.0559 18.266 15.6923 1.38254
59 1 3 -0.055903 18.266 14.5575 0.580159
60 1 3 -0.055903 18.266 6.53422 14.334
61 1 3 -0.0559 26.1971 11.1132 7.85825
62 1 3 -0.0559 10.3349 9.9785 7.05587
63 1 3 -0.055903 10.3349 11.1132 7.85825
64 1 3 -0.055903 26.1971 9.9785 7.05587
65 1 3 -0.0559 14.7918 8.54005 0.580159
66 1 3 -0.0559 21.7402 12.5517 14.334
67 1 3 -0.055903 22.7229 13.1191 13.5316
68 1 3 -0.055903 13.8091 7.97268 1.38254
69 1 3 -0.0559 21.7402 3.39366 7.85825
70 1 3 -0.0559 14.7918 17.6981 7.05587
71 1 3 -0.055903 13.8091 17.1307 7.85825
72 1 3 -0.055903 22.7229 3.96103 7.05587
73 1 3 -0.055901 22.7229 17.1307 7.85825
74 1 3 -0.055901 13.8091 3.96103 7.05587
75 1 3 -0.055903 14.7918 3.39366 7.85825
76 1 3 -0.055903 21.7402 17.6981 7.05587
77 1 3 -0.0559 21.7402 8.54005 0.580159
78 1 3 -0.0559 14.7918 12.5517 14.334
79 1 3 -0.055903 13.8091 13.1191 13.5316
80 1 3 -0.055903 22.7229 7.97268 1.38254
81 1 4 -1.26215 27.399 15.8188 11.1856
82 1 4 -1.26215 9.13299 5.27293 3.72853
83 1 4 -0.60118 27.399 18.9383 11.9641
84 1 4 -0.60118 9.13299 2.15347 2.95001
85 1 4 -0.601179 27.399 17.5926 13.8671
86 1 4 -0.601179 9.13299 3.49912 1.04697
87 1 4 -0.601179 26.2336 13.3722 9.45555
88 1 4 -0.601179 10.2984 7.71958 5.45857
89 1 4 -0.60118 28.5643 13.3722 9.45555
90 1 4 -0.60118 7.96762 7.71958 5.45857
91 1 4 -0.60118 25.8628 14.9319 13.8671
92 1 4 -0.60118 10.6692 6.15984 1.04697
93 1 4 -0.601179 24.6974 14.2591 11.9641
94 1 4 -0.601179 11.8345 6.83267 2.95001
95 1 4 -0.60118 28.9351 18.0514 9.45555
96 1 4 -0.60118 7.59682 3.04037 5.45857
97 1 4 -0.601179 30.1005 16.0329 9.45555
98 1 4 -0.601179 6.43145 5.05885 5.45857
99 1 4 -0.601179 24.6974 16.0329 9.45555
100 1 4 -0.601179 11.8345 5.05885 5.45857
101 1 4 -0.60118 25.8628 18.0514 9.45555
102 1 4 -0.60118 10.6692 3.04037 5.45857
103 1 4 -0.60118 28.9351 14.9319 13.8671
104 1 4 -0.60118 7.59682 6.15984 1.04697
105 1 4 -0.60118 30.1005 14.2591 11.9641
106 1 4 -0.60118 6.43145 6.83267 2.95001
1559 486 5 -0.35 9.55106 9.04464 1.0745
1560 486 6 0.7 18.6989 14.5214 14.8468
1561 486 5 -0.35 18.7137 14.7253 13.7049
1598 499 5 -0.35 29.1566 10.4238 13.4945
1599 499 6 0.7 28.3511 11.1982 13.1832
1600 499 5 -0.35 27.5455 11.9726 12.8718
1706 535 5 -0.35 13.2637 11.1559 10.8687
1707 535 6 0.7 13.3444 11.7146 9.85535
1708 535 5 -0.35 13.4251 12.2733 8.84197
1709 536 5 -0.35 18.7424 8.81235 3.19258
1710 536 6 0.7 17.8814 8.15264 3.6037
1711 536 5 -0.35 17.0203 7.49293 4.01482
1712 537 5 -0.35 4.37281 4.27458 3.46371
1713 537 6 0.7 3.76702 3.71407 2.64858
1714 537 5 -0.35 3.16123 3.15356 1.83344
ITEM: TIMESTEP
72000
ITEM: NUMBER OF ATOMS
118
ITEM: BOX BOUNDS xy xz yz pp pp pp
0.0000000000000000e+00 3.6531964750000000e+01 9.1329911900000003e+00
0.0000000000000000e+00 2.1091739680000000e+01 9.1329911900000003e+00
0.0000000000000000e+00 1.4914112149999999e+01 5.2729349200000000e+00
ITEM: ATOMS id mol type q x y z
1 1 1 1.10383 27.399 17.6496 10.5383
2 1 1 1.10383 9.13299 3.44217 4.3758
3 1 1 1.10383 27.399 15.8188 13.1274
4 1 1 1.10383 9.13299 5.27293 1.78671
5 1 1 1.10383 25.8135 14.9034 10.5383
6 1 1 1.10383 10.7185 6.18832 4.3758
7 1 1 1.10383 28.9845 14.9034 10.5383
8 1 1 1.10383 7.5475 6.18832 4.3758
9 1 2 0.115889 18.266 5.48596 12.6084
10 1 2 0.115889 18.266 15.6058 2.30572
11 1 2 0.115888 18.266 13.716 0.969417
12 1 2 0.115888 18.266 7.37578 13.9447
13 1 2 0.11589 25.3934 11.4908 8.12521
14 1 2 0.11589 11.1386 9.60096 6.7889
15 1 2 0.115888 11.1386 11.4908 8.12521
16 1 2 0.115888 25.3934 9.60096 6.7889
17 1 2 0.115889 15.5206 8.96083 0.969417
18 1 2 0.115889 21.0114 12.1309 13.9447
19 1 2 0.115888 22.648 13.0758 12.6084
20 1 2 0.115888 13.884 8.01592 2.30572
21 1 2 0.115889 21.0114 3.90092 8.12521
22 1 2 0.115889 15.5206 17.1908 6.7889
23 1 2 0.115887 13.884 16.2459 8.12521
24 1 2 0.115887 22.648 4.84583 6.7889
25 1 2 0.115889 22.648 16.2459 8.12521
26 1 2 0.115889 13.884 4.84583 6.7889
27 1 2 0.115887 15.5206 3.90092 8.12521
28 1 2 0.115887 21.0114 17.1908 6.7889
29 1 2 0.115889 21.0114 8.96083 0.969417
30 1 2 0.115889 15.5206 12.1309 13.9447
31 1 2 0.115887 13.884 13.0758 12.6084
32 1 2 0.115887 22.648 8.01592 2.30572
33 1 3 0.671939 27.399 18.7442 13.2542
34 1 3 0.671939 9.13299 2.34751 1.65994
35 1 3 0.671939 27.399 12.8934 9.117
36 1 3 0.671939 9.13299 8.19836 5.79712
37 1 3 0.67194 24.8655 14.3561 13.2542
38 1 3 0.67194 11.6665 6.73565 1.65994
39 1 3 0.67194 29.9325 17.2815 9.117
40 1 3 0.67194 6.5995 3.81022 5.79712
41 1 3 0.67194 24.8655 17.2815 9.117
42 1 3 0.67194 11.6665 3.81022 5.79712
43 1 3 0.67194 29.9325 14.3561 13.2542
44 1 3 0.67194 6.5995 6.73565 1.65994
45 1 3 -0.11508 27.399 19.957 14.1117
46 1 3 -0.11508 9.13299 1.13474 0.802379
47 1 3 -0.11508 27.399 11.6806 8.25944
48 1 3 -0.11508 9.13299 9.41113 6.65468
49 1 3 -0.11508 23.8152 13.7497 14.1117
50 1 3 -0.11508 12.7168 7.34203 0.802379
51 1 3 -0.11508 30.9828 17.8879 8.25944
52 1 3 -0.11508 5.54921 3.20384 6.65468
53 1 3 -0.11508 23.8152 17.8879 8.25944
54 1 3 -0.11508 12.7168 3.20384 6.65468
55 1 3 -0.11508 30.9828 13.7497 14.1117
56 1 3 -0.11508 5.54921 7.34203 0.802379
57 1 3 -0.0559 18.266 5.39949 13.5316
58 1 3 -0.0559 18.266 15.6923 1.38254
59 1 3 -0.055903 18.266 14.5575 0.580159
60 1 3 -0.055903 18.266 6.53422 14.334
61 1 3 -0.0559 26.1971 11.1132 7.85825
62 1 3 -0.0559 10.3349 9.9785 7.05587
63 1 3 -0.055903 10.3349 11.1132 7.85825
64 1 3 -0.055903 26.1971 9.9785 7.05587
65 1 3 -0.0559 14.7918 8.54005 0.580159
66 1 3 -0.0559 21.7402 12.5517 14.334
67 1 3 -0.055903 22.7229 13.1191 13.5316
68 1 3 -0.055903 13.8091 7.97268 1.38254
69 1 3 -0.0559 21.7402 3.39366 7.85825
70 1 3 -0.0559 14.7918 17.6981 7.05587
71 1 3 -0.055903 13.8091 17.1307 7.85825
72 1 3 -0.055903 22.7229 3.96103 7.05587
73 1 3 -0.055901 22.7229 17.1307 7.85825
74 1 3 -0.055901 13.8091 3.96103 7.05587
75 1 3 -0.055903 14.7918 3.39366 7.85825
76 1 3 -0.055903 21.7402 17.6981 7.05587
77 1 3 -0.0559 21.7402 8.54005 0.580159
78 1 3 -0.0559 14.7918 12.5517 14.334
79 1 3 -0.055903 13.8091 13.1191 13.5316
80 1 3 -0.055903 22.7229 7.97268 1.38254
81 1 4 -1.26215 27.399 15.8188 11.1856
82 1 4 -1.26215 9.13299 5.27293 3.72853
83 1 4 -0.60118 27.399 18.9383 11.9641
84 1 4 -0.60118 9.13299 2.15347 2.95001
85 1 4 -0.601179 27.399 17.5926 13.8671
86 1 4 -0.601179 9.13299 3.49912 1.04697
87 1 4 -0.601179 26.2336 13.3722 9.45555
88 1 4 -0.601179 10.2984 7.71958 5.45857
89 1 4 -0.60118 28.5643 13.3722 9.45555
90 1 4 -0.60118 7.96762 7.71958 5.45857
91 1 4 -0.60118 25.8628 14.9319 13.8671
92 1 4 -0.60118 10.6692 6.15984 1.04697
93 1 4 -0.601179 24.6974 14.2591 11.9641
94 1 4 -0.601179 11.8345 6.83267 2.95001
95 1 4 -0.60118 28.9351 18.0514 9.45555
96 1 4 -0.60118 7.59682 3.04037 5.45857
97 1 4 -0.601179 30.1005 16.0329 9.45555
98 1 4 -0.601179 6.43145 5.05885 5.45857
99 1 4 -0.601179 24.6974 16.0329 9.45555
100 1 4 -0.601179 11.8345 5.05885 5.45857
101 1 4 -0.60118 25.8628 18.0514 9.45555
102 1 4 -0.60118 10.6692 3.04037 5.45857
103 1 4 -0.60118 28.9351 14.9319 13.8671
104 1 4 -0.60118 7.59682 6.15984 1.04697
105 1 4 -0.60118 30.1005 14.2591 11.9641
106 1 4 -0.60118 6.43145 6.83267 2.95001
1559 486 5 -0.35 19.2489 19.056 9.75289
1560 486 6 0.7 18.9178 18.1538 9.10313
1561 486 5 -0.35 18.5868 17.2517 8.45337
1574 491 5 -0.35 9.85515 6.20275 11.1122
1575 491 6 0.7 9.75262 6.33867 9.96472
1576 491 5 -0.35 9.65008 6.47459 8.81729
1580 493 5 -0.35 21.935 19.2832 12.7461
1581 493 6 0.7 13.2442 4.31889 12.0981
1582 493 5 -0.35 13.6864 5.17336 11.45
1583 494 5 -0.35 21.4309 6.33366 9.73953
1584 494 6 0.7 20.982 7.05051 8.94569
1585 494 5 -0.35 20.5331 7.76736 8.15185
ITEM: TIMESTEP
73000
ITEM: NUMBER OF ATOMS
130
ITEM: BOX BOUNDS xy xz yz pp pp pp
0.0000000000000000e+00 3.6531964750000000e+01 9.1329911900000003e+00
0.0000000000000000e+00 2.1091739680000000e+01 9.1329911900000003e+00
0.0000000000000000e+00 1.4914112149999999e+01 5.2729349200000000e+00
ITEM: ATOMS id mol type q x y z
1 1 1 1.10383 27.399 17.6496 10.5383
2 1 1 1.10383 9.13299 3.44217 4.3758
3 1 1 1.10383 27.399 15.8188 13.1274
4 1 1 1.10383 9.13299 5.27293 1.78671
5 1 1 1.10383 25.8135 14.9034 10.5383
6 1 1 1.10383 10.7185 6.18832 4.3758
7 1 1 1.10383 28.9845 14.9034 10.5383
8 1 1 1.10383 7.5475 6.18832 4.3758
9 1 2 0.115889 18.266 5.48596 12.6084
10 1 2 0.115889 18.266 15.6058 2.30572
11 1 2 0.115888 18.266 13.716 0.969417
12 1 2 0.115888 18.266 7.37578 13.9447
13 1 2 0.11589 25.3934 11.4908 8.12521
14 1 2 0.11589 11.1386 9.60096 6.7889
15 1 2 0.115888 11.1386 11.4908 8.12521
16 1 2 0.115888 25.3934 9.60096 6.7889
17 1 2 0.115889 15.5206 8.96083 0.969417
18 1 2 0.115889 21.0114 12.1309 13.9447
19 1 2 0.115888 22.648 13.0758 12.6084
20 1 2 0.115888 13.884 8.01592 2.30572
21 1 2 0.115889 21.0114 3.90092 8.12521
22 1 2 0.115889 15.5206 17.1908 6.7889
23 1 2 0.115887 13.884 16.2459 8.12521
24 1 2 0.115887 22.648 4.84583 6.7889
25 1 2 0.115889 22.648 16.2459 8.12521
26 1 2 0.115889 13.884 4.84583 6.7889
27 1 2 0.115887 15.5206 3.90092 8.12521
28 1 2 0.115887 21.0114 17.1908 6.7889
29 1 2 0.115889 21.0114 8.96083 0.969417
30 1 2 0.115889 15.5206 12.1309 13.9447
31 1 2 0.115887 13.884 13.0758 12.6084
32 1 2 0.115887 22.648 8.01592 2.30572
33 1 3 0.671939 27.399 18.7442 13.2542
34 1 3 0.671939 9.13299 2.34751 1.65994
35 1 3 0.671939 27.399 12.8934 9.117
36 1 3 0.671939 9.13299 8.19836 5.79712
37 1 3 0.67194 24.8655 14.3561 13.2542
38 1 3 0.67194 11.6665 6.73565 1.65994
39 1 3 0.67194 29.9325 17.2815 9.117
40 1 3 0.67194 6.5995 3.81022 5.79712
41 1 3 0.67194 24.8655 17.2815 9.117
42 1 3 0.67194 11.6665 3.81022 5.79712
43 1 3 0.67194 29.9325 14.3561 13.2542
44 1 3 0.67194 6.5995 6.73565 1.65994
45 1 3 -0.11508 27.399 19.957 14.1117
46 1 3 -0.11508 9.13299 1.13474 0.802379
47 1 3 -0.11508 27.399 11.6806 8.25944
48 1 3 -0.11508 9.13299 9.41113 6.65468
49 1 3 -0.11508 23.8152 13.7497 14.1117
50 1 3 -0.11508 12.7168 7.34203 0.802379
51 1 3 -0.11508 30.9828 17.8879 8.25944
52 1 3 -0.11508 5.54921 3.20384 6.65468
53 1 3 -0.11508 23.8152 17.8879 8.25944
54 1 3 -0.11508 12.7168 3.20384 6.65468
55 1 3 -0.11508 30.9828 13.7497 14.1117
56 1 3 -0.11508 5.54921 7.34203 0.802379
57 1 3 -0.0559 18.266 5.39949 13.5316
58 1 3 -0.0559 18.266 15.6923 1.38254
59 1 3 -0.055903 18.266 14.5575 0.580159
60 1 3 -0.055903 18.266 6.53422 14.334
61 1 3 -0.0559 26.1971 11.1132 7.85825
62 1 3 -0.0559 10.3349 9.9785 7.05587
63 1 3 -0.055903 10.3349 11.1132 7.85825
64 1 3 -0.055903 26.1971 9.9785 7.05587
65 1 3 -0.0559 14.7918 8.54005 0.580159
66 1 3 -0.0559 21.7402 12.5517 14.334
67 1 3 -0.055903 22.7229 13.1191 13.5316
68 1 3 -0.055903 13.8091 7.97268 1.38254
69 1 3 -0.0559 21.7402 3.39366 7.85825
70 1 3 -0.0559 14.7918 17.6981 7.05587
71 1 3 -0.055903 13.8091 17.1307 7.85825
72 1 3 -0.055903 22.7229 3.96103 7.05587
73 1 3 -0.055901 22.7229 17.1307 7.85825
74 1 3 -0.055901 13.8091 3.96103 7.05587
75 1 3 -0.055903 14.7918 3.39366 7.85825
76 1 3 -0.055903 21.7402 17.6981 7.05587
77 1 3 -0.0559 21.7402 8.54005 0.580159
78 1 3 -0.0559 14.7918 12.5517 14.334
79 1 3 -0.055903 13.8091 13.1191 13.5316
80 1 3 -0.055903 22.7229 7.97268 1.38254
81 1 4 -1.26215 27.399 15.8188 11.1856
82 1 4 -1.26215 9.13299 5.27293 3.72853
83 1 4 -0.60118 27.399 18.9383 11.9641
84 1 4 -0.60118 9.13299 2.15347 2.95001
85 1 4 -0.601179 27.399 17.5926 13.8671
86 1 4 -0.601179 9.13299 3.49912 1.04697
87 1 4 -0.601179 26.2336 13.3722 9.45555
88 1 4 -0.601179 10.2984 7.71958 5.45857
89 1 4 -0.60118 28.5643 13.3722 9.45555
90 1 4 -0.60118 7.96762 7.71958 5.45857
91 1 4 -0.60118 25.8628 14.9319 13.8671
92 1 4 -0.60118 10.6692 6.15984 1.04697
93 1 4 -0.601179 24.6974 14.2591 11.9641
94 1 4 -0.601179 11.8345 6.83267 2.95001
95 1 4 -0.60118 28.9351 18.0514 9.45555
96 1 4 -0.60118 7.59682 3.04037 5.45857
97 1 4 -0.601179 30.1005 16.0329 9.45555
98 1 4 -0.601179 6.43145 5.05885 5.45857
99 1 4 -0.601179 24.6974 16.0329 9.45555
100 1 4 -0.601179 11.8345 5.05885 5.45857
101 1 4 -0.60118 25.8628 18.0514 9.45555
102 1 4 -0.60118 10.6692 3.04037 5.45857
103 1 4 -0.60118 28.9351 14.9319 13.8671
104 1 4 -0.60118 7.59682 6.15984 1.04697
105 1 4 -0.60118 30.1005 14.2591 11.9641
106 1 4 -0.60118 6.43145 6.83267 2.95001
2834 911 5 -0.35 9.40862 5.22343 7.1599
2835 911 6 0.7 10.1829 5.61796 7.92831
2836 911 5 -0.35 10.9571 6.0125 8.69672
2879 926 5 -0.35 12.394 10.6631 4.17684
2880 926 6 0.7 11.833 10.3646 3.20639
2881 926 5 -0.35 11.272 10.0661 2.23594
2888 929 5 -0.35 6.10676 3.53855 2.24475
2889 929 6 0.7 6.03594 2.52789 1.67982
2890 929 5 -0.35 5.96512 1.51723 1.11488
2891 930 5 -0.35 18.3735 12.3709 3.40433
2892 930 6 0.7 17.2846 12.0885 3.12126
2893 930 5 -0.35 16.1957 11.8061 2.83818
2894 931 5 -0.35 15.3208 13.9797 7.64432
2895 931 6 0.7 15.9683 14.0044 8.60641
2896 931 5 -0.35 16.6159 14.0291 9.5685
2897 932 5 -0.35 22.5816 12.8393 7.2317
2898 932 6 0.7 23.4147 13.2856 6.55911
2899 932 5 -0.35 24.2478 13.7318 5.88653
2900 933 5 -0.35 22.883 12.5163 0.287458
2901 933 6 0.7 31.6917 18.8318 14.8098
2902 933 5 -0.35 31.3674 19.8743 14.418
2903 934 5 -0.35 13.9883 2.62839 1.50256
2904 934 6 0.7 14.0416 2.76029 0.351319
2905 934 5 -0.35 23.2279 8.16512 14.1142
ITEM: TIMESTEP
74000
ITEM: NUMBER OF ATOMS
130
ITEM: BOX BOUNDS xy xz yz pp pp pp
0.0000000000000000e+00 3.6531964750000000e+01 9.1329911900000003e+00
0.0000000000000000e+00 2.1091739680000000e+01 9.1329911900000003e+00
0.0000000000000000e+00 1.4914112149999999e+01 5.2729349200000000e+00
ITEM: ATOMS id mol type q x y z
1 1 1 1.10383 27.399 17.6496 10.5383
2 1 1 1.10383 9.13299 3.44217 4.3758
3 1 1 1.10383 27.399 15.8188 13.1274
4 1 1 1.10383 9.13299 5.27293 1.78671
5 1 1 1.10383 25.8135 14.9034 10.5383
6 1 1 1.10383 10.7185 6.18832 4.3758
7 1 1 1.10383 28.9845 14.9034 10.5383
8 1 1 1.10383 7.5475 6.18832 4.3758
9 1 2 0.115889 18.266 5.48596 12.6084
10 1 2 0.115889 18.266 15.6058 2.30572
11 1 2 0.115888 18.266 13.716 0.969417
12 1 2 0.115888 18.266 7.37578 13.9447
13 1 2 0.11589 25.3934 11.4908 8.12521
14 1 2 0.11589 11.1386 9.60096 6.7889
15 1 2 0.115888 11.1386 11.4908 8.12521
16 1 2 0.115888 25.3934 9.60096 6.7889
17 1 2 0.115889 15.5206 8.96083 0.969417
18 1 2 0.115889 21.0114 12.1309 13.9447
19 1 2 0.115888 22.648 13.0758 12.6084
20 1 2 0.115888 13.884 8.01592 2.30572
21 1 2 0.115889 21.0114 3.90092 8.12521
22 1 2 0.115889 15.5206 17.1908 6.7889
23 1 2 0.115887 13.884 16.2459 8.12521
24 1 2 0.115887 22.648 4.84583 6.7889
25 1 2 0.115889 22.648 16.2459 8.12521
26 1 2 0.115889 13.884 4.84583 6.7889
27 1 2 0.115887 15.5206 3.90092 8.12521
28 1 2 0.115887 21.0114 17.1908 6.7889
29 1 2 0.115889 21.0114 8.96083 0.969417
30 1 2 0.115889 15.5206 12.1309 13.9447
31 1 2 0.115887 13.884 13.0758 12.6084
32 1 2 0.115887 22.648 8.01592 2.30572
33 1 3 0.671939 27.399 18.7442 13.2542
34 1 3 0.671939 9.13299 2.34751 1.65994
35 1 3 0.671939 27.399 12.8934 9.117
36 1 3 0.671939 9.13299 8.19836 5.79712
37 1 3 0.67194 24.8655 14.3561 13.2542
38 1 3 0.67194 11.6665 6.73565 1.65994
39 1 3 0.67194 29.9325 17.2815 9.117
40 1 3 0.67194 6.5995 3.81022 5.79712
41 1 3 0.67194 24.8655 17.2815 9.117
42 1 3 0.67194 11.6665 3.81022 5.79712
43 1 3 0.67194 29.9325 14.3561 13.2542
44 1 3 0.67194 6.5995 6.73565 1.65994
45 1 3 -0.11508 27.399 19.957 14.1117
46 1 3 -0.11508 9.13299 1.13474 0.802379
47 1 3 -0.11508 27.399 11.6806 8.25944
48 1 3 -0.11508 9.13299 9.41113 6.65468
49 1 3 -0.11508 23.8152 13.7497 14.1117
50 1 3 -0.11508 12.7168 7.34203 0.802379
51 1 3 -0.11508 30.9828 17.8879 8.25944
52 1 3 -0.11508 5.54921 3.20384 6.65468
53 1 3 -0.11508 23.8152 17.8879 8.25944
54 1 3 -0.11508 12.7168 3.20384 6.65468
55 1 3 -0.11508 30.9828 13.7497 14.1117
56 1 3 -0.11508 5.54921 7.34203 0.802379
57 1 3 -0.0559 18.266 5.39949 13.5316
58 1 3 -0.0559 18.266 15.6923 1.38254
59 1 3 -0.055903 18.266 14.5575 0.580159
60 1 3 -0.055903 18.266 6.53422 14.334
61 1 3 -0.0559 26.1971 11.1132 7.85825
62 1 3 -0.0559 10.3349 9.9785 7.05587
63 1 3 -0.055903 10.3349 11.1132 7.85825
64 1 3 -0.055903 26.1971 9.9785 7.05587
65 1 3 -0.0559 14.7918 8.54005 0.580159
66 1 3 -0.0559 21.7402 12.5517 14.334
67 1 3 -0.055903 22.7229 13.1191 13.5316
68 1 3 -0.055903 13.8091 7.97268 1.38254
69 1 3 -0.0559 21.7402 3.39366 7.85825
70 1 3 -0.0559 14.7918 17.6981 7.05587
71 1 3 -0.055903 13.8091 17.1307 7.85825
72 1 3 -0.055903 22.7229 3.96103 7.05587
73 1 3 -0.055901 22.7229 17.1307 7.85825
74 1 3 -0.055901 13.8091 3.96103 7.05587
75 1 3 -0.055903 14.7918 3.39366 7.85825
76 1 3 -0.055903 21.7402 17.6981 7.05587
77 1 3 -0.0559 21.7402 8.54005 0.580159
78 1 3 -0.0559 14.7918 12.5517 14.334
79 1 3 -0.055903 13.8091 13.1191 13.5316
80 1 3 -0.055903 22.7229 7.97268 1.38254
81 1 4 -1.26215 27.399 15.8188 11.1856
82 1 4 -1.26215 9.13299 5.27293 3.72853
83 1 4 -0.60118 27.399 18.9383 11.9641
84 1 4 -0.60118 9.13299 2.15347 2.95001
85 1 4 -0.601179 27.399 17.5926 13.8671
86 1 4 -0.601179 9.13299 3.49912 1.04697
87 1 4 -0.601179 26.2336 13.3722 9.45555
88 1 4 -0.601179 10.2984 7.71958 5.45857
89 1 4 -0.60118 28.5643 13.3722 9.45555
90 1 4 -0.60118 7.96762 7.71958 5.45857
91 1 4 -0.60118 25.8628 14.9319 13.8671
92 1 4 -0.60118 10.6692 6.15984 1.04697
93 1 4 -0.601179 24.6974 14.2591 11.9641
94 1 4 -0.601179 11.8345 6.83267 2.95001
95 1 4 -0.60118 28.9351 18.0514 9.45555
96 1 4 -0.60118 7.59682 3.04037 5.45857
97 1 4 -0.601179 30.1005 16.0329 9.45555
98 1 4 -0.601179 6.43145 5.05885 5.45857
99 1 4 -0.601179 24.6974 16.0329 9.45555
100 1 4 -0.601179 11.8345 5.05885 5.45857
101 1 4 -0.60118 25.8628 18.0514 9.45555
102 1 4 -0.60118 10.6692 3.04037 5.45857
103 1 4 -0.60118 28.9351 14.9319 13.8671
104 1 4 -0.60118 7.59682 6.15984 1.04697
105 1 4 -0.60118 30.1005 14.2591 11.9641
106 1 4 -0.60118 6.43145 6.83267 2.95001
4217 1372 5 -0.35 14.702 17.3425 11.099
4218 1372 6 0.7 31.9881 17.4837 11.7035
4219 1372 5 -0.35 31.0081 17.6249 12.3079
4238 1379 5 -0.35 9.36099 4.87458 7.92678
4239 1379 6 0.7 9.52978 3.73101 8.02351
4240 1379 5 -0.35 18.8316 18.4062 8.12024
4277 1392 5 -0.35 27.7903 17.2639 7.02959
4278 1392 6 0.7 18.1338 2.42305 6.69012
4279 1392 5 -0.35 17.6104 3.40098 6.35066
4307 1402 5 -0.35 26.8762 12.121 14.6509
4308 1402 6 0.7 17.9426 7.58172 0.612909
4309 1402 5 -0.35 18.1419 8.31535 1.48906
4325 1408 5 -0.35 12.4005 3.69383 0.927813
4326 1408 6 0.7 21.7132 9.11094 14.705
4327 1408 5 -0.35 21.8929 9.25512 13.5681
4331 1410 5 -0.35 23.2182 11.2913 5.10346
4332 1410 6 0.7 22.9786 11.2994 3.96852
4333 1410 5 -0.35 22.7389 11.3075 2.83358
4337 1412 5 -0.35 22.2151 5.31832 10.8196
4338 1412 6 0.7 23.1534 5.12373 10.1659
4339 1412 5 -0.35 24.0917 4.92913 9.51211
4340 1413 5 -0.35 16.235 10.2927 10.4796
4341 1413 6 0.7 16.1572 9.18408 10.812
4342 1413 5 -0.35 16.0794 8.07546 11.1445
ITEM: TIMESTEP
75000
ITEM: NUMBER OF ATOMS
130
ITEM: BOX BOUNDS xy xz yz pp pp pp
0.0000000000000000e+00 3.6531964750000000e+01 9.1329911900000003e+00
0.0000000000000000e+00 2.1091739680000000e+01 9.1329911900000003e+00
0.0000000000000000e+00 1.4914112149999999e+01 5.2729349200000000e+00
ITEM: ATOMS id mol type q x y z
1 1 1 1.10383 27.399 17.6496 10.5383
2 1 1 1.10383 9.13299 3.44217 4.3758
3 1 1 1.10383 27.399 15.8188 13.1274
4 1 1 1.10383 9.13299 5.27293 1.78671
5 1 1 1.10383 25.8135 14.9034 10.5383
6 1 1 1.10383 10.7185 6.18832 4.3758
7 1 1 1.10383 28.9845 14.9034 10.5383
8 1 1 1.10383 7.5475 6.18832 4.3758
9 1 2 0.115889 18.266 5.48596 12.6084
10 1 2 0.115889 18.266 15.6058 2.30572
11 1 2 0.115888 18.266 13.716 0.969417
12 1 2 0.115888 18.266 7.37578 13.9447
13 1 2 0.11589 25.3934 11.4908 8.12521
14 1 2 0.11589 11.1386 9.60096 6.7889
15 1 2 0.115888 11.1386 11.4908 8.12521
16 1 2 0.115888 25.3934 9.60096 6.7889
17 1 2 0.115889 15.5206 8.96083 0.969417
18 1 2 0.115889 21.0114 12.1309 13.9447
19 1 2 0.115888 22.648 13.0758 12.6084
20 1 2 0.115888 13.884 8.01592 2.30572
21 1 2 0.115889 21.0114 3.90092 8.12521
22 1 2 0.115889 15.5206 17.1908 6.7889
23 1 2 0.115887 13.884 16.2459 8.12521
24 1 2 0.115887 22.648 4.84583 6.7889
25 1 2 0.115889 22.648 16.2459 8.12521
26 1 2 0.115889 13.884 4.84583 6.7889
27 1 2 0.115887 15.5206 3.90092 8.12521
28 1 2 0.115887 21.0114 17.1908 6.7889
29 1 2 0.115889 21.0114 8.96083 0.969417
30 1 2 0.115889 15.5206 12.1309 13.9447
31 1 2 0.115887 13.884 13.0758 12.6084
32 1 2 0.115887 22.648 8.01592 2.30572
33 1 3 0.671939 27.399 18.7442 13.2542
34 1 3 0.671939 9.13299 2.34751 1.65994
35 1 3 0.671939 27.399 12.8934 9.117
36 1 3 0.671939 9.13299 8.19836 5.79712
37 1 3 0.67194 24.8655 14.3561 13.2542
38 1 3 0.67194 11.6665 6.73565 1.65994
39 1 3 0.67194 29.9325 17.2815 9.117
40 1 3 0.67194 6.5995 3.81022 5.79712
41 1 3 0.67194 24.8655 17.2815 9.117
42 1 3 0.67194 11.6665 3.81022 5.79712
43 1 3 0.67194 29.9325 14.3561 13.2542
44 1 3 0.67194 6.5995 6.73565 1.65994
45 1 3 -0.11508 27.399 19.957 14.1117
46 1 3 -0.11508 9.13299 1.13474 0.802379
47 1 3 -0.11508 27.399 11.6806 8.25944
48 1 3 -0.11508 9.13299 9.41113 6.65468
49 1 3 -0.11508 23.8152 13.7497 14.1117
50 1 3 -0.11508 12.7168 7.34203 0.802379
51 1 3 -0.11508 30.9828 17.8879 8.25944
52 1 3 -0.11508 5.54921 3.20384 6.65468
53 1 3 -0.11508 23.8152 17.8879 8.25944
54 1 3 -0.11508 12.7168 3.20384 6.65468
55 1 3 -0.11508 30.9828 13.7497 14.1117
56 1 3 -0.11508 5.54921 7.34203 0.802379
57 1 3 -0.0559 18.266 5.39949 13.5316
58 1 3 -0.0559 18.266 15.6923 1.38254
59 1 3 -0.055903 18.266 14.5575 0.580159
60 1 3 -0.055903 18.266 6.53422 14.334
61 1 3 -0.0559 26.1971 11.1132 7.85825
62 1 3 -0.0559 10.3349 9.9785 7.05587
63 1 3 -0.055903 10.3349 11.1132 7.85825
64 1 3 -0.055903 26.1971 9.9785 7.05587
65 1 3 -0.0559 14.7918 8.54005 0.580159
66 1 3 -0.0559 21.7402 12.5517 14.334
67 1 3 -0.055903 22.7229 13.1191 13.5316
68 1 3 -0.055903 13.8091 7.97268 1.38254
69 1 3 -0.0559 21.7402 3.39366 7.85825
70 1 3 -0.0559 14.7918 17.6981 7.05587
71 1 3 -0.055903 13.8091 17.1307 7.85825
72 1 3 -0.055903 22.7229 3.96103 7.05587
73 1 3 -0.055901 22.7229 17.1307 7.85825
74 1 3 -0.055901 13.8091 3.96103 7.05587
75 1 3 -0.055903 14.7918 3.39366 7.85825
76 1 3 -0.055903 21.7402 17.6981 7.05587
77 1 3 -0.0559 21.7402 8.54005 0.580159
78 1 3 -0.0559 14.7918 12.5517 14.334
79 1 3 -0.055903 13.8091 13.1191 13.5316
80 1 3 -0.055903 22.7229 7.97268 1.38254
81 1 4 -1.26215 27.399 15.8188 11.1856
82 1 4 -1.26215 9.13299 5.27293 3.72853
83 1 4 -0.60118 27.399 18.9383 11.9641
84 1 4 -0.60118 9.13299 2.15347 2.95001
85 1 4 -0.601179 27.399 17.5926 13.8671
86 1 4 -0.601179 9.13299 3.49912 1.04697
87 1 4 -0.601179 26.2336 13.3722 9.45555
88 1 4 -0.601179 10.2984 7.71958 5.45857
89 1 4 -0.60118 28.5643 13.3722 9.45555
90 1 4 -0.60118 7.96762 7.71958 5.45857
91 1 4 -0.60118 25.8628 14.9319 13.8671
92 1 4 -0.60118 10.6692 6.15984 1.04697
93 1 4 -0.601179 24.6974 14.2591 11.9641
94 1 4 -0.601179 11.8345 6.83267 2.95001
95 1 4 -0.60118 28.9351 18.0514 9.45555
96 1 4 -0.60118 7.59682 3.04037 5.45857
97 1 4 -0.601179 30.1005 16.0329 9.45555
98 1 4 -0.601179 6.43145 5.05885 5.45857
99 1 4 -0.601179 24.6974 16.0329 9.45555
100 1 4 -0.601179 11.8345 5.05885 5.45857
101 1 4 -0.60118 25.8628 18.0514 9.45555
102 1 4 -0.60118 10.6692 3.04037 5.45857
103 1 4 -0.60118 28.9351 14.9319 13.8671
104 1 4 -0.60118 7.59682 6.15984 1.04697
105 1 4 -0.60118 30.1005 14.2591 11.9641
106 1 4 -0.60118 6.43145 6.83267 2.95001
5630 1843 5 -0.35 21.2359 13.0461 0.234817
5631 1843 6 0.7 20.7228 12.5827 1.16627
5632 1843 5 -0.35 20.2097 12.1193 2.09772
5645 1848 5 -0.35 10.0346 5.98271 7.6943
5646 1848 6 0.7 10.4948 6.77652 8.40401
5647 1848 5 -0.35 10.955 7.57032 9.11371
5648 1849 5 -0.35 27.8437 11.5091 14.909
5649 1849 6 0.7 27.7884 11.7546 13.7766
5650 1849 5 -0.35 27.7331 12.0001 12.6442
5690 1863 5 -0.35 8.97269 4.60126 10.1794
5691 1863 6 0.7 8.16778 3.77265 10.074
5692 1863 5 -0.35 16.4958 18.7628 9.96866
5714 1871 5 -0.35 21.1248 13.9642 9.83023
5715 1871 6 0.7 21.8606 13.3057 9.22159
5716 1871 5 -0.35 22.5965 12.6471 8.61294
5723 1874 5 -0.35 14.1925 12.8539 3.01054
5724 1874 6 0.7 14.3247 13.2526 1.92925
5725 1874 5 -0.35 14.4569 13.6512 0.847963
5726 1875 5 -0.35 11.9483 8.12702 14.8247
5727 1875 6 0.7 3.30294 2.09369 0.638345
5728 1875 5 -0.35 3.79062 1.3333 1.36607
5729 1876 5 -0.35 5.66983 2.42075 3.50455
5730 1876 6 0.7 5.94427 1.30119 3.63443
5731 1876 5 -0.35 15.3517 16.0004 3.76431
ITEM: TIMESTEP
76000
ITEM: NUMBER OF ATOMS
166
ITEM: BOX BOUNDS xy xz yz pp pp pp
0.0000000000000000e+00 3.6531964750000000e+01 9.1329911900000003e+00
0.0000000000000000e+00 2.1091739680000000e+01 9.1329911900000003e+00
0.0000000000000000e+00 1.4914112149999999e+01 5.2729349200000000e+00
ITEM: ATOMS id mol type q x y z
1 1 1 1.10383 27.399 17.6496 10.5383
2 1 1 1.10383 9.13299 3.44217 4.3758
3 1 1 1.10383 27.399 15.8188 13.1274
4 1 1 1.10383 9.13299 5.27293 1.78671
5 1 1 1.10383 25.8135 14.9034 10.5383
6 1 1 1.10383 10.7185 6.18832 4.3758
7 1 1 1.10383 28.9845 14.9034 10.5383
8 1 1 1.10383 7.5475 6.18832 4.3758
9 1 2 0.115889 18.266 5.48596 12.6084
10 1 2 0.115889 18.266 15.6058 2.30572
11 1 2 0.115888 18.266 13.716 0.969417
12 1 2 0.115888 18.266 7.37578 13.9447
13 1 2 0.11589 25.3934 11.4908 8.12521
14 1 2 0.11589 11.1386 9.60096 6.7889
15 1 2 0.115888 11.1386 11.4908 8.12521
16 1 2 0.115888 25.3934 9.60096 6.7889
17 1 2 0.115889 15.5206 8.96083 0.969417
18 1 2 0.115889 21.0114 12.1309 13.9447
19 1 2 0.115888 22.648 13.0758 12.6084
20 1 2 0.115888 13.884 8.01592 2.30572
21 1 2 0.115889 21.0114 3.90092 8.12521
22 1 2 0.115889 15.5206 17.1908 6.7889
23 1 2 0.115887 13.884 16.2459 8.12521
24 1 2 0.115887 22.648 4.84583 6.7889
25 1 2 0.115889 22.648 16.2459 8.12521
26 1 2 0.115889 13.884 4.84583 6.7889
27 1 2 0.115887 15.5206 3.90092 8.12521
28 1 2 0.115887 21.0114 17.1908 6.7889
29 1 2 0.115889 21.0114 8.96083 0.969417
30 1 2 0.115889 15.5206 12.1309 13.9447
31 1 2 0.115887 13.884 13.0758 12.6084
32 1 2 0.115887 22.648 8.01592 2.30572
33 1 3 0.671939 27.399 18.7442 13.2542
34 1 3 0.671939 9.13299 2.34751 1.65994
35 1 3 0.671939 27.399 12.8934 9.117
36 1 3 0.671939 9.13299 8.19836 5.79712
37 1 3 0.67194 24.8655 14.3561 13.2542
38 1 3 0.67194 11.6665 6.73565 1.65994
39 1 3 0.67194 29.9325 17.2815 9.117
40 1 3 0.67194 6.5995 3.81022 5.79712
41 1 3 0.67194 24.8655 17.2815 9.117
42 1 3 0.67194 11.6665 3.81022 5.79712
43 1 3 0.67194 29.9325 14.3561 13.2542
44 1 3 0.67194 6.5995 6.73565 1.65994
45 1 3 -0.11508 27.399 19.957 14.1117
46 1 3 -0.11508 9.13299 1.13474 0.802379
47 1 3 -0.11508 27.399 11.6806 8.25944
48 1 3 -0.11508 9.13299 9.41113 6.65468
49 1 3 -0.11508 23.8152 13.7497 14.1117
50 1 3 -0.11508 12.7168 7.34203 0.802379
51 1 3 -0.11508 30.9828 17.8879 8.25944
52 1 3 -0.11508 5.54921 3.20384 6.65468
53 1 3 -0.11508 23.8152 17.8879 8.25944
54 1 3 -0.11508 12.7168 3.20384 6.65468
55 1 3 -0.11508 30.9828 13.7497 14.1117
56 1 3 -0.11508 5.54921 7.34203 0.802379
57 1 3 -0.0559 18.266 5.39949 13.5316
58 1 3 -0.0559 18.266 15.6923 1.38254
59 1 3 -0.055903 18.266 14.5575 0.580159
60 1 3 -0.055903 18.266 6.53422 14.334
61 1 3 -0.0559 26.1971 11.1132 7.85825
62 1 3 -0.0559 10.3349 9.9785 7.05587
63 1 3 -0.055903 10.3349 11.1132 7.85825
64 1 3 -0.055903 26.1971 9.9785 7.05587
65 1 3 -0.0559 14.7918 8.54005 0.580159
66 1 3 -0.0559 21.7402 12.5517 14.334
67 1 3 -0.055903 22.7229 13.1191 13.5316
68 1 3 -0.055903 13.8091 7.97268 1.38254
69 1 3 -0.0559 21.7402 3.39366 7.85825
70 1 3 -0.0559 14.7918 17.6981 7.05587
71 1 3 -0.055903 13.8091 17.1307 7.85825
72 1 3 -0.055903 22.7229 3.96103 7.05587
73 1 3 -0.055901 22.7229 17.1307 7.85825
74 1 3 -0.055901 13.8091 3.96103 7.05587
75 1 3 -0.055903 14.7918 3.39366 7.85825
76 1 3 -0.055903 21.7402 17.6981 7.05587
77 1 3 -0.0559 21.7402 8.54005 0.580159
78 1 3 -0.0559 14.7918 12.5517 14.334
79 1 3 -0.055903 13.8091 13.1191 13.5316
80 1 3 -0.055903 22.7229 7.97268 1.38254
81 1 4 -1.26215 27.399 15.8188 11.1856
82 1 4 -1.26215 9.13299 5.27293 3.72853
83 1 4 -0.60118 27.399 18.9383 11.9641
84 1 4 -0.60118 9.13299 2.15347 2.95001
85 1 4 -0.601179 27.399 17.5926 13.8671
86 1 4 -0.601179 9.13299 3.49912 1.04697
87 1 4 -0.601179 26.2336 13.3722 9.45555
88 1 4 -0.601179 10.2984 7.71958 5.45857
89 1 4 -0.60118 28.5643 13.3722 9.45555
90 1 4 -0.60118 7.96762 7.71958 5.45857
91 1 4 -0.60118 25.8628 14.9319 13.8671
92 1 4 -0.60118 10.6692 6.15984 1.04697
93 1 4 -0.601179 24.6974 14.2591 11.9641
94 1 4 -0.601179 11.8345 6.83267 2.95001
95 1 4 -0.60118 28.9351 18.0514 9.45555
96 1 4 -0.60118 7.59682 3.04037 5.45857
97 1 4 -0.601179 30.1005 16.0329 9.45555
98 1 4 -0.601179 6.43145 5.05885 5.45857
99 1 4 -0.601179 24.6974 16.0329 9.45555
100 1 4 -0.601179 11.8345 5.05885 5.45857
101 1 4 -0.60118 25.8628 18.0514 9.45555
102 1 4 -0.60118 10.6692 3.04037 5.45857
103 1 4 -0.60118 28.9351 14.9319 13.8671
104 1 4 -0.60118 7.59682 6.15984 1.04697
105 1 4 -0.60118 30.1005 14.2591 11.9641
106 1 4 -0.60118 6.43145 6.83267 2.95001
6677 2192 5 -0.35 25.3246 14.9647 5.64249
6678 2192 6 0.7 24.3231 14.3904 5.75557
6679 2192 5 -0.35 23.3215 13.8161 5.86864
6779 2226 5 -0.35 21.98 5.08101 3.81408
6780 2226 6 0.7 21.667 6.06991 4.33341
6781 2226 5 -0.35 21.354 7.05881 4.85274
6782 2227 5 -0.35 14.3283 16.1021 2.35065
6783 2227 6 0.7 4.9507 1.28581 2.88047
6784 2227 5 -0.35 4.70609 2.28833 3.41029
6812 2237 5 -0.35 25.1406 11.1245 1.85195
6813 2237 6 0.7 24.495 11.16 0.888857
6814 2237 5 -0.35 32.9824 16.4684 14.8399
6836 2245 5 -0.35 3.31399 3.18359 0.95499
6837 2245 6 0.7 21.0243 4.17321 1.19463
6838 2245 5 -0.35 20.4686 5.16284 1.43428
6863 2254 5 -0.35 22.208 13.0159 8.76539
6864 2254 6 0.7 21.5018 13.6865 8.13515
6865 2254 5 -0.35 20.7956 14.3571 7.5049
6890 2263 5 -0.35 13.5826 2.19106 2.79202
6891 2263 6 0.7 14.0986 3.08426 3.32256
6892 2263 5 -0.35 14.6147 3.97746 3.8531
6899 2266 5 -0.35 17.9841 16.4221 6.77841
6900 2266 6 0.7 18.6366 16.141 5.86144
6901 2266 5 -0.35 19.2891 15.8599 4.94447
6914 2271 5 -0.35 9.2762 9.45513 2.50979
6915 2271 6 0.7 9.20412 9.79756 1.40383
6916 2271 5 -0.35 9.13204 10.14 0.297876
6920 2273 5 -0.35 19.8044 15.0658 10.7493
6921 2273 6 0.7 19.365 15.9636 11.338
6922 2273 5 -0.35 18.9257 16.8613 11.9267
6923 2274 5 -0.35 21.0776 11.5587 5.63377
6924 2274 6 0.7 20.0597 12.0134 5.31307
6925 2274 5 -0.35 19.0418 12.468 4.99238
6926 2275 5 -0.35 18.6662 12.1178 9.60751
6927 2275 6 0.7 18.9384 12.2906 10.7218
6928 2275 5 -0.35 19.2106 12.4634 11.8361
6929 2276 5 -0.35 19.6067 9.33321 12.6891
6930 2276 6 0.7 20.5424 8.92848 13.2425
6931 2276 5 -0.35 21.4782 8.52375 13.7959
6932 2277 5 -0.35 15.9029 8.93755 13.3878
6933 2277 6 0.7 15.4482 9.57115 12.5291
6934 2277 5 -0.35 14.9934 10.2047 11.6704
6941 2280 5 -0.35 16.4398 6.24184 3.78423
6942 2280 6 0.7 16.2056 5.86909 2.71101
6943 2280 5 -0.35 15.9714 5.49633 1.63778
6944 2281 5 -0.35 16.4625 8.97914 5.43913
6945 2281 6 0.7 16.9344 9.33068 4.43948
6946 2281 5 -0.35 17.4063 9.68221 3.43982
6947 2282 5 -0.35 11.6879 11.349 1.54154
6948 2282 6 0.7 12.8441 11.2632 1.50526
6949 2282 5 -0.35 14.0004 11.1774 1.46898
6950 2283 5 -0.35 22.1952 4.88524 13.0744
6951 2283 6 0.7 23.3259 5.12689 12.981
6952 2283 5 -0.35 24.4566 5.36854 12.8877
6953 2284 5 -0.35 14.4065 6.99318 8.54307
6954 2284 6 0.7 15.2511 7.56617 9.09439
6955 2284 5 -0.35 16.0957 8.13916 9.64572
6956 2285 5 -0.35 18.8227 7.0338 7.69719
6957 2285 6 0.7 19.2105 7.98156 7.15228
6958 2285 5 -0.35 19.5984 8.92931 6.60737
ITEM: TIMESTEP
77000
ITEM: NUMBER OF ATOMS
121
ITEM: BOX BOUNDS xy xz yz pp pp pp
0.0000000000000000e+00 3.6531964750000000e+01 9.1329911900000003e+00
0.0000000000000000e+00 2.1091739680000000e+01 9.1329911900000003e+00
0.0000000000000000e+00 1.4914112149999999e+01 5.2729349200000000e+00
ITEM: ATOMS id mol type q x y z
1 1 1 1.10383 27.399 17.6496 10.5383
2 1 1 1.10383 9.13299 3.44217 4.3758
3 1 1 1.10383 27.399 15.8188 13.1274
4 1 1 1.10383 9.13299 5.27293 1.78671
5 1 1 1.10383 25.8135 14.9034 10.5383
6 1 1 1.10383 10.7185 6.18832 4.3758
7 1 1 1.10383 28.9845 14.9034 10.5383
8 1 1 1.10383 7.5475 6.18832 4.3758
9 1 2 0.115889 18.266 5.48596 12.6084
10 1 2 0.115889 18.266 15.6058 2.30572
11 1 2 0.115888 18.266 13.716 0.969417
12 1 2 0.115888 18.266 7.37578 13.9447
13 1 2 0.11589 25.3934 11.4908 8.12521
14 1 2 0.11589 11.1386 9.60096 6.7889
15 1 2 0.115888 11.1386 11.4908 8.12521
16 1 2 0.115888 25.3934 9.60096 6.7889
17 1 2 0.115889 15.5206 8.96083 0.969417
18 1 2 0.115889 21.0114 12.1309 13.9447
19 1 2 0.115888 22.648 13.0758 12.6084
20 1 2 0.115888 13.884 8.01592 2.30572
21 1 2 0.115889 21.0114 3.90092 8.12521
22 1 2 0.115889 15.5206 17.1908 6.7889
23 1 2 0.115887 13.884 16.2459 8.12521
24 1 2 0.115887 22.648 4.84583 6.7889
25 1 2 0.115889 22.648 16.2459 8.12521
26 1 2 0.115889 13.884 4.84583 6.7889
27 1 2 0.115887 15.5206 3.90092 8.12521
28 1 2 0.115887 21.0114 17.1908 6.7889
29 1 2 0.115889 21.0114 8.96083 0.969417
30 1 2 0.115889 15.5206 12.1309 13.9447
31 1 2 0.115887 13.884 13.0758 12.6084
32 1 2 0.115887 22.648 8.01592 2.30572
33 1 3 0.671939 27.399 18.7442 13.2542
34 1 3 0.671939 9.13299 2.34751 1.65994
35 1 3 0.671939 27.399 12.8934 9.117
36 1 3 0.671939 9.13299 8.19836 5.79712
37 1 3 0.67194 24.8655 14.3561 13.2542
38 1 3 0.67194 11.6665 6.73565 1.65994
39 1 3 0.67194 29.9325 17.2815 9.117
40 1 3 0.67194 6.5995 3.81022 5.79712
41 1 3 0.67194 24.8655 17.2815 9.117
42 1 3 0.67194 11.6665 3.81022 5.79712
43 1 3 0.67194 29.9325 14.3561 13.2542
44 1 3 0.67194 6.5995 6.73565 1.65994
45 1 3 -0.11508 27.399 19.957 14.1117
46 1 3 -0.11508 9.13299 1.13474 0.802379
47 1 3 -0.11508 27.399 11.6806 8.25944
48 1 3 -0.11508 9.13299 9.41113 6.65468
49 1 3 -0.11508 23.8152 13.7497 14.1117
50 1 3 -0.11508 12.7168 7.34203 0.802379
51 1 3 -0.11508 30.9828 17.8879 8.25944
52 1 3 -0.11508 5.54921 3.20384 6.65468
53 1 3 -0.11508 23.8152 17.8879 8.25944
54 1 3 -0.11508 12.7168 3.20384 6.65468
55 1 3 -0.11508 30.9828 13.7497 14.1117
56 1 3 -0.11508 5.54921 7.34203 0.802379
57 1 3 -0.0559 18.266 5.39949 13.5316
58 1 3 -0.0559 18.266 15.6923 1.38254
59 1 3 -0.055903 18.266 14.5575 0.580159
60 1 3 -0.055903 18.266 6.53422 14.334
61 1 3 -0.0559 26.1971 11.1132 7.85825
62 1 3 -0.0559 10.3349 9.9785 7.05587
63 1 3 -0.055903 10.3349 11.1132 7.85825
64 1 3 -0.055903 26.1971 9.9785 7.05587
65 1 3 -0.0559 14.7918 8.54005 0.580159
66 1 3 -0.0559 21.7402 12.5517 14.334
67 1 3 -0.055903 22.7229 13.1191 13.5316
68 1 3 -0.055903 13.8091 7.97268 1.38254
69 1 3 -0.0559 21.7402 3.39366 7.85825
70 1 3 -0.0559 14.7918 17.6981 7.05587
71 1 3 -0.055903 13.8091 17.1307 7.85825
72 1 3 -0.055903 22.7229 3.96103 7.05587
73 1 3 -0.055901 22.7229 17.1307 7.85825
74 1 3 -0.055901 13.8091 3.96103 7.05587
75 1 3 -0.055903 14.7918 3.39366 7.85825
76 1 3 -0.055903 21.7402 17.6981 7.05587
77 1 3 -0.0559 21.7402 8.54005 0.580159
78 1 3 -0.0559 14.7918 12.5517 14.334
79 1 3 -0.055903 13.8091 13.1191 13.5316
80 1 3 -0.055903 22.7229 7.97268 1.38254
81 1 4 -1.26215 27.399 15.8188 11.1856
82 1 4 -1.26215 9.13299 5.27293 3.72853
83 1 4 -0.60118 27.399 18.9383 11.9641
84 1 4 -0.60118 9.13299 2.15347 2.95001
85 1 4 -0.601179 27.399 17.5926 13.8671
86 1 4 -0.601179 9.13299 3.49912 1.04697
87 1 4 -0.601179 26.2336 13.3722 9.45555
88 1 4 -0.601179 10.2984 7.71958 5.45857
89 1 4 -0.60118 28.5643 13.3722 9.45555
90 1 4 -0.60118 7.96762 7.71958 5.45857
91 1 4 -0.60118 25.8628 14.9319 13.8671
92 1 4 -0.60118 10.6692 6.15984 1.04697
93 1 4 -0.601179 24.6974 14.2591 11.9641
94 1 4 -0.601179 11.8345 6.83267 2.95001
95 1 4 -0.60118 28.9351 18.0514 9.45555
96 1 4 -0.60118 7.59682 3.04037 5.45857
97 1 4 -0.601179 30.1005 16.0329 9.45555
98 1 4 -0.601179 6.43145 5.05885 5.45857
99 1 4 -0.601179 24.6974 16.0329 9.45555
100 1 4 -0.601179 11.8345 5.05885 5.45857
101 1 4 -0.60118 25.8628 18.0514 9.45555
102 1 4 -0.60118 10.6692 3.04037 5.45857
103 1 4 -0.60118 28.9351 14.9319 13.8671
104 1 4 -0.60118 7.59682 6.15984 1.04697
105 1 4 -0.60118 30.1005 14.2591 11.9641
106 1 4 -0.60118 6.43145 6.83267 2.95001
8126 2675 5 -0.35 25.3237 10.8841 1.95836
8127 2675 6 0.7 7.25332 10.5927 0.852724
8128 2675 5 -0.35 16.5819 15.5743 14.6612
8156 2685 5 -0.35 28.1749 17.4274 6.54175
8157 2685 6 0.7 18.4011 2.52116 6.22215
8158 2685 5 -0.35 17.7603 3.43374 5.90255
8216 2705 5 -0.35 22.5807 17.6867 14.0102
8217 2705 6 0.7 22.678 17.3367 12.9086
8218 2705 5 -0.35 22.7753 16.9868 11.8069
8219 2706 5 -0.35 11.3654 5.16455 9.15513
8220 2706 6 0.7 11.3263 4.65604 10.197
8221 2706 5 -0.35 11.2873 4.14753 11.2389
8222 2707 5 -0.35 20.7287 8.25137 8.04675
8223 2707 6 0.7 21.404 8.27549 8.9896
8224 2707 5 -0.35 22.0794 8.2996 9.93245
ITEM: TIMESTEP
78000
ITEM: NUMBER OF ATOMS
121
ITEM: BOX BOUNDS xy xz yz pp pp pp
0.0000000000000000e+00 3.6531964750000000e+01 9.1329911900000003e+00
0.0000000000000000e+00 2.1091739680000000e+01 9.1329911900000003e+00
0.0000000000000000e+00 1.4914112149999999e+01 5.2729349200000000e+00
ITEM: ATOMS id mol type q x y z
1 1 1 1.10383 27.399 17.6496 10.5383
2 1 1 1.10383 9.13299 3.44217 4.3758
3 1 1 1.10383 27.399 15.8188 13.1274
4 1 1 1.10383 9.13299 5.27293 1.78671
5 1 1 1.10383 25.8135 14.9034 10.5383
6 1 1 1.10383 10.7185 6.18832 4.3758
7 1 1 1.10383 28.9845 14.9034 10.5383
8 1 1 1.10383 7.5475 6.18832 4.3758
9 1 2 0.115889 18.266 5.48596 12.6084
10 1 2 0.115889 18.266 15.6058 2.30572
11 1 2 0.115888 18.266 13.716 0.969417
12 1 2 0.115888 18.266 7.37578 13.9447
13 1 2 0.11589 25.3934 11.4908 8.12521
14 1 2 0.11589 11.1386 9.60096 6.7889
15 1 2 0.115888 11.1386 11.4908 8.12521
16 1 2 0.115888 25.3934 9.60096 6.7889
17 1 2 0.115889 15.5206 8.96083 0.969417
18 1 2 0.115889 21.0114 12.1309 13.9447
19 1 2 0.115888 22.648 13.0758 12.6084
20 1 2 0.115888 13.884 8.01592 2.30572
21 1 2 0.115889 21.0114 3.90092 8.12521
22 1 2 0.115889 15.5206 17.1908 6.7889
23 1 2 0.115887 13.884 16.2459 8.12521
24 1 2 0.115887 22.648 4.84583 6.7889
25 1 2 0.115889 22.648 16.2459 8.12521
26 1 2 0.115889 13.884 4.84583 6.7889
27 1 2 0.115887 15.5206 3.90092 8.12521
28 1 2 0.115887 21.0114 17.1908 6.7889
29 1 2 0.115889 21.0114 8.96083 0.969417
30 1 2 0.115889 15.5206 12.1309 13.9447
31 1 2 0.115887 13.884 13.0758 12.6084
32 1 2 0.115887 22.648 8.01592 2.30572
33 1 3 0.671939 27.399 18.7442 13.2542
34 1 3 0.671939 9.13299 2.34751 1.65994
35 1 3 0.671939 27.399 12.8934 9.117
36 1 3 0.671939 9.13299 8.19836 5.79712
37 1 3 0.67194 24.8655 14.3561 13.2542
38 1 3 0.67194 11.6665 6.73565 1.65994
39 1 3 0.67194 29.9325 17.2815 9.117
40 1 3 0.67194 6.5995 3.81022 5.79712
41 1 3 0.67194 24.8655 17.2815 9.117
42 1 3 0.67194 11.6665 3.81022 5.79712
43 1 3 0.67194 29.9325 14.3561 13.2542
44 1 3 0.67194 6.5995 6.73565 1.65994
45 1 3 -0.11508 27.399 19.957 14.1117
46 1 3 -0.11508 9.13299 1.13474 0.802379
47 1 3 -0.11508 27.399 11.6806 8.25944
48 1 3 -0.11508 9.13299 9.41113 6.65468
49 1 3 -0.11508 23.8152 13.7497 14.1117
50 1 3 -0.11508 12.7168 7.34203 0.802379
51 1 3 -0.11508 30.9828 17.8879 8.25944
52 1 3 -0.11508 5.54921 3.20384 6.65468
53 1 3 -0.11508 23.8152 17.8879 8.25944
54 1 3 -0.11508 12.7168 3.20384 6.65468
55 1 3 -0.11508 30.9828 13.7497 14.1117
56 1 3 -0.11508 5.54921 7.34203 0.802379
57 1 3 -0.0559 18.266 5.39949 13.5316
58 1 3 -0.0559 18.266 15.6923 1.38254
59 1 3 -0.055903 18.266 14.5575 0.580159
60 1 3 -0.055903 18.266 6.53422 14.334
61 1 3 -0.0559 26.1971 11.1132 7.85825
62 1 3 -0.0559 10.3349 9.9785 7.05587
63 1 3 -0.055903 10.3349 11.1132 7.85825
64 1 3 -0.055903 26.1971 9.9785 7.05587
65 1 3 -0.0559 14.7918 8.54005 0.580159
66 1 3 -0.0559 21.7402 12.5517 14.334
67 1 3 -0.055903 22.7229 13.1191 13.5316
68 1 3 -0.055903 13.8091 7.97268 1.38254
69 1 3 -0.0559 21.7402 3.39366 7.85825
70 1 3 -0.0559 14.7918 17.6981 7.05587
71 1 3 -0.055903 13.8091 17.1307 7.85825
72 1 3 -0.055903 22.7229 3.96103 7.05587
73 1 3 -0.055901 22.7229 17.1307 7.85825
74 1 3 -0.055901 13.8091 3.96103 7.05587
75 1 3 -0.055903 14.7918 3.39366 7.85825
76 1 3 -0.055903 21.7402 17.6981 7.05587
77 1 3 -0.0559 21.7402 8.54005 0.580159
78 1 3 -0.0559 14.7918 12.5517 14.334
79 1 3 -0.055903 13.8091 13.1191 13.5316
80 1 3 -0.055903 22.7229 7.97268 1.38254
81 1 4 -1.26215 27.399 15.8188 11.1856
82 1 4 -1.26215 9.13299 5.27293 3.72853
83 1 4 -0.60118 27.399 18.9383 11.9641
84 1 4 -0.60118 9.13299 2.15347 2.95001
85 1 4 -0.601179 27.399 17.5926 13.8671
86 1 4 -0.601179 9.13299 3.49912 1.04697
87 1 4 -0.601179 26.2336 13.3722 9.45555
88 1 4 -0.601179 10.2984 7.71958 5.45857
89 1 4 -0.60118 28.5643 13.3722 9.45555
90 1 4 -0.60118 7.96762 7.71958 5.45857
91 1 4 -0.60118 25.8628 14.9319 13.8671
92 1 4 -0.60118 10.6692 6.15984 1.04697
93 1 4 -0.601179 24.6974 14.2591 11.9641
94 1 4 -0.601179 11.8345 6.83267 2.95001
95 1 4 -0.60118 28.9351 18.0514 9.45555
96 1 4 -0.60118 7.59682 3.04037 5.45857
97 1 4 -0.601179 30.1005 16.0329 9.45555
98 1 4 -0.601179 6.43145 5.05885 5.45857
99 1 4 -0.601179 24.6974 16.0329 9.45555
100 1 4 -0.601179 11.8345 5.05885 5.45857
101 1 4 -0.60118 25.8628 18.0514 9.45555
102 1 4 -0.60118 10.6692 3.04037 5.45857
103 1 4 -0.60118 28.9351 14.9319 13.8671
104 1 4 -0.60118 7.59682 6.15984 1.04697
105 1 4 -0.60118 30.1005 14.2591 11.9641
106 1 4 -0.60118 6.43145 6.83267 2.95001
9845 3248 5 -0.35 25.9216 10.5641 11.4106
9846 3248 6 0.7 26.9802 10.8666 11.7759
9847 3248 5 -0.35 28.0388 11.1691 12.1413
9866 3255 5 -0.35 18.0652 6.41264 1.65632
9867 3255 6 0.7 18.8656 5.57484 1.71108
9868 3255 5 -0.35 19.666 4.73704 1.76584
9875 3258 5 -0.35 8.96377 5.03164 9.98944
9876 3258 6 0.7 8.66469 5.08761 8.87006
9877 3258 5 -0.35 8.3656 5.14358 7.75068
9884 3261 5 -0.35 13.4437 3.36811 1.50548
9885 3261 6 0.7 14.4943 3.84005 1.3671
9886 3261 5 -0.35 15.5449 4.31198 1.22872
9887 3262 5 -0.35 23.2977 8.22585 13.1315
9888 3262 6 0.7 22.5568 7.44232 13.5591
9889 3262 5 -0.35 21.816 6.6588 13.9867
ITEM: TIMESTEP
79000
ITEM: NUMBER OF ATOMS
151
ITEM: BOX BOUNDS xy xz yz pp pp pp
0.0000000000000000e+00 3.6531964750000000e+01 9.1329911900000003e+00
0.0000000000000000e+00 2.1091739680000000e+01 9.1329911900000003e+00
0.0000000000000000e+00 1.4914112149999999e+01 5.2729349200000000e+00
ITEM: ATOMS id mol type q x y z
1 1 1 1.10383 27.399 17.6496 10.5383
2 1 1 1.10383 9.13299 3.44217 4.3758
3 1 1 1.10383 27.399 15.8188 13.1274
4 1 1 1.10383 9.13299 5.27293 1.78671
5 1 1 1.10383 25.8135 14.9034 10.5383
6 1 1 1.10383 10.7185 6.18832 4.3758
7 1 1 1.10383 28.9845 14.9034 10.5383
8 1 1 1.10383 7.5475 6.18832 4.3758
9 1 2 0.115889 18.266 5.48596 12.6084
10 1 2 0.115889 18.266 15.6058 2.30572
11 1 2 0.115888 18.266 13.716 0.969417
12 1 2 0.115888 18.266 7.37578 13.9447
13 1 2 0.11589 25.3934 11.4908 8.12521
14 1 2 0.11589 11.1386 9.60096 6.7889
15 1 2 0.115888 11.1386 11.4908 8.12521
16 1 2 0.115888 25.3934 9.60096 6.7889
17 1 2 0.115889 15.5206 8.96083 0.969417
18 1 2 0.115889 21.0114 12.1309 13.9447
19 1 2 0.115888 22.648 13.0758 12.6084
20 1 2 0.115888 13.884 8.01592 2.30572
21 1 2 0.115889 21.0114 3.90092 8.12521
22 1 2 0.115889 15.5206 17.1908 6.7889
23 1 2 0.115887 13.884 16.2459 8.12521
24 1 2 0.115887 22.648 4.84583 6.7889
25 1 2 0.115889 22.648 16.2459 8.12521
26 1 2 0.115889 13.884 4.84583 6.7889
27 1 2 0.115887 15.5206 3.90092 8.12521
28 1 2 0.115887 21.0114 17.1908 6.7889
29 1 2 0.115889 21.0114 8.96083 0.969417
30 1 2 0.115889 15.5206 12.1309 13.9447
31 1 2 0.115887 13.884 13.0758 12.6084
32 1 2 0.115887 22.648 8.01592 2.30572
33 1 3 0.671939 27.399 18.7442 13.2542
34 1 3 0.671939 9.13299 2.34751 1.65994
35 1 3 0.671939 27.399 12.8934 9.117
36 1 3 0.671939 9.13299 8.19836 5.79712
37 1 3 0.67194 24.8655 14.3561 13.2542
38 1 3 0.67194 11.6665 6.73565 1.65994
39 1 3 0.67194 29.9325 17.2815 9.117
40 1 3 0.67194 6.5995 3.81022 5.79712
41 1 3 0.67194 24.8655 17.2815 9.117
42 1 3 0.67194 11.6665 3.81022 5.79712
43 1 3 0.67194 29.9325 14.3561 13.2542
44 1 3 0.67194 6.5995 6.73565 1.65994
45 1 3 -0.11508 27.399 19.957 14.1117
46 1 3 -0.11508 9.13299 1.13474 0.802379
47 1 3 -0.11508 27.399 11.6806 8.25944
48 1 3 -0.11508 9.13299 9.41113 6.65468
49 1 3 -0.11508 23.8152 13.7497 14.1117
50 1 3 -0.11508 12.7168 7.34203 0.802379
51 1 3 -0.11508 30.9828 17.8879 8.25944
52 1 3 -0.11508 5.54921 3.20384 6.65468
53 1 3 -0.11508 23.8152 17.8879 8.25944
54 1 3 -0.11508 12.7168 3.20384 6.65468
55 1 3 -0.11508 30.9828 13.7497 14.1117
56 1 3 -0.11508 5.54921 7.34203 0.802379
57 1 3 -0.0559 18.266 5.39949 13.5316
58 1 3 -0.0559 18.266 15.6923 1.38254
59 1 3 -0.055903 18.266 14.5575 0.580159
60 1 3 -0.055903 18.266 6.53422 14.334
61 1 3 -0.0559 26.1971 11.1132 7.85825
62 1 3 -0.0559 10.3349 9.9785 7.05587
63 1 3 -0.055903 10.3349 11.1132 7.85825
64 1 3 -0.055903 26.1971 9.9785 7.05587
65 1 3 -0.0559 14.7918 8.54005 0.580159
66 1 3 -0.0559 21.7402 12.5517 14.334
67 1 3 -0.055903 22.7229 13.1191 13.5316
68 1 3 -0.055903 13.8091 7.97268 1.38254
69 1 3 -0.0559 21.7402 3.39366 7.85825
70 1 3 -0.0559 14.7918 17.6981 7.05587
71 1 3 -0.055903 13.8091 17.1307 7.85825
72 1 3 -0.055903 22.7229 3.96103 7.05587
73 1 3 -0.055901 22.7229 17.1307 7.85825
74 1 3 -0.055901 13.8091 3.96103 7.05587
75 1 3 -0.055903 14.7918 3.39366 7.85825
76 1 3 -0.055903 21.7402 17.6981 7.05587
77 1 3 -0.0559 21.7402 8.54005 0.580159
78 1 3 -0.0559 14.7918 12.5517 14.334
79 1 3 -0.055903 13.8091 13.1191 13.5316
80 1 3 -0.055903 22.7229 7.97268 1.38254
81 1 4 -1.26215 27.399 15.8188 11.1856
82 1 4 -1.26215 9.13299 5.27293 3.72853
83 1 4 -0.60118 27.399 18.9383 11.9641
84 1 4 -0.60118 9.13299 2.15347 2.95001
85 1 4 -0.601179 27.399 17.5926 13.8671
86 1 4 -0.601179 9.13299 3.49912 1.04697
87 1 4 -0.601179 26.2336 13.3722 9.45555
88 1 4 -0.601179 10.2984 7.71958 5.45857
89 1 4 -0.60118 28.5643 13.3722 9.45555
90 1 4 -0.60118 7.96762 7.71958 5.45857
91 1 4 -0.60118 25.8628 14.9319 13.8671
92 1 4 -0.60118 10.6692 6.15984 1.04697
93 1 4 -0.601179 24.6974 14.2591 11.9641
94 1 4 -0.601179 11.8345 6.83267 2.95001
95 1 4 -0.60118 28.9351 18.0514 9.45555
96 1 4 -0.60118 7.59682 3.04037 5.45857
97 1 4 -0.601179 30.1005 16.0329 9.45555
98 1 4 -0.601179 6.43145 5.05885 5.45857
99 1 4 -0.601179 24.6974 16.0329 9.45555
100 1 4 -0.601179 11.8345 5.05885 5.45857
101 1 4 -0.60118 25.8628 18.0514 9.45555
102 1 4 -0.60118 10.6692 3.04037 5.45857
103 1 4 -0.60118 28.9351 14.9319 13.8671
104 1 4 -0.60118 7.59682 6.15984 1.04697
105 1 4 -0.60118 30.1005 14.2591 11.9641
106 1 4 -0.60118 6.43145 6.83267 2.95001
242 47 5 -0.35 7.5175 9.90957 3.40636
243 47 6 0.7 8.30123 9.65111 2.59115
244 47 5 -0.35 9.08497 9.39266 1.77594
284 61 5 -0.35 20.3104 19.2397 10.036
285 61 6 0.7 20.1514 18.1173 10.2821
286 61 5 -0.35 19.9924 16.995 10.5282
293 64 5 -0.35 30.8174 19.6945 13.0765
294 64 6 0.7 21.4036 4.93716 12.7022
295 64 5 -0.35 21.1227 5.99859 12.3279
353 84 5 -0.35 9.79031 6.20627 8.7209
354 84 6 0.7 9.17412 5.60623 9.49928
355 84 5 -0.35 8.55794 5.00619 10.2777
389 96 5 -0.35 8.01402 12.0767 0.684101
390 96 6 0.7 17.1847 17.1702 14.4528
391 96 5 -0.35 17.2223 16.9907 13.3074
392 97 5 -0.35 27.9583 9.54369 10.9747
393 97 6 0.7 27.0095 9.00857 10.5758
394 97 5 -0.35 26.0608 8.47345 10.1769
413 104 5 -0.35 23.2229 11.3505 10.0401
414 104 6 0.7 24.1323 11.4448 10.754
415 104 5 -0.35 25.0417 11.5391 11.4679
416 105 5 -0.35 14.5881 3.79409 1.58901
417 105 6 0.7 14.1975 3.99852 0.516028
418 105 5 -0.35 22.94 9.47589 14.3572
419 106 5 -0.35 26.9426 13.2898 3.21254
420 106 6 0.7 26.2798 12.9694 4.10899
421 106 5 -0.35 25.617 12.649 5.00544
428 109 5 -0.35 16.0703 12.7316 2.59015
429 109 6 0.7 15.4827 11.8245 3.01142
430 109 5 -0.35 14.8951 10.9173 3.43269
434 111 5 -0.35 5.8516 1.53821 2.09344
435 111 6 0.7 5.42109 1.15548 1.08657
436 111 5 -0.35 4.99059 0.772762 0.0796962
440 113 5 -0.35 22.3511 11.4993 4.27814
441 113 6 0.7 22.8784 11.5548 3.24644
442 113 5 -0.35 23.4058 11.6103 2.21473
443 114 5 -0.35 12.4538 15.5846 5.10275
444 114 6 0.7 11.8084 15.0666 5.91561
445 114 5 -0.35 11.163 14.5486 6.72847
446 115 5 -0.35 23.5703 15.106 1.87225
447 115 6 0.7 24.147 14.8594 0.896461
448 115 5 -0.35 33.8568 19.8858 14.8348
452 117 5 -0.35 15.1269 10.208 11.1201
453 117 6 0.7 16.1441 10.4829 10.6348
454 117 5 -0.35 17.1612 10.7577 10.1495
ITEM: TIMESTEP
80000
ITEM: NUMBER OF ATOMS
142
ITEM: BOX BOUNDS xy xz yz pp pp pp
0.0000000000000000e+00 3.6531964750000000e+01 9.1329911900000003e+00
0.0000000000000000e+00 2.1091739680000000e+01 9.1329911900000003e+00
0.0000000000000000e+00 1.4914112149999999e+01 5.2729349200000000e+00
ITEM: ATOMS id mol type q x y z
1 1 1 1.10383 27.399 17.6496 10.5383
2 1 1 1.10383 9.13299 3.44217 4.3758
3 1 1 1.10383 27.399 15.8188 13.1274
4 1 1 1.10383 9.13299 5.27293 1.78671
5 1 1 1.10383 25.8135 14.9034 10.5383
6 1 1 1.10383 10.7185 6.18832 4.3758
7 1 1 1.10383 28.9845 14.9034 10.5383
8 1 1 1.10383 7.5475 6.18832 4.3758
9 1 2 0.115889 18.266 5.48596 12.6084
10 1 2 0.115889 18.266 15.6058 2.30572
11 1 2 0.115888 18.266 13.716 0.969417
12 1 2 0.115888 18.266 7.37578 13.9447
13 1 2 0.11589 25.3934 11.4908 8.12521
14 1 2 0.11589 11.1386 9.60096 6.7889
15 1 2 0.115888 11.1386 11.4908 8.12521
16 1 2 0.115888 25.3934 9.60096 6.7889
17 1 2 0.115889 15.5206 8.96083 0.969417
18 1 2 0.115889 21.0114 12.1309 13.9447
19 1 2 0.115888 22.648 13.0758 12.6084
20 1 2 0.115888 13.884 8.01592 2.30572
21 1 2 0.115889 21.0114 3.90092 8.12521
22 1 2 0.115889 15.5206 17.1908 6.7889
23 1 2 0.115887 13.884 16.2459 8.12521
24 1 2 0.115887 22.648 4.84583 6.7889
25 1 2 0.115889 22.648 16.2459 8.12521
26 1 2 0.115889 13.884 4.84583 6.7889
27 1 2 0.115887 15.5206 3.90092 8.12521
28 1 2 0.115887 21.0114 17.1908 6.7889
29 1 2 0.115889 21.0114 8.96083 0.969417
30 1 2 0.115889 15.5206 12.1309 13.9447
31 1 2 0.115887 13.884 13.0758 12.6084
32 1 2 0.115887 22.648 8.01592 2.30572
33 1 3 0.671939 27.399 18.7442 13.2542
34 1 3 0.671939 9.13299 2.34751 1.65994
35 1 3 0.671939 27.399 12.8934 9.117
36 1 3 0.671939 9.13299 8.19836 5.79712
37 1 3 0.67194 24.8655 14.3561 13.2542
38 1 3 0.67194 11.6665 6.73565 1.65994
39 1 3 0.67194 29.9325 17.2815 9.117
40 1 3 0.67194 6.5995 3.81022 5.79712
41 1 3 0.67194 24.8655 17.2815 9.117
42 1 3 0.67194 11.6665 3.81022 5.79712
43 1 3 0.67194 29.9325 14.3561 13.2542
44 1 3 0.67194 6.5995 6.73565 1.65994
45 1 3 -0.11508 27.399 19.957 14.1117
46 1 3 -0.11508 9.13299 1.13474 0.802379
47 1 3 -0.11508 27.399 11.6806 8.25944
48 1 3 -0.11508 9.13299 9.41113 6.65468
49 1 3 -0.11508 23.8152 13.7497 14.1117
50 1 3 -0.11508 12.7168 7.34203 0.802379
51 1 3 -0.11508 30.9828 17.8879 8.25944
52 1 3 -0.11508 5.54921 3.20384 6.65468
53 1 3 -0.11508 23.8152 17.8879 8.25944
54 1 3 -0.11508 12.7168 3.20384 6.65468
55 1 3 -0.11508 30.9828 13.7497 14.1117
56 1 3 -0.11508 5.54921 7.34203 0.802379
57 1 3 -0.0559 18.266 5.39949 13.5316
58 1 3 -0.0559 18.266 15.6923 1.38254
59 1 3 -0.055903 18.266 14.5575 0.580159
60 1 3 -0.055903 18.266 6.53422 14.334
61 1 3 -0.0559 26.1971 11.1132 7.85825
62 1 3 -0.0559 10.3349 9.9785 7.05587
63 1 3 -0.055903 10.3349 11.1132 7.85825
64 1 3 -0.055903 26.1971 9.9785 7.05587
65 1 3 -0.0559 14.7918 8.54005 0.580159
66 1 3 -0.0559 21.7402 12.5517 14.334
67 1 3 -0.055903 22.7229 13.1191 13.5316
68 1 3 -0.055903 13.8091 7.97268 1.38254
69 1 3 -0.0559 21.7402 3.39366 7.85825
70 1 3 -0.0559 14.7918 17.6981 7.05587
71 1 3 -0.055903 13.8091 17.1307 7.85825
72 1 3 -0.055903 22.7229 3.96103 7.05587
73 1 3 -0.055901 22.7229 17.1307 7.85825
74 1 3 -0.055901 13.8091 3.96103 7.05587
75 1 3 -0.055903 14.7918 3.39366 7.85825
76 1 3 -0.055903 21.7402 17.6981 7.05587
77 1 3 -0.0559 21.7402 8.54005 0.580159
78 1 3 -0.0559 14.7918 12.5517 14.334
79 1 3 -0.055903 13.8091 13.1191 13.5316
80 1 3 -0.055903 22.7229 7.97268 1.38254
81 1 4 -1.26215 27.399 15.8188 11.1856
82 1 4 -1.26215 9.13299 5.27293 3.72853
83 1 4 -0.60118 27.399 18.9383 11.9641
84 1 4 -0.60118 9.13299 2.15347 2.95001
85 1 4 -0.601179 27.399 17.5926 13.8671
86 1 4 -0.601179 9.13299 3.49912 1.04697
87 1 4 -0.601179 26.2336 13.3722 9.45555
88 1 4 -0.601179 10.2984 7.71958 5.45857
89 1 4 -0.60118 28.5643 13.3722 9.45555
90 1 4 -0.60118 7.96762 7.71958 5.45857
91 1 4 -0.60118 25.8628 14.9319 13.8671
92 1 4 -0.60118 10.6692 6.15984 1.04697
93 1 4 -0.601179 24.6974 14.2591 11.9641
94 1 4 -0.601179 11.8345 6.83267 2.95001
95 1 4 -0.60118 28.9351 18.0514 9.45555
96 1 4 -0.60118 7.59682 3.04037 5.45857
97 1 4 -0.601179 30.1005 16.0329 9.45555
98 1 4 -0.601179 6.43145 5.05885 5.45857
99 1 4 -0.601179 24.6974 16.0329 9.45555
100 1 4 -0.601179 11.8345 5.05885 5.45857
101 1 4 -0.60118 25.8628 18.0514 9.45555
102 1 4 -0.60118 10.6692 3.04037 5.45857
103 1 4 -0.60118 28.9351 14.9319 13.8671
104 1 4 -0.60118 7.59682 6.15984 1.04697
105 1 4 -0.60118 30.1005 14.2591 11.9641
106 1 4 -0.60118 6.43145 6.83267 2.95001
1646 515 5 -0.35 18.3256 5.46174 9.7861
1647 515 6 0.7 18.3716 4.88123 8.78286
1648 515 5 -0.35 18.4176 4.30072 7.77962
1658 519 5 -0.35 18.172 14.3142 14.6496
1659 519 6 0.7 18.2514 13.3231 14.0522
1660 519 5 -0.35 18.3308 12.3319 13.4548
1865 588 5 -0.35 31.1595 17.469 12.8973
1866 588 6 0.7 30.9116 18.1725 13.7857
1867 588 5 -0.35 30.6638 18.876 14.6741
1877 592 5 -0.35 16.8911 16.3144 10.4664
1878 592 6 0.7 16.0987 17.1549 10.3607
1879 592 5 -0.35 15.3063 17.9955 10.2551
1895 598 5 -0.35 21.0157 16.1513 3.90065
1896 598 6 0.7 12.3681 1.34174 3.5984
1897 598 5 -0.35 12.8536 2.35101 3.29615
1928 609 5 -0.35 20.0278 13.9463 10.7807
1929 609 6 0.7 20.2332 14.395 9.73094
1930 609 5 -0.35 20.4385 14.8437 8.68113
1937 612 5 -0.35 7.33216 10.59 2.1947
1938 612 6 0.7 6.94052 10.6981 1.10817
1939 612 5 -0.35 6.54888 10.8062 0.0216495
1952 617 5 -0.35 15.6574 5.15469 4.07073
1953 617 6 0.7 15.2093 4.94817 3.02091
1954 617 5 -0.35 14.7611 4.74164 1.9711
1958 619 5 -0.35 20.0406 5.7522 0.324055
1959 619 6 0.7 28.3567 11.4381 14.5255
1960 619 5 -0.35 27.5399 11.8511 13.8129
1961 620 5 -0.35 13.6899 13.7613 6.43425
1962 620 6 0.7 12.7021 14.3693 6.44984
1963 620 5 -0.35 11.7143 14.9773 6.46543
1964 621 5 -0.35 16.459 14.848 6.00713
1965 621 6 0.7 15.8585 15.2926 5.11981
1966 621 5 -0.35 15.258 15.7372 4.23249
1970 623 5 -0.35 22.5591 5.52171 10.796
1971 623 6 0.7 22.1649 6.38787 10.1327
1972 623 5 -0.35 21.7707 7.25403 9.4694
ITEM: TIMESTEP
81000
ITEM: NUMBER OF ATOMS
124
ITEM: BOX BOUNDS xy xz yz pp pp pp
0.0000000000000000e+00 3.6531964750000000e+01 9.1329911900000003e+00
0.0000000000000000e+00 2.1091739680000000e+01 9.1329911900000003e+00
0.0000000000000000e+00 1.4914112149999999e+01 5.2729349200000000e+00
ITEM: ATOMS id mol type q x y z
1 1 1 1.10383 27.399 17.6496 10.5383
2 1 1 1.10383 9.13299 3.44217 4.3758
3 1 1 1.10383 27.399 15.8188 13.1274
4 1 1 1.10383 9.13299 5.27293 1.78671
5 1 1 1.10383 25.8135 14.9034 10.5383
6 1 1 1.10383 10.7185 6.18832 4.3758
7 1 1 1.10383 28.9845 14.9034 10.5383
8 1 1 1.10383 7.5475 6.18832 4.3758
9 1 2 0.115889 18.266 5.48596 12.6084
10 1 2 0.115889 18.266 15.6058 2.30572
11 1 2 0.115888 18.266 13.716 0.969417
12 1 2 0.115888 18.266 7.37578 13.9447
13 1 2 0.11589 25.3934 11.4908 8.12521
14 1 2 0.11589 11.1386 9.60096 6.7889
15 1 2 0.115888 11.1386 11.4908 8.12521
16 1 2 0.115888 25.3934 9.60096 6.7889
17 1 2 0.115889 15.5206 8.96083 0.969417
18 1 2 0.115889 21.0114 12.1309 13.9447
19 1 2 0.115888 22.648 13.0758 12.6084
20 1 2 0.115888 13.884 8.01592 2.30572
21 1 2 0.115889 21.0114 3.90092 8.12521
22 1 2 0.115889 15.5206 17.1908 6.7889
23 1 2 0.115887 13.884 16.2459 8.12521
24 1 2 0.115887 22.648 4.84583 6.7889
25 1 2 0.115889 22.648 16.2459 8.12521
26 1 2 0.115889 13.884 4.84583 6.7889
27 1 2 0.115887 15.5206 3.90092 8.12521
28 1 2 0.115887 21.0114 17.1908 6.7889
29 1 2 0.115889 21.0114 8.96083 0.969417
30 1 2 0.115889 15.5206 12.1309 13.9447
31 1 2 0.115887 13.884 13.0758 12.6084
32 1 2 0.115887 22.648 8.01592 2.30572
33 1 3 0.671939 27.399 18.7442 13.2542
34 1 3 0.671939 9.13299 2.34751 1.65994
35 1 3 0.671939 27.399 12.8934 9.117
36 1 3 0.671939 9.13299 8.19836 5.79712
37 1 3 0.67194 24.8655 14.3561 13.2542
38 1 3 0.67194 11.6665 6.73565 1.65994
39 1 3 0.67194 29.9325 17.2815 9.117
40 1 3 0.67194 6.5995 3.81022 5.79712
41 1 3 0.67194 24.8655 17.2815 9.117
42 1 3 0.67194 11.6665 3.81022 5.79712
43 1 3 0.67194 29.9325 14.3561 13.2542
44 1 3 0.67194 6.5995 6.73565 1.65994
45 1 3 -0.11508 27.399 19.957 14.1117
46 1 3 -0.11508 9.13299 1.13474 0.802379
47 1 3 -0.11508 27.399 11.6806 8.25944
48 1 3 -0.11508 9.13299 9.41113 6.65468
49 1 3 -0.11508 23.8152 13.7497 14.1117
50 1 3 -0.11508 12.7168 7.34203 0.802379
51 1 3 -0.11508 30.9828 17.8879 8.25944
52 1 3 -0.11508 5.54921 3.20384 6.65468
53 1 3 -0.11508 23.8152 17.8879 8.25944
54 1 3 -0.11508 12.7168 3.20384 6.65468
55 1 3 -0.11508 30.9828 13.7497 14.1117
56 1 3 -0.11508 5.54921 7.34203 0.802379
57 1 3 -0.0559 18.266 5.39949 13.5316
58 1 3 -0.0559 18.266 15.6923 1.38254
59 1 3 -0.055903 18.266 14.5575 0.580159
60 1 3 -0.055903 18.266 6.53422 14.334
61 1 3 -0.0559 26.1971 11.1132 7.85825
62 1 3 -0.0559 10.3349 9.9785 7.05587
63 1 3 -0.055903 10.3349 11.1132 7.85825
64 1 3 -0.055903 26.1971 9.9785 7.05587
65 1 3 -0.0559 14.7918 8.54005 0.580159
66 1 3 -0.0559 21.7402 12.5517 14.334
67 1 3 -0.055903 22.7229 13.1191 13.5316
68 1 3 -0.055903 13.8091 7.97268 1.38254
69 1 3 -0.0559 21.7402 3.39366 7.85825
70 1 3 -0.0559 14.7918 17.6981 7.05587
71 1 3 -0.055903 13.8091 17.1307 7.85825
72 1 3 -0.055903 22.7229 3.96103 7.05587
73 1 3 -0.055901 22.7229 17.1307 7.85825
74 1 3 -0.055901 13.8091 3.96103 7.05587
75 1 3 -0.055903 14.7918 3.39366 7.85825
76 1 3 -0.055903 21.7402 17.6981 7.05587
77 1 3 -0.0559 21.7402 8.54005 0.580159
78 1 3 -0.0559 14.7918 12.5517 14.334
79 1 3 -0.055903 13.8091 13.1191 13.5316
80 1 3 -0.055903 22.7229 7.97268 1.38254
81 1 4 -1.26215 27.399 15.8188 11.1856
82 1 4 -1.26215 9.13299 5.27293 3.72853
83 1 4 -0.60118 27.399 18.9383 11.9641
84 1 4 -0.60118 9.13299 2.15347 2.95001
85 1 4 -0.601179 27.399 17.5926 13.8671
86 1 4 -0.601179 9.13299 3.49912 1.04697
87 1 4 -0.601179 26.2336 13.3722 9.45555
88 1 4 -0.601179 10.2984 7.71958 5.45857
89 1 4 -0.60118 28.5643 13.3722 9.45555
90 1 4 -0.60118 7.96762 7.71958 5.45857
91 1 4 -0.60118 25.8628 14.9319 13.8671
92 1 4 -0.60118 10.6692 6.15984 1.04697
93 1 4 -0.601179 24.6974 14.2591 11.9641
94 1 4 -0.601179 11.8345 6.83267 2.95001
95 1 4 -0.60118 28.9351 18.0514 9.45555
96 1 4 -0.60118 7.59682 3.04037 5.45857
97 1 4 -0.601179 30.1005 16.0329 9.45555
98 1 4 -0.601179 6.43145 5.05885 5.45857
99 1 4 -0.601179 24.6974 16.0329 9.45555
100 1 4 -0.601179 11.8345 5.05885 5.45857
101 1 4 -0.60118 25.8628 18.0514 9.45555
102 1 4 -0.60118 10.6692 3.04037 5.45857
103 1 4 -0.60118 28.9351 14.9319 13.8671
104 1 4 -0.60118 7.59682 6.15984 1.04697
105 1 4 -0.60118 30.1005 14.2591 11.9641
106 1 4 -0.60118 6.43145 6.83267 2.95001
542 147 5 -0.35 6.04728 3.29757 1.71319
543 147 6 0.7 5.42982 3.52928 0.758901
544 147 5 -0.35 13.9454 9.03392 14.7187
554 151 5 -0.35 20.9004 6.92412 4.0623
555 151 6 0.7 20.9405 5.95705 3.42295
556 151 5 -0.35 20.9807 4.98998 2.78361
590 163 5 -0.35 26.4714 12.0681 14.8903
591 163 6 0.7 17.889 7.12768 0.941545
592 163 5 -0.35 18.4396 7.4602 1.9069
668 189 5 -0.35 28.9766 10.779 12.7159
669 189 6 0.7 11.2322 10.5817 11.6988
670 189 5 -0.35 11.7539 10.3843 10.6817
917 272 5 -0.35 12.7097 12.7475 5.88778
918 272 6 0.7 12.9808 13.8668 5.74952
919 272 5 -0.35 13.2519 14.9862 5.61126
920 273 5 -0.35 17.5383 6.08691 5.39061
921 273 6 0.7 18.4217 6.33266 6.10118
922 273 5 -0.35 19.305 6.57841 6.81176
ITEM: TIMESTEP
82000
ITEM: NUMBER OF ATOMS
130
ITEM: BOX BOUNDS xy xz yz pp pp pp
0.0000000000000000e+00 3.6531964750000000e+01 9.1329911900000003e+00
0.0000000000000000e+00 2.1091739680000000e+01 9.1329911900000003e+00
0.0000000000000000e+00 1.4914112149999999e+01 5.2729349200000000e+00
ITEM: ATOMS id mol type q x y z
1 1 1 1.10383 27.399 17.6496 10.5383
2 1 1 1.10383 9.13299 3.44217 4.3758
3 1 1 1.10383 27.399 15.8188 13.1274
4 1 1 1.10383 9.13299 5.27293 1.78671
5 1 1 1.10383 25.8135 14.9034 10.5383
6 1 1 1.10383 10.7185 6.18832 4.3758
7 1 1 1.10383 28.9845 14.9034 10.5383
8 1 1 1.10383 7.5475 6.18832 4.3758
9 1 2 0.115889 18.266 5.48596 12.6084
10 1 2 0.115889 18.266 15.6058 2.30572
11 1 2 0.115888 18.266 13.716 0.969417
12 1 2 0.115888 18.266 7.37578 13.9447
13 1 2 0.11589 25.3934 11.4908 8.12521
14 1 2 0.11589 11.1386 9.60096 6.7889
15 1 2 0.115888 11.1386 11.4908 8.12521
16 1 2 0.115888 25.3934 9.60096 6.7889
17 1 2 0.115889 15.5206 8.96083 0.969417
18 1 2 0.115889 21.0114 12.1309 13.9447
19 1 2 0.115888 22.648 13.0758 12.6084
20 1 2 0.115888 13.884 8.01592 2.30572
21 1 2 0.115889 21.0114 3.90092 8.12521
22 1 2 0.115889 15.5206 17.1908 6.7889
23 1 2 0.115887 13.884 16.2459 8.12521
24 1 2 0.115887 22.648 4.84583 6.7889
25 1 2 0.115889 22.648 16.2459 8.12521
26 1 2 0.115889 13.884 4.84583 6.7889
27 1 2 0.115887 15.5206 3.90092 8.12521
28 1 2 0.115887 21.0114 17.1908 6.7889
29 1 2 0.115889 21.0114 8.96083 0.969417
30 1 2 0.115889 15.5206 12.1309 13.9447
31 1 2 0.115887 13.884 13.0758 12.6084
32 1 2 0.115887 22.648 8.01592 2.30572
33 1 3 0.671939 27.399 18.7442 13.2542
34 1 3 0.671939 9.13299 2.34751 1.65994
35 1 3 0.671939 27.399 12.8934 9.117
36 1 3 0.671939 9.13299 8.19836 5.79712
37 1 3 0.67194 24.8655 14.3561 13.2542
38 1 3 0.67194 11.6665 6.73565 1.65994
39 1 3 0.67194 29.9325 17.2815 9.117
40 1 3 0.67194 6.5995 3.81022 5.79712
41 1 3 0.67194 24.8655 17.2815 9.117
42 1 3 0.67194 11.6665 3.81022 5.79712
43 1 3 0.67194 29.9325 14.3561 13.2542
44 1 3 0.67194 6.5995 6.73565 1.65994
45 1 3 -0.11508 27.399 19.957 14.1117
46 1 3 -0.11508 9.13299 1.13474 0.802379
47 1 3 -0.11508 27.399 11.6806 8.25944
48 1 3 -0.11508 9.13299 9.41113 6.65468
49 1 3 -0.11508 23.8152 13.7497 14.1117
50 1 3 -0.11508 12.7168 7.34203 0.802379
51 1 3 -0.11508 30.9828 17.8879 8.25944
52 1 3 -0.11508 5.54921 3.20384 6.65468
53 1 3 -0.11508 23.8152 17.8879 8.25944
54 1 3 -0.11508 12.7168 3.20384 6.65468
55 1 3 -0.11508 30.9828 13.7497 14.1117
56 1 3 -0.11508 5.54921 7.34203 0.802379
57 1 3 -0.0559 18.266 5.39949 13.5316
58 1 3 -0.0559 18.266 15.6923 1.38254
59 1 3 -0.055903 18.266 14.5575 0.580159
60 1 3 -0.055903 18.266 6.53422 14.334
61 1 3 -0.0559 26.1971 11.1132 7.85825
62 1 3 -0.0559 10.3349 9.9785 7.05587
63 1 3 -0.055903 10.3349 11.1132 7.85825
64 1 3 -0.055903 26.1971 9.9785 7.05587
65 1 3 -0.0559 14.7918 8.54005 0.580159
66 1 3 -0.0559 21.7402 12.5517 14.334
67 1 3 -0.055903 22.7229 13.1191 13.5316
68 1 3 -0.055903 13.8091 7.97268 1.38254
69 1 3 -0.0559 21.7402 3.39366 7.85825
70 1 3 -0.0559 14.7918 17.6981 7.05587
71 1 3 -0.055903 13.8091 17.1307 7.85825
72 1 3 -0.055903 22.7229 3.96103 7.05587
73 1 3 -0.055901 22.7229 17.1307 7.85825
74 1 3 -0.055901 13.8091 3.96103 7.05587
75 1 3 -0.055903 14.7918 3.39366 7.85825
76 1 3 -0.055903 21.7402 17.6981 7.05587
77 1 3 -0.0559 21.7402 8.54005 0.580159
78 1 3 -0.0559 14.7918 12.5517 14.334
79 1 3 -0.055903 13.8091 13.1191 13.5316
80 1 3 -0.055903 22.7229 7.97268 1.38254
81 1 4 -1.26215 27.399 15.8188 11.1856
82 1 4 -1.26215 9.13299 5.27293 3.72853
83 1 4 -0.60118 27.399 18.9383 11.9641
84 1 4 -0.60118 9.13299 2.15347 2.95001
85 1 4 -0.601179 27.399 17.5926 13.8671
86 1 4 -0.601179 9.13299 3.49912 1.04697
87 1 4 -0.601179 26.2336 13.3722 9.45555
88 1 4 -0.601179 10.2984 7.71958 5.45857
89 1 4 -0.60118 28.5643 13.3722 9.45555
90 1 4 -0.60118 7.96762 7.71958 5.45857
91 1 4 -0.60118 25.8628 14.9319 13.8671
92 1 4 -0.60118 10.6692 6.15984 1.04697
93 1 4 -0.601179 24.6974 14.2591 11.9641
94 1 4 -0.601179 11.8345 6.83267 2.95001
95 1 4 -0.60118 28.9351 18.0514 9.45555
96 1 4 -0.60118 7.59682 3.04037 5.45857
97 1 4 -0.601179 30.1005 16.0329 9.45555
98 1 4 -0.601179 6.43145 5.05885 5.45857
99 1 4 -0.601179 24.6974 16.0329 9.45555
100 1 4 -0.601179 11.8345 5.05885 5.45857
101 1 4 -0.60118 25.8628 18.0514 9.45555
102 1 4 -0.60118 10.6692 3.04037 5.45857
103 1 4 -0.60118 28.9351 14.9319 13.8671
104 1 4 -0.60118 7.59682 6.15984 1.04697
105 1 4 -0.60118 30.1005 14.2591 11.9641
106 1 4 -0.60118 6.43145 6.83267 2.95001
2087 662 5 -0.35 11.7791 3.47506 2.53801
2088 662 6 0.7 12.0295 3.00803 1.50612
2089 662 5 -0.35 12.2799 2.54101 0.474241
2207 702 5 -0.35 18.3742 2.63782 4.68911
2208 702 6 0.7 26.9364 17.6713 5.32402
2209 702 5 -0.35 26.3656 16.886 5.95894
2258 719 5 -0.35 8.84102 9.59248 1.26613
2259 719 6 0.7 9.01955 9.07217 0.244846
2260 719 5 -0.35 18.3311 13.8248 14.1377
2279 726 5 -0.35 15.285 14.0491 2.33603
2280 726 6 0.7 15.2071 13.8581 1.1945
2281 726 5 -0.35 15.1292 13.6672 0.0529758
2309 736 5 -0.35 24.337 9.79102 14.6116
2310 736 6 0.7 23.7081 9.89241 13.6422
2311 736 5 -0.35 23.0792 9.9938 12.6728
2315 738 5 -0.35 4.81337 1.31511 3.66064
2316 738 6 0.7 4.83469 1.19588 2.50698
2317 738 5 -0.35 4.85602 1.07666 1.35332
2327 742 5 -0.35 30.973 19.7422 12.9399
2328 742 6 0.7 31.7522 19.7268 12.0806
2329 742 5 -0.35 32.5313 19.7113 11.2214
2336 745 5 -0.35 19.3936 5.7257 1.25451
2337 745 6 0.7 18.6045 6.11085 0.496591
2338 745 5 -0.35 26.9483 11.7689 14.6528
ITEM: TIMESTEP
83000
ITEM: NUMBER OF ATOMS
130
ITEM: BOX BOUNDS xy xz yz pp pp pp
0.0000000000000000e+00 3.6531964750000000e+01 9.1329911900000003e+00
0.0000000000000000e+00 2.1091739680000000e+01 9.1329911900000003e+00
0.0000000000000000e+00 1.4914112149999999e+01 5.2729349200000000e+00
ITEM: ATOMS id mol type q x y z
1 1 1 1.10383 27.399 17.6496 10.5383
2 1 1 1.10383 9.13299 3.44217 4.3758
3 1 1 1.10383 27.399 15.8188 13.1274
4 1 1 1.10383 9.13299 5.27293 1.78671
5 1 1 1.10383 25.8135 14.9034 10.5383
6 1 1 1.10383 10.7185 6.18832 4.3758
7 1 1 1.10383 28.9845 14.9034 10.5383
8 1 1 1.10383 7.5475 6.18832 4.3758
9 1 2 0.115889 18.266 5.48596 12.6084
10 1 2 0.115889 18.266 15.6058 2.30572
11 1 2 0.115888 18.266 13.716 0.969417
12 1 2 0.115888 18.266 7.37578 13.9447
13 1 2 0.11589 25.3934 11.4908 8.12521
14 1 2 0.11589 11.1386 9.60096 6.7889
15 1 2 0.115888 11.1386 11.4908 8.12521
16 1 2 0.115888 25.3934 9.60096 6.7889
17 1 2 0.115889 15.5206 8.96083 0.969417
18 1 2 0.115889 21.0114 12.1309 13.9447
19 1 2 0.115888 22.648 13.0758 12.6084
20 1 2 0.115888 13.884 8.01592 2.30572
21 1 2 0.115889 21.0114 3.90092 8.12521
22 1 2 0.115889 15.5206 17.1908 6.7889
23 1 2 0.115887 13.884 16.2459 8.12521
24 1 2 0.115887 22.648 4.84583 6.7889
25 1 2 0.115889 22.648 16.2459 8.12521
26 1 2 0.115889 13.884 4.84583 6.7889
27 1 2 0.115887 15.5206 3.90092 8.12521
28 1 2 0.115887 21.0114 17.1908 6.7889
29 1 2 0.115889 21.0114 8.96083 0.969417
30 1 2 0.115889 15.5206 12.1309 13.9447
31 1 2 0.115887 13.884 13.0758 12.6084
32 1 2 0.115887 22.648 8.01592 2.30572
33 1 3 0.671939 27.399 18.7442 13.2542
34 1 3 0.671939 9.13299 2.34751 1.65994
35 1 3 0.671939 27.399 12.8934 9.117
36 1 3 0.671939 9.13299 8.19836 5.79712
37 1 3 0.67194 24.8655 14.3561 13.2542
38 1 3 0.67194 11.6665 6.73565 1.65994
39 1 3 0.67194 29.9325 17.2815 9.117
40 1 3 0.67194 6.5995 3.81022 5.79712
41 1 3 0.67194 24.8655 17.2815 9.117
42 1 3 0.67194 11.6665 3.81022 5.79712
43 1 3 0.67194 29.9325 14.3561 13.2542
44 1 3 0.67194 6.5995 6.73565 1.65994
45 1 3 -0.11508 27.399 19.957 14.1117
46 1 3 -0.11508 9.13299 1.13474 0.802379
47 1 3 -0.11508 27.399 11.6806 8.25944
48 1 3 -0.11508 9.13299 9.41113 6.65468
49 1 3 -0.11508 23.8152 13.7497 14.1117
50 1 3 -0.11508 12.7168 7.34203 0.802379
51 1 3 -0.11508 30.9828 17.8879 8.25944
52 1 3 -0.11508 5.54921 3.20384 6.65468
53 1 3 -0.11508 23.8152 17.8879 8.25944
54 1 3 -0.11508 12.7168 3.20384 6.65468
55 1 3 -0.11508 30.9828 13.7497 14.1117
56 1 3 -0.11508 5.54921 7.34203 0.802379
57 1 3 -0.0559 18.266 5.39949 13.5316
58 1 3 -0.0559 18.266 15.6923 1.38254
59 1 3 -0.055903 18.266 14.5575 0.580159
60 1 3 -0.055903 18.266 6.53422 14.334
61 1 3 -0.0559 26.1971 11.1132 7.85825
62 1 3 -0.0559 10.3349 9.9785 7.05587
63 1 3 -0.055903 10.3349 11.1132 7.85825
64 1 3 -0.055903 26.1971 9.9785 7.05587
65 1 3 -0.0559 14.7918 8.54005 0.580159
66 1 3 -0.0559 21.7402 12.5517 14.334
67 1 3 -0.055903 22.7229 13.1191 13.5316
68 1 3 -0.055903 13.8091 7.97268 1.38254
69 1 3 -0.0559 21.7402 3.39366 7.85825
70 1 3 -0.0559 14.7918 17.6981 7.05587
71 1 3 -0.055903 13.8091 17.1307 7.85825
72 1 3 -0.055903 22.7229 3.96103 7.05587
73 1 3 -0.055901 22.7229 17.1307 7.85825
74 1 3 -0.055901 13.8091 3.96103 7.05587
75 1 3 -0.055903 14.7918 3.39366 7.85825
76 1 3 -0.055903 21.7402 17.6981 7.05587
77 1 3 -0.0559 21.7402 8.54005 0.580159
78 1 3 -0.0559 14.7918 12.5517 14.334
79 1 3 -0.055903 13.8091 13.1191 13.5316
80 1 3 -0.055903 22.7229 7.97268 1.38254
81 1 4 -1.26215 27.399 15.8188 11.1856
82 1 4 -1.26215 9.13299 5.27293 3.72853
83 1 4 -0.60118 27.399 18.9383 11.9641
84 1 4 -0.60118 9.13299 2.15347 2.95001
85 1 4 -0.601179 27.399 17.5926 13.8671
86 1 4 -0.601179 9.13299 3.49912 1.04697
87 1 4 -0.601179 26.2336 13.3722 9.45555
88 1 4 -0.601179 10.2984 7.71958 5.45857
89 1 4 -0.60118 28.5643 13.3722 9.45555
90 1 4 -0.60118 7.96762 7.71958 5.45857
91 1 4 -0.60118 25.8628 14.9319 13.8671
92 1 4 -0.60118 10.6692 6.15984 1.04697
93 1 4 -0.601179 24.6974 14.2591 11.9641
94 1 4 -0.601179 11.8345 6.83267 2.95001
95 1 4 -0.60118 28.9351 18.0514 9.45555
96 1 4 -0.60118 7.59682 3.04037 5.45857
97 1 4 -0.601179 30.1005 16.0329 9.45555
98 1 4 -0.601179 6.43145 5.05885 5.45857
99 1 4 -0.601179 24.6974 16.0329 9.45555
100 1 4 -0.601179 11.8345 5.05885 5.45857
101 1 4 -0.60118 25.8628 18.0514 9.45555
102 1 4 -0.60118 10.6692 3.04037 5.45857
103 1 4 -0.60118 28.9351 14.9319 13.8671
104 1 4 -0.60118 7.59682 6.15984 1.04697
105 1 4 -0.60118 30.1005 14.2591 11.9641
106 1 4 -0.60118 6.43145 6.83267 2.95001
3587 1162 5 -0.35 19.813 6.80979 1.98288
3588 1162 6 0.7 20.0643 6.18553 1.03803
3589 1162 5 -0.35 20.3156 5.56126 0.0931874
3620 1173 5 -0.35 16.5287 3.59869 4.45679
3621 1173 6 0.7 15.7576 3.18881 3.69323
3622 1173 5 -0.35 14.9865 2.77894 2.92967
3641 1180 5 -0.35 11.3739 5.48461 9.47673
3642 1180 6 0.7 10.4832 5.42074 8.73633
3643 1180 5 -0.35 9.59255 5.35688 7.99593
3650 1183 5 -0.35 32.339 18.5773 13.2608
3651 1183 6 0.7 31.5624 19.131 12.6006
3652 1183 5 -0.35 30.7859 19.6848 11.9404
3659 1186 5 -0.35 23.9525 13.4036 1.39802
3660 1186 6 0.7 23.7682 12.2803 1.17451
3661 1186 5 -0.35 23.584 11.1571 0.950994
3677 1192 5 -0.35 20.4745 2.68029 4.6821
3678 1192 6 0.7 20.735 2.94553 3.58327
3679 1192 5 -0.35 20.9954 3.21076 2.48444
3692 1197 5 -0.35 20.9566 14.9129 2.57616
3693 1197 6 0.7 20.8787 13.8225 2.96434
3694 1197 5 -0.35 20.8007 12.7322 3.35251
3695 1198 5 -0.35 14.0221 6.51259 11.1188
3696 1198 6 0.7 14.54 5.47483 11.0986
3697 1198 5 -0.35 15.0579 4.43707 11.0785
ITEM: TIMESTEP
84000
ITEM: NUMBER OF ATOMS
139
ITEM: BOX BOUNDS xy xz yz pp pp pp
0.0000000000000000e+00 3.6531964750000000e+01 9.1329911900000003e+00
0.0000000000000000e+00 2.1091739680000000e+01 9.1329911900000003e+00
0.0000000000000000e+00 1.4914112149999999e+01 5.2729349200000000e+00
ITEM: ATOMS id mol type q x y z
1 1 1 1.10383 27.399 17.6496 10.5383
2 1 1 1.10383 9.13299 3.44217 4.3758
3 1 1 1.10383 27.399 15.8188 13.1274
4 1 1 1.10383 9.13299 5.27293 1.78671
5 1 1 1.10383 25.8135 14.9034 10.5383
6 1 1 1.10383 10.7185 6.18832 4.3758
7 1 1 1.10383 28.9845 14.9034 10.5383
8 1 1 1.10383 7.5475 6.18832 4.3758
9 1 2 0.115889 18.266 5.48596 12.6084
10 1 2 0.115889 18.266 15.6058 2.30572
11 1 2 0.115888 18.266 13.716 0.969417
12 1 2 0.115888 18.266 7.37578 13.9447
13 1 2 0.11589 25.3934 11.4908 8.12521
14 1 2 0.11589 11.1386 9.60096 6.7889
15 1 2 0.115888 11.1386 11.4908 8.12521
16 1 2 0.115888 25.3934 9.60096 6.7889
17 1 2 0.115889 15.5206 8.96083 0.969417
18 1 2 0.115889 21.0114 12.1309 13.9447
19 1 2 0.115888 22.648 13.0758 12.6084
20 1 2 0.115888 13.884 8.01592 2.30572
21 1 2 0.115889 21.0114 3.90092 8.12521
22 1 2 0.115889 15.5206 17.1908 6.7889
23 1 2 0.115887 13.884 16.2459 8.12521
24 1 2 0.115887 22.648 4.84583 6.7889
25 1 2 0.115889 22.648 16.2459 8.12521
26 1 2 0.115889 13.884 4.84583 6.7889
27 1 2 0.115887 15.5206 3.90092 8.12521
28 1 2 0.115887 21.0114 17.1908 6.7889
29 1 2 0.115889 21.0114 8.96083 0.969417
30 1 2 0.115889 15.5206 12.1309 13.9447
31 1 2 0.115887 13.884 13.0758 12.6084
32 1 2 0.115887 22.648 8.01592 2.30572
33 1 3 0.671939 27.399 18.7442 13.2542
34 1 3 0.671939 9.13299 2.34751 1.65994
35 1 3 0.671939 27.399 12.8934 9.117
36 1 3 0.671939 9.13299 8.19836 5.79712
37 1 3 0.67194 24.8655 14.3561 13.2542
38 1 3 0.67194 11.6665 6.73565 1.65994
39 1 3 0.67194 29.9325 17.2815 9.117
40 1 3 0.67194 6.5995 3.81022 5.79712
41 1 3 0.67194 24.8655 17.2815 9.117
42 1 3 0.67194 11.6665 3.81022 5.79712
43 1 3 0.67194 29.9325 14.3561 13.2542
44 1 3 0.67194 6.5995 6.73565 1.65994
45 1 3 -0.11508 27.399 19.957 14.1117
46 1 3 -0.11508 9.13299 1.13474 0.802379
47 1 3 -0.11508 27.399 11.6806 8.25944
48 1 3 -0.11508 9.13299 9.41113 6.65468
49 1 3 -0.11508 23.8152 13.7497 14.1117
50 1 3 -0.11508 12.7168 7.34203 0.802379
51 1 3 -0.11508 30.9828 17.8879 8.25944
52 1 3 -0.11508 5.54921 3.20384 6.65468
53 1 3 -0.11508 23.8152 17.8879 8.25944
54 1 3 -0.11508 12.7168 3.20384 6.65468
55 1 3 -0.11508 30.9828 13.7497 14.1117
56 1 3 -0.11508 5.54921 7.34203 0.802379
57 1 3 -0.0559 18.266 5.39949 13.5316
58 1 3 -0.0559 18.266 15.6923 1.38254
59 1 3 -0.055903 18.266 14.5575 0.580159
60 1 3 -0.055903 18.266 6.53422 14.334
61 1 3 -0.0559 26.1971 11.1132 7.85825
62 1 3 -0.0559 10.3349 9.9785 7.05587
63 1 3 -0.055903 10.3349 11.1132 7.85825
64 1 3 -0.055903 26.1971 9.9785 7.05587
65 1 3 -0.0559 14.7918 8.54005 0.580159
66 1 3 -0.0559 21.7402 12.5517 14.334
67 1 3 -0.055903 22.7229 13.1191 13.5316
68 1 3 -0.055903 13.8091 7.97268 1.38254
69 1 3 -0.0559 21.7402 3.39366 7.85825
70 1 3 -0.0559 14.7918 17.6981 7.05587
71 1 3 -0.055903 13.8091 17.1307 7.85825
72 1 3 -0.055903 22.7229 3.96103 7.05587
73 1 3 -0.055901 22.7229 17.1307 7.85825
74 1 3 -0.055901 13.8091 3.96103 7.05587
75 1 3 -0.055903 14.7918 3.39366 7.85825
76 1 3 -0.055903 21.7402 17.6981 7.05587
77 1 3 -0.0559 21.7402 8.54005 0.580159
78 1 3 -0.0559 14.7918 12.5517 14.334
79 1 3 -0.055903 13.8091 13.1191 13.5316
80 1 3 -0.055903 22.7229 7.97268 1.38254
81 1 4 -1.26215 27.399 15.8188 11.1856
82 1 4 -1.26215 9.13299 5.27293 3.72853
83 1 4 -0.60118 27.399 18.9383 11.9641
84 1 4 -0.60118 9.13299 2.15347 2.95001
85 1 4 -0.601179 27.399 17.5926 13.8671
86 1 4 -0.601179 9.13299 3.49912 1.04697
87 1 4 -0.601179 26.2336 13.3722 9.45555
88 1 4 -0.601179 10.2984 7.71958 5.45857
89 1 4 -0.60118 28.5643 13.3722 9.45555
90 1 4 -0.60118 7.96762 7.71958 5.45857
91 1 4 -0.60118 25.8628 14.9319 13.8671
92 1 4 -0.60118 10.6692 6.15984 1.04697
93 1 4 -0.601179 24.6974 14.2591 11.9641
94 1 4 -0.601179 11.8345 6.83267 2.95001
95 1 4 -0.60118 28.9351 18.0514 9.45555
96 1 4 -0.60118 7.59682 3.04037 5.45857
97 1 4 -0.601179 30.1005 16.0329 9.45555
98 1 4 -0.601179 6.43145 5.05885 5.45857
99 1 4 -0.601179 24.6974 16.0329 9.45555
100 1 4 -0.601179 11.8345 5.05885 5.45857
101 1 4 -0.60118 25.8628 18.0514 9.45555
102 1 4 -0.60118 10.6692 3.04037 5.45857
103 1 4 -0.60118 28.9351 14.9319 13.8671
104 1 4 -0.60118 7.59682 6.15984 1.04697
105 1 4 -0.60118 30.1005 14.2591 11.9641
106 1 4 -0.60118 6.43145 6.83267 2.95001
4934 1611 5 -0.35 13.7072 11.3039 0.121774
4935 1611 6 0.7 23.3556 16.9673 14.0728
4936 1611 5 -0.35 23.871 17.3577 13.1097
5030 1643 5 -0.35 5.35278 3.52961 0.105788
5031 1643 6 0.7 14.9328 9.19624 14.0245
5032 1643 5 -0.35 15.3798 9.58993 13.0291
5057 1652 5 -0.35 9.35489 8.85031 1.3524
5058 1652 6 0.7 9.20878 8.96446 0.207317
5059 1652 5 -0.35 18.1957 14.3516 13.9763
5093 1664 5 -0.35 12.683 3.31603 1.0171
5094 1664 6 0.7 21.8204 8.60519 14.7713
5095 1664 5 -0.35 21.8249 8.62143 13.6115
5111 1670 5 -0.35 21.7558 14.2267 10.3135
5112 1670 6 0.7 22.311 13.2989 9.89348
5113 1670 5 -0.35 22.8662 12.371 9.47341
5126 1675 5 -0.35 19.0243 16.1001 10.0314
5127 1675 6 0.7 18.9176 15.1147 9.42864
5128 1675 5 -0.35 18.8109 14.1294 8.82588
5138 1679 5 -0.35 11.4482 10.6035 12.2417
5139 1679 6 0.7 11.9148 9.72998 11.6377
5140 1679 5 -0.35 12.3813 8.85644 11.0336
5147 1682 5 -0.35 10.6417 6.4391 10.2324
5148 1682 6 0.7 9.61883 6.11028 9.79506
5149 1682 5 -0.35 8.596 5.78147 9.3577
5162 1687 5 -0.35 30.5259 17.4527 14.7217
5163 1687 6 0.7 30.8485 17.7375 13.6445
5164 1687 5 -0.35 31.1712 18.0224 12.5673
5171 1690 5 -0.35 15.3567 6.73133 11.91
5172 1690 6 0.7 15.5162 6.6352 10.7651
5173 1690 5 -0.35 15.6757 6.53907 9.62011
5174 1691 5 -0.35 22.42 13.2599 6.58238
5175 1691 6 0.7 23.4613 13.2777 6.07159
5176 1691 5 -0.35 24.5026 13.2955 5.56081
ITEM: TIMESTEP
85000
ITEM: NUMBER OF ATOMS
121
ITEM: BOX BOUNDS xy xz yz pp pp pp
0.0000000000000000e+00 3.6531964750000000e+01 9.1329911900000003e+00
0.0000000000000000e+00 2.1091739680000000e+01 9.1329911900000003e+00
0.0000000000000000e+00 1.4914112149999999e+01 5.2729349200000000e+00
ITEM: ATOMS id mol type q x y z
1 1 1 1.10383 27.399 17.6496 10.5383
2 1 1 1.10383 9.13299 3.44217 4.3758
3 1 1 1.10383 27.399 15.8188 13.1274
4 1 1 1.10383 9.13299 5.27293 1.78671
5 1 1 1.10383 25.8135 14.9034 10.5383
6 1 1 1.10383 10.7185 6.18832 4.3758
7 1 1 1.10383 28.9845 14.9034 10.5383
8 1 1 1.10383 7.5475 6.18832 4.3758
9 1 2 0.115889 18.266 5.48596 12.6084
10 1 2 0.115889 18.266 15.6058 2.30572
11 1 2 0.115888 18.266 13.716 0.969417
12 1 2 0.115888 18.266 7.37578 13.9447
13 1 2 0.11589 25.3934 11.4908 8.12521
14 1 2 0.11589 11.1386 9.60096 6.7889
15 1 2 0.115888 11.1386 11.4908 8.12521
16 1 2 0.115888 25.3934 9.60096 6.7889
17 1 2 0.115889 15.5206 8.96083 0.969417
18 1 2 0.115889 21.0114 12.1309 13.9447
19 1 2 0.115888 22.648 13.0758 12.6084
20 1 2 0.115888 13.884 8.01592 2.30572
21 1 2 0.115889 21.0114 3.90092 8.12521
22 1 2 0.115889 15.5206 17.1908 6.7889
23 1 2 0.115887 13.884 16.2459 8.12521
24 1 2 0.115887 22.648 4.84583 6.7889
25 1 2 0.115889 22.648 16.2459 8.12521
26 1 2 0.115889 13.884 4.84583 6.7889
27 1 2 0.115887 15.5206 3.90092 8.12521
28 1 2 0.115887 21.0114 17.1908 6.7889
29 1 2 0.115889 21.0114 8.96083 0.969417
30 1 2 0.115889 15.5206 12.1309 13.9447
31 1 2 0.115887 13.884 13.0758 12.6084
32 1 2 0.115887 22.648 8.01592 2.30572
33 1 3 0.671939 27.399 18.7442 13.2542
34 1 3 0.671939 9.13299 2.34751 1.65994
35 1 3 0.671939 27.399 12.8934 9.117
36 1 3 0.671939 9.13299 8.19836 5.79712
37 1 3 0.67194 24.8655 14.3561 13.2542
38 1 3 0.67194 11.6665 6.73565 1.65994
39 1 3 0.67194 29.9325 17.2815 9.117
40 1 3 0.67194 6.5995 3.81022 5.79712
41 1 3 0.67194 24.8655 17.2815 9.117
42 1 3 0.67194 11.6665 3.81022 5.79712
43 1 3 0.67194 29.9325 14.3561 13.2542
44 1 3 0.67194 6.5995 6.73565 1.65994
45 1 3 -0.11508 27.399 19.957 14.1117
46 1 3 -0.11508 9.13299 1.13474 0.802379
47 1 3 -0.11508 27.399 11.6806 8.25944
48 1 3 -0.11508 9.13299 9.41113 6.65468
49 1 3 -0.11508 23.8152 13.7497 14.1117
50 1 3 -0.11508 12.7168 7.34203 0.802379
51 1 3 -0.11508 30.9828 17.8879 8.25944
52 1 3 -0.11508 5.54921 3.20384 6.65468
53 1 3 -0.11508 23.8152 17.8879 8.25944
54 1 3 -0.11508 12.7168 3.20384 6.65468
55 1 3 -0.11508 30.9828 13.7497 14.1117
56 1 3 -0.11508 5.54921 7.34203 0.802379
57 1 3 -0.0559 18.266 5.39949 13.5316
58 1 3 -0.0559 18.266 15.6923 1.38254
59 1 3 -0.055903 18.266 14.5575 0.580159
60 1 3 -0.055903 18.266 6.53422 14.334
61 1 3 -0.0559 26.1971 11.1132 7.85825
62 1 3 -0.0559 10.3349 9.9785 7.05587
63 1 3 -0.055903 10.3349 11.1132 7.85825
64 1 3 -0.055903 26.1971 9.9785 7.05587
65 1 3 -0.0559 14.7918 8.54005 0.580159
66 1 3 -0.0559 21.7402 12.5517 14.334
67 1 3 -0.055903 22.7229 13.1191 13.5316
68 1 3 -0.055903 13.8091 7.97268 1.38254
69 1 3 -0.0559 21.7402 3.39366 7.85825
70 1 3 -0.0559 14.7918 17.6981 7.05587
71 1 3 -0.055903 13.8091 17.1307 7.85825
72 1 3 -0.055903 22.7229 3.96103 7.05587
73 1 3 -0.055901 22.7229 17.1307 7.85825
74 1 3 -0.055901 13.8091 3.96103 7.05587
75 1 3 -0.055903 14.7918 3.39366 7.85825
76 1 3 -0.055903 21.7402 17.6981 7.05587
77 1 3 -0.0559 21.7402 8.54005 0.580159
78 1 3 -0.0559 14.7918 12.5517 14.334
79 1 3 -0.055903 13.8091 13.1191 13.5316
80 1 3 -0.055903 22.7229 7.97268 1.38254
81 1 4 -1.26215 27.399 15.8188 11.1856
82 1 4 -1.26215 9.13299 5.27293 3.72853
83 1 4 -0.60118 27.399 18.9383 11.9641
84 1 4 -0.60118 9.13299 2.15347 2.95001
85 1 4 -0.601179 27.399 17.5926 13.8671
86 1 4 -0.601179 9.13299 3.49912 1.04697
87 1 4 -0.601179 26.2336 13.3722 9.45555
88 1 4 -0.601179 10.2984 7.71958 5.45857
89 1 4 -0.60118 28.5643 13.3722 9.45555
90 1 4 -0.60118 7.96762 7.71958 5.45857
91 1 4 -0.60118 25.8628 14.9319 13.8671
92 1 4 -0.60118 10.6692 6.15984 1.04697
93 1 4 -0.601179 24.6974 14.2591 11.9641
94 1 4 -0.601179 11.8345 6.83267 2.95001
95 1 4 -0.60118 28.9351 18.0514 9.45555
96 1 4 -0.60118 7.59682 3.04037 5.45857
97 1 4 -0.601179 30.1005 16.0329 9.45555
98 1 4 -0.601179 6.43145 5.05885 5.45857
99 1 4 -0.601179 24.6974 16.0329 9.45555
100 1 4 -0.601179 11.8345 5.05885 5.45857
101 1 4 -0.60118 25.8628 18.0514 9.45555
102 1 4 -0.60118 10.6692 3.04037 5.45857
103 1 4 -0.60118 28.9351 14.9319 13.8671
104 1 4 -0.60118 7.59682 6.15984 1.04697
105 1 4 -0.60118 30.1005 14.2591 11.9641
106 1 4 -0.60118 6.43145 6.83267 2.95001
479 126 5 -0.35 18.0648 5.71397 0.444496
480 126 6 0.7 17.6522 6.1457 1.43896
481 126 5 -0.35 17.2396 6.57743 2.43342
485 128 5 -0.35 18.9701 15.4817 14.8791
486 128 6 0.7 9.50759 9.3668 0.691675
487 128 5 -0.35 9.17807 8.52482 1.41837
500 133 5 -0.35 12.8595 13.0799 6.9206
501 133 6 0.7 12.0747 13.7665 6.41234
502 133 5 -0.35 11.2899 14.4531 5.90409
530 143 5 -0.35 12.8478 3.61367 2.30872
531 143 6 0.7 13.8431 3.20148 1.87856
532 143 5 -0.35 14.8384 2.78928 1.4484
548 149 5 -0.35 20.0404 3.07776 1.03987
549 149 6 0.7 28.6759 8.4401 14.9099
550 149 5 -0.35 28.1785 8.5295 13.8658
ITEM: TIMESTEP
86000
ITEM: NUMBER OF ATOMS
133
ITEM: BOX BOUNDS xy xz yz pp pp pp
0.0000000000000000e+00 3.6531964750000000e+01 9.1329911900000003e+00
0.0000000000000000e+00 2.1091739680000000e+01 9.1329911900000003e+00
0.0000000000000000e+00 1.4914112149999999e+01 5.2729349200000000e+00
ITEM: ATOMS id mol type q x y z
1 1 1 1.10383 27.399 17.6496 10.5383
2 1 1 1.10383 9.13299 3.44217 4.3758
3 1 1 1.10383 27.399 15.8188 13.1274
4 1 1 1.10383 9.13299 5.27293 1.78671
5 1 1 1.10383 25.8135 14.9034 10.5383
6 1 1 1.10383 10.7185 6.18832 4.3758
7 1 1 1.10383 28.9845 14.9034 10.5383
8 1 1 1.10383 7.5475 6.18832 4.3758
9 1 2 0.115889 18.266 5.48596 12.6084
10 1 2 0.115889 18.266 15.6058 2.30572
11 1 2 0.115888 18.266 13.716 0.969417
12 1 2 0.115888 18.266 7.37578 13.9447
13 1 2 0.11589 25.3934 11.4908 8.12521
14 1 2 0.11589 11.1386 9.60096 6.7889
15 1 2 0.115888 11.1386 11.4908 8.12521
16 1 2 0.115888 25.3934 9.60096 6.7889
17 1 2 0.115889 15.5206 8.96083 0.969417
18 1 2 0.115889 21.0114 12.1309 13.9447
19 1 2 0.115888 22.648 13.0758 12.6084
20 1 2 0.115888 13.884 8.01592 2.30572
21 1 2 0.115889 21.0114 3.90092 8.12521
22 1 2 0.115889 15.5206 17.1908 6.7889
23 1 2 0.115887 13.884 16.2459 8.12521
24 1 2 0.115887 22.648 4.84583 6.7889
25 1 2 0.115889 22.648 16.2459 8.12521
26 1 2 0.115889 13.884 4.84583 6.7889
27 1 2 0.115887 15.5206 3.90092 8.12521
28 1 2 0.115887 21.0114 17.1908 6.7889
29 1 2 0.115889 21.0114 8.96083 0.969417
30 1 2 0.115889 15.5206 12.1309 13.9447
31 1 2 0.115887 13.884 13.0758 12.6084
32 1 2 0.115887 22.648 8.01592 2.30572
33 1 3 0.671939 27.399 18.7442 13.2542
34 1 3 0.671939 9.13299 2.34751 1.65994
35 1 3 0.671939 27.399 12.8934 9.117
36 1 3 0.671939 9.13299 8.19836 5.79712
37 1 3 0.67194 24.8655 14.3561 13.2542
38 1 3 0.67194 11.6665 6.73565 1.65994
39 1 3 0.67194 29.9325 17.2815 9.117
40 1 3 0.67194 6.5995 3.81022 5.79712
41 1 3 0.67194 24.8655 17.2815 9.117
42 1 3 0.67194 11.6665 3.81022 5.79712
43 1 3 0.67194 29.9325 14.3561 13.2542
44 1 3 0.67194 6.5995 6.73565 1.65994
45 1 3 -0.11508 27.399 19.957 14.1117
46 1 3 -0.11508 9.13299 1.13474 0.802379
47 1 3 -0.11508 27.399 11.6806 8.25944
48 1 3 -0.11508 9.13299 9.41113 6.65468
49 1 3 -0.11508 23.8152 13.7497 14.1117
50 1 3 -0.11508 12.7168 7.34203 0.802379
51 1 3 -0.11508 30.9828 17.8879 8.25944
52 1 3 -0.11508 5.54921 3.20384 6.65468
53 1 3 -0.11508 23.8152 17.8879 8.25944
54 1 3 -0.11508 12.7168 3.20384 6.65468
55 1 3 -0.11508 30.9828 13.7497 14.1117
56 1 3 -0.11508 5.54921 7.34203 0.802379
57 1 3 -0.0559 18.266 5.39949 13.5316
58 1 3 -0.0559 18.266 15.6923 1.38254
59 1 3 -0.055903 18.266 14.5575 0.580159
60 1 3 -0.055903 18.266 6.53422 14.334
61 1 3 -0.0559 26.1971 11.1132 7.85825
62 1 3 -0.0559 10.3349 9.9785 7.05587
63 1 3 -0.055903 10.3349 11.1132 7.85825
64 1 3 -0.055903 26.1971 9.9785 7.05587
65 1 3 -0.0559 14.7918 8.54005 0.580159
66 1 3 -0.0559 21.7402 12.5517 14.334
67 1 3 -0.055903 22.7229 13.1191 13.5316
68 1 3 -0.055903 13.8091 7.97268 1.38254
69 1 3 -0.0559 21.7402 3.39366 7.85825
70 1 3 -0.0559 14.7918 17.6981 7.05587
71 1 3 -0.055903 13.8091 17.1307 7.85825
72 1 3 -0.055903 22.7229 3.96103 7.05587
73 1 3 -0.055901 22.7229 17.1307 7.85825
74 1 3 -0.055901 13.8091 3.96103 7.05587
75 1 3 -0.055903 14.7918 3.39366 7.85825
76 1 3 -0.055903 21.7402 17.6981 7.05587
77 1 3 -0.0559 21.7402 8.54005 0.580159
78 1 3 -0.0559 14.7918 12.5517 14.334
79 1 3 -0.055903 13.8091 13.1191 13.5316
80 1 3 -0.055903 22.7229 7.97268 1.38254
81 1 4 -1.26215 27.399 15.8188 11.1856
82 1 4 -1.26215 9.13299 5.27293 3.72853
83 1 4 -0.60118 27.399 18.9383 11.9641
84 1 4 -0.60118 9.13299 2.15347 2.95001
85 1 4 -0.601179 27.399 17.5926 13.8671
86 1 4 -0.601179 9.13299 3.49912 1.04697
87 1 4 -0.601179 26.2336 13.3722 9.45555
88 1 4 -0.601179 10.2984 7.71958 5.45857
89 1 4 -0.60118 28.5643 13.3722 9.45555
90 1 4 -0.60118 7.96762 7.71958 5.45857
91 1 4 -0.60118 25.8628 14.9319 13.8671
92 1 4 -0.60118 10.6692 6.15984 1.04697
93 1 4 -0.601179 24.6974 14.2591 11.9641
94 1 4 -0.601179 11.8345 6.83267 2.95001
95 1 4 -0.60118 28.9351 18.0514 9.45555
96 1 4 -0.60118 7.59682 3.04037 5.45857
97 1 4 -0.601179 30.1005 16.0329 9.45555
98 1 4 -0.601179 6.43145 5.05885 5.45857
99 1 4 -0.601179 24.6974 16.0329 9.45555
100 1 4 -0.601179 11.8345 5.05885 5.45857
101 1 4 -0.60118 25.8628 18.0514 9.45555
102 1 4 -0.60118 10.6692 3.04037 5.45857
103 1 4 -0.60118 28.9351 14.9319 13.8671
104 1 4 -0.60118 7.59682 6.15984 1.04697
105 1 4 -0.60118 30.1005 14.2591 11.9641
106 1 4 -0.60118 6.43145 6.83267 2.95001
284 61 5 -0.35 27.9089 17.3603 6.4368
285 61 6 0.7 18.2937 2.56035 6.16275
286 61 5 -0.35 17.8115 3.57915 5.8887
629 176 5 -0.35 27.1351 14.9833 4.03283
630 176 6 0.7 27.1314 13.9227 4.5026
631 176 5 -0.35 27.1276 12.8621 4.97237
635 178 5 -0.35 23.7154 10.4631 11.4603
636 178 6 0.7 23.698 10.0842 10.3641
637 178 5 -0.35 23.6806 9.70533 9.26784
641 180 5 -0.35 17.1549 5.54004 0.452902
642 180 6 0.7 16.2182 5.29186 1.09049
643 180 5 -0.35 15.2814 5.04368 1.72808
644 181 5 -0.35 14.0009 2.17071 0.885393
645 181 6 0.7 13.6397 3.04036 0.208044
646 181 5 -0.35 22.4114 9.18295 14.4448
653 184 5 -0.35 28.5409 11.1921 11.9108
654 184 6 0.7 11.2444 11.3057 11.2839
655 184 5 -0.35 12.2138 11.4194 10.6571
659 186 5 -0.35 21.4698 13.6646 1.94581
660 186 6 0.7 22.1532 12.9805 1.30515
661 186 5 -0.35 22.8366 12.2963 0.6645
662 187 5 -0.35 8.58121 6.20294 11.2422
663 187 6 0.7 26.0901 6.59074 10.4535
664 187 5 -0.35 25.333 6.97854 9.66484
668 189 5 -0.35 21.6636 8.44484 5.56696
669 189 6 0.7 21.9765 9.20141 4.74522
670 189 5 -0.35 22.2895 9.95797 3.92347
ITEM: TIMESTEP
87000
ITEM: NUMBER OF ATOMS
145
ITEM: BOX BOUNDS xy xz yz pp pp pp
0.0000000000000000e+00 3.6531964750000000e+01 9.1329911900000003e+00
0.0000000000000000e+00 2.1091739680000000e+01 9.1329911900000003e+00
0.0000000000000000e+00 1.4914112149999999e+01 5.2729349200000000e+00
ITEM: ATOMS id mol type q x y z
1 1 1 1.10383 27.399 17.6496 10.5383
2 1 1 1.10383 9.13299 3.44217 4.3758
3 1 1 1.10383 27.399 15.8188 13.1274
4 1 1 1.10383 9.13299 5.27293 1.78671
5 1 1 1.10383 25.8135 14.9034 10.5383
6 1 1 1.10383 10.7185 6.18832 4.3758
7 1 1 1.10383 28.9845 14.9034 10.5383
8 1 1 1.10383 7.5475 6.18832 4.3758
9 1 2 0.115889 18.266 5.48596 12.6084
10 1 2 0.115889 18.266 15.6058 2.30572
11 1 2 0.115888 18.266 13.716 0.969417
12 1 2 0.115888 18.266 7.37578 13.9447
13 1 2 0.11589 25.3934 11.4908 8.12521
14 1 2 0.11589 11.1386 9.60096 6.7889
15 1 2 0.115888 11.1386 11.4908 8.12521
16 1 2 0.115888 25.3934 9.60096 6.7889
17 1 2 0.115889 15.5206 8.96083 0.969417
18 1 2 0.115889 21.0114 12.1309 13.9447
19 1 2 0.115888 22.648 13.0758 12.6084
20 1 2 0.115888 13.884 8.01592 2.30572
21 1 2 0.115889 21.0114 3.90092 8.12521
22 1 2 0.115889 15.5206 17.1908 6.7889
23 1 2 0.115887 13.884 16.2459 8.12521
24 1 2 0.115887 22.648 4.84583 6.7889
25 1 2 0.115889 22.648 16.2459 8.12521
26 1 2 0.115889 13.884 4.84583 6.7889
27 1 2 0.115887 15.5206 3.90092 8.12521
28 1 2 0.115887 21.0114 17.1908 6.7889
29 1 2 0.115889 21.0114 8.96083 0.969417
30 1 2 0.115889 15.5206 12.1309 13.9447
31 1 2 0.115887 13.884 13.0758 12.6084
32 1 2 0.115887 22.648 8.01592 2.30572
33 1 3 0.671939 27.399 18.7442 13.2542
34 1 3 0.671939 9.13299 2.34751 1.65994
35 1 3 0.671939 27.399 12.8934 9.117
36 1 3 0.671939 9.13299 8.19836 5.79712
37 1 3 0.67194 24.8655 14.3561 13.2542
38 1 3 0.67194 11.6665 6.73565 1.65994
39 1 3 0.67194 29.9325 17.2815 9.117
40 1 3 0.67194 6.5995 3.81022 5.79712
41 1 3 0.67194 24.8655 17.2815 9.117
42 1 3 0.67194 11.6665 3.81022 5.79712
43 1 3 0.67194 29.9325 14.3561 13.2542
44 1 3 0.67194 6.5995 6.73565 1.65994
45 1 3 -0.11508 27.399 19.957 14.1117
46 1 3 -0.11508 9.13299 1.13474 0.802379
47 1 3 -0.11508 27.399 11.6806 8.25944
48 1 3 -0.11508 9.13299 9.41113 6.65468
49 1 3 -0.11508 23.8152 13.7497 14.1117
50 1 3 -0.11508 12.7168 7.34203 0.802379
51 1 3 -0.11508 30.9828 17.8879 8.25944
52 1 3 -0.11508 5.54921 3.20384 6.65468
53 1 3 -0.11508 23.8152 17.8879 8.25944
54 1 3 -0.11508 12.7168 3.20384 6.65468
55 1 3 -0.11508 30.9828 13.7497 14.1117
56 1 3 -0.11508 5.54921 7.34203 0.802379
57 1 3 -0.0559 18.266 5.39949 13.5316
58 1 3 -0.0559 18.266 15.6923 1.38254
59 1 3 -0.055903 18.266 14.5575 0.580159
60 1 3 -0.055903 18.266 6.53422 14.334
61 1 3 -0.0559 26.1971 11.1132 7.85825
62 1 3 -0.0559 10.3349 9.9785 7.05587
63 1 3 -0.055903 10.3349 11.1132 7.85825
64 1 3 -0.055903 26.1971 9.9785 7.05587
65 1 3 -0.0559 14.7918 8.54005 0.580159
66 1 3 -0.0559 21.7402 12.5517 14.334
67 1 3 -0.055903 22.7229 13.1191 13.5316
68 1 3 -0.055903 13.8091 7.97268 1.38254
69 1 3 -0.0559 21.7402 3.39366 7.85825
70 1 3 -0.0559 14.7918 17.6981 7.05587
71 1 3 -0.055903 13.8091 17.1307 7.85825
72 1 3 -0.055903 22.7229 3.96103 7.05587
73 1 3 -0.055901 22.7229 17.1307 7.85825
74 1 3 -0.055901 13.8091 3.96103 7.05587
75 1 3 -0.055903 14.7918 3.39366 7.85825
76 1 3 -0.055903 21.7402 17.6981 7.05587
77 1 3 -0.0559 21.7402 8.54005 0.580159
78 1 3 -0.0559 14.7918 12.5517 14.334
79 1 3 -0.055903 13.8091 13.1191 13.5316
80 1 3 -0.055903 22.7229 7.97268 1.38254
81 1 4 -1.26215 27.399 15.8188 11.1856
82 1 4 -1.26215 9.13299 5.27293 3.72853
83 1 4 -0.60118 27.399 18.9383 11.9641
84 1 4 -0.60118 9.13299 2.15347 2.95001
85 1 4 -0.601179 27.399 17.5926 13.8671
86 1 4 -0.601179 9.13299 3.49912 1.04697
87 1 4 -0.601179 26.2336 13.3722 9.45555
88 1 4 -0.601179 10.2984 7.71958 5.45857
89 1 4 -0.60118 28.5643 13.3722 9.45555
90 1 4 -0.60118 7.96762 7.71958 5.45857
91 1 4 -0.60118 25.8628 14.9319 13.8671
92 1 4 -0.60118 10.6692 6.15984 1.04697
93 1 4 -0.601179 24.6974 14.2591 11.9641
94 1 4 -0.601179 11.8345 6.83267 2.95001
95 1 4 -0.60118 28.9351 18.0514 9.45555
96 1 4 -0.60118 7.59682 3.04037 5.45857
97 1 4 -0.601179 30.1005 16.0329 9.45555
98 1 4 -0.601179 6.43145 5.05885 5.45857
99 1 4 -0.601179 24.6974 16.0329 9.45555
100 1 4 -0.601179 11.8345 5.05885 5.45857
101 1 4 -0.60118 25.8628 18.0514 9.45555
102 1 4 -0.60118 10.6692 3.04037 5.45857
103 1 4 -0.60118 28.9351 14.9319 13.8671
104 1 4 -0.60118 7.59682 6.15984 1.04697
105 1 4 -0.60118 30.1005 14.2591 11.9641
106 1 4 -0.60118 6.43145 6.83267 2.95001
2006 635 5 -0.35 15.9293 12.0442 1.0219
2007 635 6 0.7 16.9652 11.584 1.26843
2008 635 5 -0.35 18.0011 11.1238 1.51496
2045 648 5 -0.35 22.7139 16.7838 12.4831
2046 648 6 0.7 23.7079 17.3812 12.4577
2047 648 5 -0.35 24.7019 17.9787 12.4323
2057 652 5 -0.35 20.7503 6.72021 6.30425
2058 652 6 0.7 20.2725 6.38842 5.30067
2059 652 5 -0.35 19.7946 6.05663 4.29709
2063 654 5 -0.35 18.9773 17.8725 9.77826
2064 654 6 0.7 18.8902 18.621 8.89639
2065 654 5 -0.35 9.6701 3.55073 8.01451
2078 659 5 -0.35 16.5812 5.86643 10.4148
2079 659 6 0.7 17.2958 5.73276 9.51088
2080 659 5 -0.35 18.0104 5.59909 8.60698
2111 670 5 -0.35 20.9585 12.3423 0.943058
2112 670 6 0.7 30.4174 17.8873 14.7776
2113 670 5 -0.35 30.7434 18.1593 13.6981
2114 671 5 -0.35 15.7703 7.17471 6.3753
2115 671 6 0.7 15.7624 7.84252 5.42684
2116 671 5 -0.35 15.7546 8.51032 4.47838
2141 680 5 -0.35 6.45384 3.87166 9.51891
2142 680 6 0.7 33.0938 19.2683 10.2878
2143 680 5 -0.35 32.3347 18.8461 11.0567
2147 682 5 -0.35 19.1737 2.65232 6.28018
2148 682 6 0.7 18.9607 2.07662 5.29589
2149 682 5 -0.35 27.8808 17.3197 4.3116
2150 683 5 -0.35 19.1694 11.3312 11.9584
2151 683 6 0.7 18.6159 10.4273 12.4298
2152 683 5 -0.35 18.0623 9.52347 12.9012
2156 685 5 -0.35 9.34924 6.80633 9.21085
2157 685 6 0.7 8.21478 7.01114 9.33992
2158 685 5 -0.35 25.3463 7.21595 9.46898
2159 686 5 -0.35 28.19 10.7644 12.0124
2160 686 6 0.7 27.685 11.4518 12.7985
2161 686 5 -0.35 27.18 12.1392 13.5847
2165 688 5 -0.35 12.6032 6.09274 9.11317
2166 688 6 0.7 12.5716 5.08184 9.68123
2167 688 5 -0.35 12.5399 4.07095 10.2493
ITEM: TIMESTEP
88000
ITEM: NUMBER OF ATOMS
151
ITEM: BOX BOUNDS xy xz yz pp pp pp
0.0000000000000000e+00 3.6531964750000000e+01 9.1329911900000003e+00
0.0000000000000000e+00 2.1091739680000000e+01 9.1329911900000003e+00
0.0000000000000000e+00 1.4914112149999999e+01 5.2729349200000000e+00
ITEM: ATOMS id mol type q x y z
1 1 1 1.10383 27.399 17.6496 10.5383
2 1 1 1.10383 9.13299 3.44217 4.3758
3 1 1 1.10383 27.399 15.8188 13.1274
4 1 1 1.10383 9.13299 5.27293 1.78671
5 1 1 1.10383 25.8135 14.9034 10.5383
6 1 1 1.10383 10.7185 6.18832 4.3758
7 1 1 1.10383 28.9845 14.9034 10.5383
8 1 1 1.10383 7.5475 6.18832 4.3758
9 1 2 0.115889 18.266 5.48596 12.6084
10 1 2 0.115889 18.266 15.6058 2.30572
11 1 2 0.115888 18.266 13.716 0.969417
12 1 2 0.115888 18.266 7.37578 13.9447
13 1 2 0.11589 25.3934 11.4908 8.12521
14 1 2 0.11589 11.1386 9.60096 6.7889
15 1 2 0.115888 11.1386 11.4908 8.12521
16 1 2 0.115888 25.3934 9.60096 6.7889
17 1 2 0.115889 15.5206 8.96083 0.969417
18 1 2 0.115889 21.0114 12.1309 13.9447
19 1 2 0.115888 22.648 13.0758 12.6084
20 1 2 0.115888 13.884 8.01592 2.30572
21 1 2 0.115889 21.0114 3.90092 8.12521
22 1 2 0.115889 15.5206 17.1908 6.7889
23 1 2 0.115887 13.884 16.2459 8.12521
24 1 2 0.115887 22.648 4.84583 6.7889
25 1 2 0.115889 22.648 16.2459 8.12521
26 1 2 0.115889 13.884 4.84583 6.7889
27 1 2 0.115887 15.5206 3.90092 8.12521
28 1 2 0.115887 21.0114 17.1908 6.7889
29 1 2 0.115889 21.0114 8.96083 0.969417
30 1 2 0.115889 15.5206 12.1309 13.9447
31 1 2 0.115887 13.884 13.0758 12.6084
32 1 2 0.115887 22.648 8.01592 2.30572
33 1 3 0.671939 27.399 18.7442 13.2542
34 1 3 0.671939 9.13299 2.34751 1.65994
35 1 3 0.671939 27.399 12.8934 9.117
36 1 3 0.671939 9.13299 8.19836 5.79712
37 1 3 0.67194 24.8655 14.3561 13.2542
38 1 3 0.67194 11.6665 6.73565 1.65994
39 1 3 0.67194 29.9325 17.2815 9.117
40 1 3 0.67194 6.5995 3.81022 5.79712
41 1 3 0.67194 24.8655 17.2815 9.117
42 1 3 0.67194 11.6665 3.81022 5.79712
43 1 3 0.67194 29.9325 14.3561 13.2542
44 1 3 0.67194 6.5995 6.73565 1.65994
45 1 3 -0.11508 27.399 19.957 14.1117
46 1 3 -0.11508 9.13299 1.13474 0.802379
47 1 3 -0.11508 27.399 11.6806 8.25944
48 1 3 -0.11508 9.13299 9.41113 6.65468
49 1 3 -0.11508 23.8152 13.7497 14.1117
50 1 3 -0.11508 12.7168 7.34203 0.802379
51 1 3 -0.11508 30.9828 17.8879 8.25944
52 1 3 -0.11508 5.54921 3.20384 6.65468
53 1 3 -0.11508 23.8152 17.8879 8.25944
54 1 3 -0.11508 12.7168 3.20384 6.65468
55 1 3 -0.11508 30.9828 13.7497 14.1117
56 1 3 -0.11508 5.54921 7.34203 0.802379
57 1 3 -0.0559 18.266 5.39949 13.5316
58 1 3 -0.0559 18.266 15.6923 1.38254
59 1 3 -0.055903 18.266 14.5575 0.580159
60 1 3 -0.055903 18.266 6.53422 14.334
61 1 3 -0.0559 26.1971 11.1132 7.85825
62 1 3 -0.0559 10.3349 9.9785 7.05587
63 1 3 -0.055903 10.3349 11.1132 7.85825
64 1 3 -0.055903 26.1971 9.9785 7.05587
65 1 3 -0.0559 14.7918 8.54005 0.580159
66 1 3 -0.0559 21.7402 12.5517 14.334
67 1 3 -0.055903 22.7229 13.1191 13.5316
68 1 3 -0.055903 13.8091 7.97268 1.38254
69 1 3 -0.0559 21.7402 3.39366 7.85825
70 1 3 -0.0559 14.7918 17.6981 7.05587
71 1 3 -0.055903 13.8091 17.1307 7.85825
72 1 3 -0.055903 22.7229 3.96103 7.05587
73 1 3 -0.055901 22.7229 17.1307 7.85825
74 1 3 -0.055901 13.8091 3.96103 7.05587
75 1 3 -0.055903 14.7918 3.39366 7.85825
76 1 3 -0.055903 21.7402 17.6981 7.05587
77 1 3 -0.0559 21.7402 8.54005 0.580159
78 1 3 -0.0559 14.7918 12.5517 14.334
79 1 3 -0.055903 13.8091 13.1191 13.5316
80 1 3 -0.055903 22.7229 7.97268 1.38254
81 1 4 -1.26215 27.399 15.8188 11.1856
82 1 4 -1.26215 9.13299 5.27293 3.72853
83 1 4 -0.60118 27.399 18.9383 11.9641
84 1 4 -0.60118 9.13299 2.15347 2.95001
85 1 4 -0.601179 27.399 17.5926 13.8671
86 1 4 -0.601179 9.13299 3.49912 1.04697
87 1 4 -0.601179 26.2336 13.3722 9.45555
88 1 4 -0.601179 10.2984 7.71958 5.45857
89 1 4 -0.60118 28.5643 13.3722 9.45555
90 1 4 -0.60118 7.96762 7.71958 5.45857
91 1 4 -0.60118 25.8628 14.9319 13.8671
92 1 4 -0.60118 10.6692 6.15984 1.04697
93 1 4 -0.601179 24.6974 14.2591 11.9641
94 1 4 -0.601179 11.8345 6.83267 2.95001
95 1 4 -0.60118 28.9351 18.0514 9.45555
96 1 4 -0.60118 7.59682 3.04037 5.45857
97 1 4 -0.601179 30.1005 16.0329 9.45555
98 1 4 -0.601179 6.43145 5.05885 5.45857
99 1 4 -0.601179 24.6974 16.0329 9.45555
100 1 4 -0.601179 11.8345 5.05885 5.45857
101 1 4 -0.60118 25.8628 18.0514 9.45555
102 1 4 -0.60118 10.6692 3.04037 5.45857
103 1 4 -0.60118 28.9351 14.9319 13.8671
104 1 4 -0.60118 7.59682 6.15984 1.04697
105 1 4 -0.60118 30.1005 14.2591 11.9641
106 1 4 -0.60118 6.43145 6.83267 2.95001
638 179 5 -0.35 5.9997 2.96873 2.90223
639 179 6 0.7 5.90807 1.86611 2.55376
640 179 5 -0.35 14.9494 16.5823 2.20528
677 192 5 -0.35 24.2389 17.812 12.6264
678 192 6 0.7 24.0307 18.7964 12.0492
679 192 5 -0.35 23.8224 19.7808 11.472
722 207 5 -0.35 20.795 3.57265 3.56454
723 207 6 0.7 20.2647 2.86655 4.3167
724 207 5 -0.35 19.7343 2.16045 5.06886
740 213 5 -0.35 15.7732 12.3468 1.0532
741 213 6 0.7 14.6627 12.1215 0.804626
742 213 5 -0.35 13.5523 11.8963 0.556055
749 216 5 -0.35 11.1935 10.5019 2.02337
750 216 6 0.7 10.394 9.70525 2.29108
751 216 5 -0.35 9.59449 8.90856 2.55879
761 220 5 -0.35 16.7108 4.12514 4.25348
762 220 6 0.7 15.8192 4.38252 3.55742
763 220 5 -0.35 14.9277 4.6399 2.86136
782 227 5 -0.35 17.4604 7.50716 3.46085
783 227 6 0.7 17.898 7.52897 2.38679
784 227 5 -0.35 18.3357 7.55078 1.31274
791 230 5 -0.35 18.6357 16.7027 10.7585
792 230 6 0.7 19.1258 17.6591 10.3218
793 230 5 -0.35 19.6158 18.6155 9.88516
800 233 5 -0.35 9.15332 7.18901 9.91107
801 233 6 0.7 8.81797 6.34113 9.19396
802 233 5 -0.35 8.48262 5.49325 8.47685
803 234 5 -0.35 12.231 14.5889 1.70963
804 234 6 0.7 12.5242 14.582 0.587329
805 234 5 -0.35 21.9504 19.8481 14.3791
809 236 5 -0.35 20.5142 12.5515 10.5309
810 236 6 0.7 20.9825 13.6071 10.4206
811 236 5 -0.35 21.4508 14.6626 10.3104
815 238 5 -0.35 15.7694 2.6806 0.311563
816 238 6 0.7 14.6824 2.36674 0.567362
817 238 5 -0.35 13.5954 2.05287 0.823162
818 239 5 -0.35 18.7257 8.14192 8.33361
819 239 6 0.7 18.8576 7.05033 8.70325
820 239 5 -0.35 18.9895 5.95874 9.0729
821 240 5 -0.35 14.0522 12.7606 6.39159
822 240 6 0.7 14.1259 12.7739 5.23401
823 240 5 -0.35 14.1996 12.7871 4.07643
824 241 5 -0.35 19.107 10.5233 5.53933
825 241 6 0.7 18.0645 11.0211 5.64427
826 241 5 -0.35 17.022 11.5189 5.74921
ITEM: TIMESTEP
89000
ITEM: NUMBER OF ATOMS
124
ITEM: BOX BOUNDS xy xz yz pp pp pp
0.0000000000000000e+00 3.6531964750000000e+01 9.1329911900000003e+00
0.0000000000000000e+00 2.1091739680000000e+01 9.1329911900000003e+00
0.0000000000000000e+00 1.4914112149999999e+01 5.2729349200000000e+00
ITEM: ATOMS id mol type q x y z
1 1 1 1.10383 27.399 17.6496 10.5383
2 1 1 1.10383 9.13299 3.44217 4.3758
3 1 1 1.10383 27.399 15.8188 13.1274
4 1 1 1.10383 9.13299 5.27293 1.78671
5 1 1 1.10383 25.8135 14.9034 10.5383
6 1 1 1.10383 10.7185 6.18832 4.3758
7 1 1 1.10383 28.9845 14.9034 10.5383
8 1 1 1.10383 7.5475 6.18832 4.3758
9 1 2 0.115889 18.266 5.48596 12.6084
10 1 2 0.115889 18.266 15.6058 2.30572
11 1 2 0.115888 18.266 13.716 0.969417
12 1 2 0.115888 18.266 7.37578 13.9447
13 1 2 0.11589 25.3934 11.4908 8.12521
14 1 2 0.11589 11.1386 9.60096 6.7889
15 1 2 0.115888 11.1386 11.4908 8.12521
16 1 2 0.115888 25.3934 9.60096 6.7889
17 1 2 0.115889 15.5206 8.96083 0.969417
18 1 2 0.115889 21.0114 12.1309 13.9447
19 1 2 0.115888 22.648 13.0758 12.6084
20 1 2 0.115888 13.884 8.01592 2.30572
21 1 2 0.115889 21.0114 3.90092 8.12521
22 1 2 0.115889 15.5206 17.1908 6.7889
23 1 2 0.115887 13.884 16.2459 8.12521
24 1 2 0.115887 22.648 4.84583 6.7889
25 1 2 0.115889 22.648 16.2459 8.12521
26 1 2 0.115889 13.884 4.84583 6.7889
27 1 2 0.115887 15.5206 3.90092 8.12521
28 1 2 0.115887 21.0114 17.1908 6.7889
29 1 2 0.115889 21.0114 8.96083 0.969417
30 1 2 0.115889 15.5206 12.1309 13.9447
31 1 2 0.115887 13.884 13.0758 12.6084
32 1 2 0.115887 22.648 8.01592 2.30572
33 1 3 0.671939 27.399 18.7442 13.2542
34 1 3 0.671939 9.13299 2.34751 1.65994
35 1 3 0.671939 27.399 12.8934 9.117
36 1 3 0.671939 9.13299 8.19836 5.79712
37 1 3 0.67194 24.8655 14.3561 13.2542
38 1 3 0.67194 11.6665 6.73565 1.65994
39 1 3 0.67194 29.9325 17.2815 9.117
40 1 3 0.67194 6.5995 3.81022 5.79712
41 1 3 0.67194 24.8655 17.2815 9.117
42 1 3 0.67194 11.6665 3.81022 5.79712
43 1 3 0.67194 29.9325 14.3561 13.2542
44 1 3 0.67194 6.5995 6.73565 1.65994
45 1 3 -0.11508 27.399 19.957 14.1117
46 1 3 -0.11508 9.13299 1.13474 0.802379
47 1 3 -0.11508 27.399 11.6806 8.25944
48 1 3 -0.11508 9.13299 9.41113 6.65468
49 1 3 -0.11508 23.8152 13.7497 14.1117
50 1 3 -0.11508 12.7168 7.34203 0.802379
51 1 3 -0.11508 30.9828 17.8879 8.25944
52 1 3 -0.11508 5.54921 3.20384 6.65468
53 1 3 -0.11508 23.8152 17.8879 8.25944
54 1 3 -0.11508 12.7168 3.20384 6.65468
55 1 3 -0.11508 30.9828 13.7497 14.1117
56 1 3 -0.11508 5.54921 7.34203 0.802379
57 1 3 -0.0559 18.266 5.39949 13.5316
58 1 3 -0.0559 18.266 15.6923 1.38254
59 1 3 -0.055903 18.266 14.5575 0.580159
60 1 3 -0.055903 18.266 6.53422 14.334
61 1 3 -0.0559 26.1971 11.1132 7.85825
62 1 3 -0.0559 10.3349 9.9785 7.05587
63 1 3 -0.055903 10.3349 11.1132 7.85825
64 1 3 -0.055903 26.1971 9.9785 7.05587
65 1 3 -0.0559 14.7918 8.54005 0.580159
66 1 3 -0.0559 21.7402 12.5517 14.334
67 1 3 -0.055903 22.7229 13.1191 13.5316
68 1 3 -0.055903 13.8091 7.97268 1.38254
69 1 3 -0.0559 21.7402 3.39366 7.85825
70 1 3 -0.0559 14.7918 17.6981 7.05587
71 1 3 -0.055903 13.8091 17.1307 7.85825
72 1 3 -0.055903 22.7229 3.96103 7.05587
73 1 3 -0.055901 22.7229 17.1307 7.85825
74 1 3 -0.055901 13.8091 3.96103 7.05587
75 1 3 -0.055903 14.7918 3.39366 7.85825
76 1 3 -0.055903 21.7402 17.6981 7.05587
77 1 3 -0.0559 21.7402 8.54005 0.580159
78 1 3 -0.0559 14.7918 12.5517 14.334
79 1 3 -0.055903 13.8091 13.1191 13.5316
80 1 3 -0.055903 22.7229 7.97268 1.38254
81 1 4 -1.26215 27.399 15.8188 11.1856
82 1 4 -1.26215 9.13299 5.27293 3.72853
83 1 4 -0.60118 27.399 18.9383 11.9641
84 1 4 -0.60118 9.13299 2.15347 2.95001
85 1 4 -0.601179 27.399 17.5926 13.8671
86 1 4 -0.601179 9.13299 3.49912 1.04697
87 1 4 -0.601179 26.2336 13.3722 9.45555
88 1 4 -0.601179 10.2984 7.71958 5.45857
89 1 4 -0.60118 28.5643 13.3722 9.45555
90 1 4 -0.60118 7.96762 7.71958 5.45857
91 1 4 -0.60118 25.8628 14.9319 13.8671
92 1 4 -0.60118 10.6692 6.15984 1.04697
93 1 4 -0.601179 24.6974 14.2591 11.9641
94 1 4 -0.601179 11.8345 6.83267 2.95001
95 1 4 -0.60118 28.9351 18.0514 9.45555
96 1 4 -0.60118 7.59682 3.04037 5.45857
97 1 4 -0.601179 30.1005 16.0329 9.45555
98 1 4 -0.601179 6.43145 5.05885 5.45857
99 1 4 -0.601179 24.6974 16.0329 9.45555
100 1 4 -0.601179 11.8345 5.05885 5.45857
101 1 4 -0.60118 25.8628 18.0514 9.45555
102 1 4 -0.60118 10.6692 3.04037 5.45857
103 1 4 -0.60118 28.9351 14.9319 13.8671
104 1 4 -0.60118 7.59682 6.15984 1.04697
105 1 4 -0.60118 30.1005 14.2591 11.9641
106 1 4 -0.60118 6.43145 6.83267 2.95001
1691 530 5 -0.35 25.9323 6.47444 9.68412
1692 530 6 0.7 8.20121 6.06835 8.73832
1693 530 5 -0.35 8.73614 5.66225 7.79252
1727 542 5 -0.35 15.2049 12.1863 0.994254
1728 542 6 0.7 24.3726 17.6319 14.7618
1729 542 5 -0.35 24.4073 17.8045 13.6153
1796 565 5 -0.35 12.4149 3.21521 2.70294
1797 565 6 0.7 12.2809 2.08278 2.91564
1798 565 5 -0.35 21.2799 16.7691 3.12834
1817 572 5 -0.35 19.331 11.176 1.56306
1818 572 6 0.7 18.6766 10.2282 1.70114
1819 572 5 -0.35 18.0221 9.28048 1.83923
1820 573 5 -0.35 17.7635 6.44826 0.112116
1821 573 6 0.7 17.3971 6.32382 1.20569
1822 573 5 -0.35 17.0308 6.19938 2.29926
1826 575 5 -0.35 23.0317 14.9022 0.398138
1827 575 6 0.7 32.1756 20.7326 14.295
1828 575 5 -0.35 23.0536 5.47122 13.2778
ITEM: TIMESTEP
90000
ITEM: NUMBER OF ATOMS
127
ITEM: BOX BOUNDS xy xz yz pp pp pp
0.0000000000000000e+00 3.6531964750000000e+01 9.1329911900000003e+00
0.0000000000000000e+00 2.1091739680000000e+01 9.1329911900000003e+00
0.0000000000000000e+00 1.4914112149999999e+01 5.2729349200000000e+00
ITEM: ATOMS id mol type q x y z
1 1 1 1.10383 27.399 17.6496 10.5383
2 1 1 1.10383 9.13299 3.44217 4.3758
3 1 1 1.10383 27.399 15.8188 13.1274
4 1 1 1.10383 9.13299 5.27293 1.78671
5 1 1 1.10383 25.8135 14.9034 10.5383
6 1 1 1.10383 10.7185 6.18832 4.3758
7 1 1 1.10383 28.9845 14.9034 10.5383
8 1 1 1.10383 7.5475 6.18832 4.3758
9 1 2 0.115889 18.266 5.48596 12.6084
10 1 2 0.115889 18.266 15.6058 2.30572
11 1 2 0.115888 18.266 13.716 0.969417
12 1 2 0.115888 18.266 7.37578 13.9447
13 1 2 0.11589 25.3934 11.4908 8.12521
14 1 2 0.11589 11.1386 9.60096 6.7889
15 1 2 0.115888 11.1386 11.4908 8.12521
16 1 2 0.115888 25.3934 9.60096 6.7889
17 1 2 0.115889 15.5206 8.96083 0.969417
18 1 2 0.115889 21.0114 12.1309 13.9447
19 1 2 0.115888 22.648 13.0758 12.6084
20 1 2 0.115888 13.884 8.01592 2.30572
21 1 2 0.115889 21.0114 3.90092 8.12521
22 1 2 0.115889 15.5206 17.1908 6.7889
23 1 2 0.115887 13.884 16.2459 8.12521
24 1 2 0.115887 22.648 4.84583 6.7889
25 1 2 0.115889 22.648 16.2459 8.12521
26 1 2 0.115889 13.884 4.84583 6.7889
27 1 2 0.115887 15.5206 3.90092 8.12521
28 1 2 0.115887 21.0114 17.1908 6.7889
29 1 2 0.115889 21.0114 8.96083 0.969417
30 1 2 0.115889 15.5206 12.1309 13.9447
31 1 2 0.115887 13.884 13.0758 12.6084
32 1 2 0.115887 22.648 8.01592 2.30572
33 1 3 0.671939 27.399 18.7442 13.2542
34 1 3 0.671939 9.13299 2.34751 1.65994
35 1 3 0.671939 27.399 12.8934 9.117
36 1 3 0.671939 9.13299 8.19836 5.79712
37 1 3 0.67194 24.8655 14.3561 13.2542
38 1 3 0.67194 11.6665 6.73565 1.65994
39 1 3 0.67194 29.9325 17.2815 9.117
40 1 3 0.67194 6.5995 3.81022 5.79712
41 1 3 0.67194 24.8655 17.2815 9.117
42 1 3 0.67194 11.6665 3.81022 5.79712
43 1 3 0.67194 29.9325 14.3561 13.2542
44 1 3 0.67194 6.5995 6.73565 1.65994
45 1 3 -0.11508 27.399 19.957 14.1117
46 1 3 -0.11508 9.13299 1.13474 0.802379
47 1 3 -0.11508 27.399 11.6806 8.25944
48 1 3 -0.11508 9.13299 9.41113 6.65468
49 1 3 -0.11508 23.8152 13.7497 14.1117
50 1 3 -0.11508 12.7168 7.34203 0.802379
51 1 3 -0.11508 30.9828 17.8879 8.25944
52 1 3 -0.11508 5.54921 3.20384 6.65468
53 1 3 -0.11508 23.8152 17.8879 8.25944
54 1 3 -0.11508 12.7168 3.20384 6.65468
55 1 3 -0.11508 30.9828 13.7497 14.1117
56 1 3 -0.11508 5.54921 7.34203 0.802379
57 1 3 -0.0559 18.266 5.39949 13.5316
58 1 3 -0.0559 18.266 15.6923 1.38254
59 1 3 -0.055903 18.266 14.5575 0.580159
60 1 3 -0.055903 18.266 6.53422 14.334
61 1 3 -0.0559 26.1971 11.1132 7.85825
62 1 3 -0.0559 10.3349 9.9785 7.05587
63 1 3 -0.055903 10.3349 11.1132 7.85825
64 1 3 -0.055903 26.1971 9.9785 7.05587
65 1 3 -0.0559 14.7918 8.54005 0.580159
66 1 3 -0.0559 21.7402 12.5517 14.334
67 1 3 -0.055903 22.7229 13.1191 13.5316
68 1 3 -0.055903 13.8091 7.97268 1.38254
69 1 3 -0.0559 21.7402 3.39366 7.85825
70 1 3 -0.0559 14.7918 17.6981 7.05587
71 1 3 -0.055903 13.8091 17.1307 7.85825
72 1 3 -0.055903 22.7229 3.96103 7.05587
73 1 3 -0.055901 22.7229 17.1307 7.85825
74 1 3 -0.055901 13.8091 3.96103 7.05587
75 1 3 -0.055903 14.7918 3.39366 7.85825
76 1 3 -0.055903 21.7402 17.6981 7.05587
77 1 3 -0.0559 21.7402 8.54005 0.580159
78 1 3 -0.0559 14.7918 12.5517 14.334
79 1 3 -0.055903 13.8091 13.1191 13.5316
80 1 3 -0.055903 22.7229 7.97268 1.38254
81 1 4 -1.26215 27.399 15.8188 11.1856
82 1 4 -1.26215 9.13299 5.27293 3.72853
83 1 4 -0.60118 27.399 18.9383 11.9641
84 1 4 -0.60118 9.13299 2.15347 2.95001
85 1 4 -0.601179 27.399 17.5926 13.8671
86 1 4 -0.601179 9.13299 3.49912 1.04697
87 1 4 -0.601179 26.2336 13.3722 9.45555
88 1 4 -0.601179 10.2984 7.71958 5.45857
89 1 4 -0.60118 28.5643 13.3722 9.45555
90 1 4 -0.60118 7.96762 7.71958 5.45857
91 1 4 -0.60118 25.8628 14.9319 13.8671
92 1 4 -0.60118 10.6692 6.15984 1.04697
93 1 4 -0.601179 24.6974 14.2591 11.9641
94 1 4 -0.601179 11.8345 6.83267 2.95001
95 1 4 -0.60118 28.9351 18.0514 9.45555
96 1 4 -0.60118 7.59682 3.04037 5.45857
97 1 4 -0.601179 30.1005 16.0329 9.45555
98 1 4 -0.601179 6.43145 5.05885 5.45857
99 1 4 -0.601179 24.6974 16.0329 9.45555
100 1 4 -0.601179 11.8345 5.05885 5.45857
101 1 4 -0.60118 25.8628 18.0514 9.45555
102 1 4 -0.60118 10.6692 3.04037 5.45857
103 1 4 -0.60118 28.9351 14.9319 13.8671
104 1 4 -0.60118 7.59682 6.15984 1.04697
105 1 4 -0.60118 30.1005 14.2591 11.9641
106 1 4 -0.60118 6.43145 6.83267 2.95001
3236 1045 5 -0.35 14.2049 2.10693 3.77196
3237 1045 6 0.7 13.3459 2.62265 3.18738
3238 1045 5 -0.35 12.4869 3.13836 2.6028
3278 1059 5 -0.35 28.8559 14.7316 5.88792
3279 1059 6 0.7 11.4356 14.1485 6.42676
3280 1059 5 -0.35 12.2813 13.5654 6.96561
3347 1082 5 -0.35 26.2561 11.5616 14.8854
3348 1082 6 0.7 26.7712 11.9998 13.943
3349 1082 5 -0.35 27.2864 12.4379 13.0005
3362 1087 5 -0.35 26.9995 9.58533 11.0695
3363 1087 6 0.7 26.8893 8.62929 10.4218
3364 1087 5 -0.35 8.51307 7.67326 9.77418
3386 1095 5 -0.35 22.0625 4.71168 3.41992
3387 1095 6 0.7 4.24924 4.09181 2.55021
3388 1095 5 -0.35 4.70196 3.47193 1.6805
3398 1099 5 -0.35 6.98452 4.92372 8.94515
3399 1099 6 0.7 24.7363 4.47254 9.88198
3400 1099 5 -0.35 24.2221 4.02136 10.8188
3404 1101 5 -0.35 20.8994 16.654 13.4248
3405 1101 6 0.7 21.1114 16.2718 14.4993
3406 1101 5 -0.35 12.1904 10.6167 0.65974
ITEM: TIMESTEP
91000
ITEM: NUMBER OF ATOMS
127
ITEM: BOX BOUNDS xy xz yz pp pp pp
0.0000000000000000e+00 3.6531964750000000e+01 9.1329911900000003e+00
0.0000000000000000e+00 2.1091739680000000e+01 9.1329911900000003e+00
0.0000000000000000e+00 1.4914112149999999e+01 5.2729349200000000e+00
ITEM: ATOMS id mol type q x y z
1 1 1 1.10383 27.399 17.6496 10.5383
2 1 1 1.10383 9.13299 3.44217 4.3758
3 1 1 1.10383 27.399 15.8188 13.1274
4 1 1 1.10383 9.13299 5.27293 1.78671
5 1 1 1.10383 25.8135 14.9034 10.5383
6 1 1 1.10383 10.7185 6.18832 4.3758
7 1 1 1.10383 28.9845 14.9034 10.5383
8 1 1 1.10383 7.5475 6.18832 4.3758
9 1 2 0.115889 18.266 5.48596 12.6084
10 1 2 0.115889 18.266 15.6058 2.30572
11 1 2 0.115888 18.266 13.716 0.969417
12 1 2 0.115888 18.266 7.37578 13.9447
13 1 2 0.11589 25.3934 11.4908 8.12521
14 1 2 0.11589 11.1386 9.60096 6.7889
15 1 2 0.115888 11.1386 11.4908 8.12521
16 1 2 0.115888 25.3934 9.60096 6.7889
17 1 2 0.115889 15.5206 8.96083 0.969417
18 1 2 0.115889 21.0114 12.1309 13.9447
19 1 2 0.115888 22.648 13.0758 12.6084
20 1 2 0.115888 13.884 8.01592 2.30572
21 1 2 0.115889 21.0114 3.90092 8.12521
22 1 2 0.115889 15.5206 17.1908 6.7889
23 1 2 0.115887 13.884 16.2459 8.12521
24 1 2 0.115887 22.648 4.84583 6.7889
25 1 2 0.115889 22.648 16.2459 8.12521
26 1 2 0.115889 13.884 4.84583 6.7889
27 1 2 0.115887 15.5206 3.90092 8.12521
28 1 2 0.115887 21.0114 17.1908 6.7889
29 1 2 0.115889 21.0114 8.96083 0.969417
30 1 2 0.115889 15.5206 12.1309 13.9447
31 1 2 0.115887 13.884 13.0758 12.6084
32 1 2 0.115887 22.648 8.01592 2.30572
33 1 3 0.671939 27.399 18.7442 13.2542
34 1 3 0.671939 9.13299 2.34751 1.65994
35 1 3 0.671939 27.399 12.8934 9.117
36 1 3 0.671939 9.13299 8.19836 5.79712
37 1 3 0.67194 24.8655 14.3561 13.2542
38 1 3 0.67194 11.6665 6.73565 1.65994
39 1 3 0.67194 29.9325 17.2815 9.117
40 1 3 0.67194 6.5995 3.81022 5.79712
41 1 3 0.67194 24.8655 17.2815 9.117
42 1 3 0.67194 11.6665 3.81022 5.79712
43 1 3 0.67194 29.9325 14.3561 13.2542
44 1 3 0.67194 6.5995 6.73565 1.65994
45 1 3 -0.11508 27.399 19.957 14.1117
46 1 3 -0.11508 9.13299 1.13474 0.802379
47 1 3 -0.11508 27.399 11.6806 8.25944
48 1 3 -0.11508 9.13299 9.41113 6.65468
49 1 3 -0.11508 23.8152 13.7497 14.1117
50 1 3 -0.11508 12.7168 7.34203 0.802379
51 1 3 -0.11508 30.9828 17.8879 8.25944
52 1 3 -0.11508 5.54921 3.20384 6.65468
53 1 3 -0.11508 23.8152 17.8879 8.25944
54 1 3 -0.11508 12.7168 3.20384 6.65468
55 1 3 -0.11508 30.9828 13.7497 14.1117
56 1 3 -0.11508 5.54921 7.34203 0.802379
57 1 3 -0.0559 18.266 5.39949 13.5316
58 1 3 -0.0559 18.266 15.6923 1.38254
59 1 3 -0.055903 18.266 14.5575 0.580159
60 1 3 -0.055903 18.266 6.53422 14.334
61 1 3 -0.0559 26.1971 11.1132 7.85825
62 1 3 -0.0559 10.3349 9.9785 7.05587
63 1 3 -0.055903 10.3349 11.1132 7.85825
64 1 3 -0.055903 26.1971 9.9785 7.05587
65 1 3 -0.0559 14.7918 8.54005 0.580159
66 1 3 -0.0559 21.7402 12.5517 14.334
67 1 3 -0.055903 22.7229 13.1191 13.5316
68 1 3 -0.055903 13.8091 7.97268 1.38254
69 1 3 -0.0559 21.7402 3.39366 7.85825
70 1 3 -0.0559 14.7918 17.6981 7.05587
71 1 3 -0.055903 13.8091 17.1307 7.85825
72 1 3 -0.055903 22.7229 3.96103 7.05587
73 1 3 -0.055901 22.7229 17.1307 7.85825
74 1 3 -0.055901 13.8091 3.96103 7.05587
75 1 3 -0.055903 14.7918 3.39366 7.85825
76 1 3 -0.055903 21.7402 17.6981 7.05587
77 1 3 -0.0559 21.7402 8.54005 0.580159
78 1 3 -0.0559 14.7918 12.5517 14.334
79 1 3 -0.055903 13.8091 13.1191 13.5316
80 1 3 -0.055903 22.7229 7.97268 1.38254
81 1 4 -1.26215 27.399 15.8188 11.1856
82 1 4 -1.26215 9.13299 5.27293 3.72853
83 1 4 -0.60118 27.399 18.9383 11.9641
84 1 4 -0.60118 9.13299 2.15347 2.95001
85 1 4 -0.601179 27.399 17.5926 13.8671
86 1 4 -0.601179 9.13299 3.49912 1.04697
87 1 4 -0.601179 26.2336 13.3722 9.45555
88 1 4 -0.601179 10.2984 7.71958 5.45857
89 1 4 -0.60118 28.5643 13.3722 9.45555
90 1 4 -0.60118 7.96762 7.71958 5.45857
91 1 4 -0.60118 25.8628 14.9319 13.8671
92 1 4 -0.60118 10.6692 6.15984 1.04697
93 1 4 -0.601179 24.6974 14.2591 11.9641
94 1 4 -0.601179 11.8345 6.83267 2.95001
95 1 4 -0.60118 28.9351 18.0514 9.45555
96 1 4 -0.60118 7.59682 3.04037 5.45857
97 1 4 -0.601179 30.1005 16.0329 9.45555
98 1 4 -0.601179 6.43145 5.05885 5.45857
99 1 4 -0.601179 24.6974 16.0329 9.45555
100 1 4 -0.601179 11.8345 5.05885 5.45857
101 1 4 -0.60118 25.8628 18.0514 9.45555
102 1 4 -0.60118 10.6692 3.04037 5.45857
103 1 4 -0.60118 28.9351 14.9319 13.8671
104 1 4 -0.60118 7.59682 6.15984 1.04697
105 1 4 -0.60118 30.1005 14.2591 11.9641
106 1 4 -0.60118 6.43145 6.83267 2.95001
4832 1577 5 -0.35 14.6639 4.53216 3.34262
4833 1577 6 0.7 13.6772 4.13813 2.87705
4834 1577 5 -0.35 12.6905 3.74411 2.41148
4859 1586 5 -0.35 20.2241 19.436 11.1262
4860 1586 6 0.7 19.8095 19.2377 10.0611
4861 1586 5 -0.35 10.2618 3.22056 8.99607
4865 1588 5 -0.35 23.434 11.7057 1.22268
4866 1588 6 0.7 24.2995 10.9488 1.06899
4867 1588 5 -0.35 6.89892 10.1918 0.915286
4874 1591 5 -0.35 20.5295 11.3203 2.25033
4875 1591 6 0.7 20.6763 12.0961 1.40053
4876 1591 5 -0.35 20.8231 12.8719 0.550735
4892 1597 5 -0.35 14.4041 9.38262 14.7146
4893 1597 6 0.7 14.5441 9.21852 13.5748
4894 1597 5 -0.35 14.6841 9.05443 12.435
4901 1600 5 -0.35 17.307 6.18572 1.12967
4902 1600 6 0.7 17.1149 5.79371 0.0549516
4903 1600 5 -0.35 26.0557 10.6746 13.8943
4904 1601 5 -0.35 20.6549 3.57482 4.58092
4905 1601 6 0.7 19.9176 3.9874 3.78617
4906 1601 5 -0.35 19.1802 4.39998 2.99143
ITEM: TIMESTEP
92000
ITEM: NUMBER OF ATOMS
124
ITEM: BOX BOUNDS xy xz yz pp pp pp
0.0000000000000000e+00 3.6531964750000000e+01 9.1329911900000003e+00
0.0000000000000000e+00 2.1091739680000000e+01 9.1329911900000003e+00
0.0000000000000000e+00 1.4914112149999999e+01 5.2729349200000000e+00
ITEM: ATOMS id mol type q x y z
1 1 1 1.10383 27.399 17.6496 10.5383
2 1 1 1.10383 9.13299 3.44217 4.3758
3 1 1 1.10383 27.399 15.8188 13.1274
4 1 1 1.10383 9.13299 5.27293 1.78671
5 1 1 1.10383 25.8135 14.9034 10.5383
6 1 1 1.10383 10.7185 6.18832 4.3758
7 1 1 1.10383 28.9845 14.9034 10.5383
8 1 1 1.10383 7.5475 6.18832 4.3758
9 1 2 0.115889 18.266 5.48596 12.6084
10 1 2 0.115889 18.266 15.6058 2.30572
11 1 2 0.115888 18.266 13.716 0.969417
12 1 2 0.115888 18.266 7.37578 13.9447
13 1 2 0.11589 25.3934 11.4908 8.12521
14 1 2 0.11589 11.1386 9.60096 6.7889
15 1 2 0.115888 11.1386 11.4908 8.12521
16 1 2 0.115888 25.3934 9.60096 6.7889
17 1 2 0.115889 15.5206 8.96083 0.969417
18 1 2 0.115889 21.0114 12.1309 13.9447
19 1 2 0.115888 22.648 13.0758 12.6084
20 1 2 0.115888 13.884 8.01592 2.30572
21 1 2 0.115889 21.0114 3.90092 8.12521
22 1 2 0.115889 15.5206 17.1908 6.7889
23 1 2 0.115887 13.884 16.2459 8.12521
24 1 2 0.115887 22.648 4.84583 6.7889
25 1 2 0.115889 22.648 16.2459 8.12521
26 1 2 0.115889 13.884 4.84583 6.7889
27 1 2 0.115887 15.5206 3.90092 8.12521
28 1 2 0.115887 21.0114 17.1908 6.7889
29 1 2 0.115889 21.0114 8.96083 0.969417
30 1 2 0.115889 15.5206 12.1309 13.9447
31 1 2 0.115887 13.884 13.0758 12.6084
32 1 2 0.115887 22.648 8.01592 2.30572
33 1 3 0.671939 27.399 18.7442 13.2542
34 1 3 0.671939 9.13299 2.34751 1.65994
35 1 3 0.671939 27.399 12.8934 9.117
36 1 3 0.671939 9.13299 8.19836 5.79712
37 1 3 0.67194 24.8655 14.3561 13.2542
38 1 3 0.67194 11.6665 6.73565 1.65994
39 1 3 0.67194 29.9325 17.2815 9.117
40 1 3 0.67194 6.5995 3.81022 5.79712
41 1 3 0.67194 24.8655 17.2815 9.117
42 1 3 0.67194 11.6665 3.81022 5.79712
43 1 3 0.67194 29.9325 14.3561 13.2542
44 1 3 0.67194 6.5995 6.73565 1.65994
45 1 3 -0.11508 27.399 19.957 14.1117
46 1 3 -0.11508 9.13299 1.13474 0.802379
47 1 3 -0.11508 27.399 11.6806 8.25944
48 1 3 -0.11508 9.13299 9.41113 6.65468
49 1 3 -0.11508 23.8152 13.7497 14.1117
50 1 3 -0.11508 12.7168 7.34203 0.802379
51 1 3 -0.11508 30.9828 17.8879 8.25944
52 1 3 -0.11508 5.54921 3.20384 6.65468
53 1 3 -0.11508 23.8152 17.8879 8.25944
54 1 3 -0.11508 12.7168 3.20384 6.65468
55 1 3 -0.11508 30.9828 13.7497 14.1117
56 1 3 -0.11508 5.54921 7.34203 0.802379
57 1 3 -0.0559 18.266 5.39949 13.5316
58 1 3 -0.0559 18.266 15.6923 1.38254
59 1 3 -0.055903 18.266 14.5575 0.580159
60 1 3 -0.055903 18.266 6.53422 14.334
61 1 3 -0.0559 26.1971 11.1132 7.85825
62 1 3 -0.0559 10.3349 9.9785 7.05587
63 1 3 -0.055903 10.3349 11.1132 7.85825
64 1 3 -0.055903 26.1971 9.9785 7.05587
65 1 3 -0.0559 14.7918 8.54005 0.580159
66 1 3 -0.0559 21.7402 12.5517 14.334
67 1 3 -0.055903 22.7229 13.1191 13.5316
68 1 3 -0.055903 13.8091 7.97268 1.38254
69 1 3 -0.0559 21.7402 3.39366 7.85825
70 1 3 -0.0559 14.7918 17.6981 7.05587
71 1 3 -0.055903 13.8091 17.1307 7.85825
72 1 3 -0.055903 22.7229 3.96103 7.05587
73 1 3 -0.055901 22.7229 17.1307 7.85825
74 1 3 -0.055901 13.8091 3.96103 7.05587
75 1 3 -0.055903 14.7918 3.39366 7.85825
76 1 3 -0.055903 21.7402 17.6981 7.05587
77 1 3 -0.0559 21.7402 8.54005 0.580159
78 1 3 -0.0559 14.7918 12.5517 14.334
79 1 3 -0.055903 13.8091 13.1191 13.5316
80 1 3 -0.055903 22.7229 7.97268 1.38254
81 1 4 -1.26215 27.399 15.8188 11.1856
82 1 4 -1.26215 9.13299 5.27293 3.72853
83 1 4 -0.60118 27.399 18.9383 11.9641
84 1 4 -0.60118 9.13299 2.15347 2.95001
85 1 4 -0.601179 27.399 17.5926 13.8671
86 1 4 -0.601179 9.13299 3.49912 1.04697
87 1 4 -0.601179 26.2336 13.3722 9.45555
88 1 4 -0.601179 10.2984 7.71958 5.45857
89 1 4 -0.60118 28.5643 13.3722 9.45555
90 1 4 -0.60118 7.96762 7.71958 5.45857
91 1 4 -0.60118 25.8628 14.9319 13.8671
92 1 4 -0.60118 10.6692 6.15984 1.04697
93 1 4 -0.601179 24.6974 14.2591 11.9641
94 1 4 -0.601179 11.8345 6.83267 2.95001
95 1 4 -0.60118 28.9351 18.0514 9.45555
96 1 4 -0.60118 7.59682 3.04037 5.45857
97 1 4 -0.601179 30.1005 16.0329 9.45555
98 1 4 -0.601179 6.43145 5.05885 5.45857
99 1 4 -0.601179 24.6974 16.0329 9.45555
100 1 4 -0.601179 11.8345 5.05885 5.45857
101 1 4 -0.60118 25.8628 18.0514 9.45555
102 1 4 -0.60118 10.6692 3.04037 5.45857
103 1 4 -0.60118 28.9351 14.9319 13.8671
104 1 4 -0.60118 7.59682 6.15984 1.04697
105 1 4 -0.60118 30.1005 14.2591 11.9641
106 1 4 -0.60118 6.43145 6.83267 2.95001
6182 2027 5 -0.35 8.99101 8.81284 0.438265
6183 2027 6 0.7 18.1389 13.953 14.2001
6184 2027 5 -0.35 18.1538 13.8202 13.0478
6266 2055 5 -0.35 14.566 14.5668 9.94531
6267 2055 6 0.7 14.0504 13.9389 9.11737
6268 2055 5 -0.35 13.5348 13.311 8.28943
6269 2056 5 -0.35 14.7419 16.8091 11.3157
6270 2056 6 0.7 15.2175 16.1937 12.1764
6271 2056 5 -0.35 15.6931 15.5784 13.037
6287 2062 5 -0.35 9.09245 3.06174 8.62251
6288 2062 6 0.7 18.3567 17.829 8.1507
6289 2062 5 -0.35 18.488 16.7774 7.67889
6290 2063 5 -0.35 22.588 16.4874 12.2289
6291 2063 6 0.7 21.8201 16.1229 11.4395
6292 2063 5 -0.35 21.0522 15.7583 10.6502
6293 2064 5 -0.35 3.51898 2.96329 1.5009
6294 2064 6 0.7 4.56569 3.0645 1.01126
6295 2064 5 -0.35 5.6124 3.1657 0.52161
ITEM: TIMESTEP
93000
ITEM: NUMBER OF ATOMS
121
ITEM: BOX BOUNDS xy xz yz pp pp pp
0.0000000000000000e+00 3.6531964750000000e+01 9.1329911900000003e+00
0.0000000000000000e+00 2.1091739680000000e+01 9.1329911900000003e+00
0.0000000000000000e+00 1.4914112149999999e+01 5.2729349200000000e+00
ITEM: ATOMS id mol type q x y z
1 1 1 1.10383 27.399 17.6496 10.5383
2 1 1 1.10383 9.13299 3.44217 4.3758
3 1 1 1.10383 27.399 15.8188 13.1274
4 1 1 1.10383 9.13299 5.27293 1.78671
5 1 1 1.10383 25.8135 14.9034 10.5383
6 1 1 1.10383 10.7185 6.18832 4.3758
7 1 1 1.10383 28.9845 14.9034 10.5383
8 1 1 1.10383 7.5475 6.18832 4.3758
9 1 2 0.115889 18.266 5.48596 12.6084
10 1 2 0.115889 18.266 15.6058 2.30572
11 1 2 0.115888 18.266 13.716 0.969417
12 1 2 0.115888 18.266 7.37578 13.9447
13 1 2 0.11589 25.3934 11.4908 8.12521
14 1 2 0.11589 11.1386 9.60096 6.7889
15 1 2 0.115888 11.1386 11.4908 8.12521
16 1 2 0.115888 25.3934 9.60096 6.7889
17 1 2 0.115889 15.5206 8.96083 0.969417
18 1 2 0.115889 21.0114 12.1309 13.9447
19 1 2 0.115888 22.648 13.0758 12.6084
20 1 2 0.115888 13.884 8.01592 2.30572
21 1 2 0.115889 21.0114 3.90092 8.12521
22 1 2 0.115889 15.5206 17.1908 6.7889
23 1 2 0.115887 13.884 16.2459 8.12521
24 1 2 0.115887 22.648 4.84583 6.7889
25 1 2 0.115889 22.648 16.2459 8.12521
26 1 2 0.115889 13.884 4.84583 6.7889
27 1 2 0.115887 15.5206 3.90092 8.12521
28 1 2 0.115887 21.0114 17.1908 6.7889
29 1 2 0.115889 21.0114 8.96083 0.969417
30 1 2 0.115889 15.5206 12.1309 13.9447
31 1 2 0.115887 13.884 13.0758 12.6084
32 1 2 0.115887 22.648 8.01592 2.30572
33 1 3 0.671939 27.399 18.7442 13.2542
34 1 3 0.671939 9.13299 2.34751 1.65994
35 1 3 0.671939 27.399 12.8934 9.117
36 1 3 0.671939 9.13299 8.19836 5.79712
37 1 3 0.67194 24.8655 14.3561 13.2542
38 1 3 0.67194 11.6665 6.73565 1.65994
39 1 3 0.67194 29.9325 17.2815 9.117
40 1 3 0.67194 6.5995 3.81022 5.79712
41 1 3 0.67194 24.8655 17.2815 9.117
42 1 3 0.67194 11.6665 3.81022 5.79712
43 1 3 0.67194 29.9325 14.3561 13.2542
44 1 3 0.67194 6.5995 6.73565 1.65994
45 1 3 -0.11508 27.399 19.957 14.1117
46 1 3 -0.11508 9.13299 1.13474 0.802379
47 1 3 -0.11508 27.399 11.6806 8.25944
48 1 3 -0.11508 9.13299 9.41113 6.65468
49 1 3 -0.11508 23.8152 13.7497 14.1117
50 1 3 -0.11508 12.7168 7.34203 0.802379
51 1 3 -0.11508 30.9828 17.8879 8.25944
52 1 3 -0.11508 5.54921 3.20384 6.65468
53 1 3 -0.11508 23.8152 17.8879 8.25944
54 1 3 -0.11508 12.7168 3.20384 6.65468
55 1 3 -0.11508 30.9828 13.7497 14.1117
56 1 3 -0.11508 5.54921 7.34203 0.802379
57 1 3 -0.0559 18.266 5.39949 13.5316
58 1 3 -0.0559 18.266 15.6923 1.38254
59 1 3 -0.055903 18.266 14.5575 0.580159
60 1 3 -0.055903 18.266 6.53422 14.334
61 1 3 -0.0559 26.1971 11.1132 7.85825
62 1 3 -0.0559 10.3349 9.9785 7.05587
63 1 3 -0.055903 10.3349 11.1132 7.85825
64 1 3 -0.055903 26.1971 9.9785 7.05587
65 1 3 -0.0559 14.7918 8.54005 0.580159
66 1 3 -0.0559 21.7402 12.5517 14.334
67 1 3 -0.055903 22.7229 13.1191 13.5316
68 1 3 -0.055903 13.8091 7.97268 1.38254
69 1 3 -0.0559 21.7402 3.39366 7.85825
70 1 3 -0.0559 14.7918 17.6981 7.05587
71 1 3 -0.055903 13.8091 17.1307 7.85825
72 1 3 -0.055903 22.7229 3.96103 7.05587
73 1 3 -0.055901 22.7229 17.1307 7.85825
74 1 3 -0.055901 13.8091 3.96103 7.05587
75 1 3 -0.055903 14.7918 3.39366 7.85825
76 1 3 -0.055903 21.7402 17.6981 7.05587
77 1 3 -0.0559 21.7402 8.54005 0.580159
78 1 3 -0.0559 14.7918 12.5517 14.334
79 1 3 -0.055903 13.8091 13.1191 13.5316
80 1 3 -0.055903 22.7229 7.97268 1.38254
81 1 4 -1.26215 27.399 15.8188 11.1856
82 1 4 -1.26215 9.13299 5.27293 3.72853
83 1 4 -0.60118 27.399 18.9383 11.9641
84 1 4 -0.60118 9.13299 2.15347 2.95001
85 1 4 -0.601179 27.399 17.5926 13.8671
86 1 4 -0.601179 9.13299 3.49912 1.04697
87 1 4 -0.601179 26.2336 13.3722 9.45555
88 1 4 -0.601179 10.2984 7.71958 5.45857
89 1 4 -0.60118 28.5643 13.3722 9.45555
90 1 4 -0.60118 7.96762 7.71958 5.45857
91 1 4 -0.60118 25.8628 14.9319 13.8671
92 1 4 -0.60118 10.6692 6.15984 1.04697
93 1 4 -0.601179 24.6974 14.2591 11.9641
94 1 4 -0.601179 11.8345 6.83267 2.95001
95 1 4 -0.60118 28.9351 18.0514 9.45555
96 1 4 -0.60118 7.59682 3.04037 5.45857
97 1 4 -0.601179 30.1005 16.0329 9.45555
98 1 4 -0.601179 6.43145 5.05885 5.45857
99 1 4 -0.601179 24.6974 16.0329 9.45555
100 1 4 -0.601179 11.8345 5.05885 5.45857
101 1 4 -0.60118 25.8628 18.0514 9.45555
102 1 4 -0.60118 10.6692 3.04037 5.45857
103 1 4 -0.60118 28.9351 14.9319 13.8671
104 1 4 -0.60118 7.59682 6.15984 1.04697
105 1 4 -0.60118 30.1005 14.2591 11.9641
106 1 4 -0.60118 6.43145 6.83267 2.95001
7655 2518 5 -0.35 20.2867 5.82449 5.23922
7656 2518 6 0.7 20.4398 5.88018 4.09072
7657 2518 5 -0.35 20.5929 5.93586 2.94222
7670 2523 5 -0.35 17.5021 6.66553 3.86592
7671 2523 6 0.7 17.2374 6.67512 2.73657
7672 2523 5 -0.35 16.9726 6.68471 1.60722
7673 2524 5 -0.35 27.0026 11.8155 13.1044
7674 2524 6 0.7 26.1686 11.0097 13.0791
7675 2524 5 -0.35 25.3345 10.2039 13.0539
7676 2525 5 -0.35 13.3196 2.45782 1.55719
7677 2525 6 0.7 12.9506 3.18141 0.729048
7678 2525 5 -0.35 21.7145 9.17794 14.815
7679 2526 5 -0.35 22.8677 6.05898 11.3695
7680 2526 6 0.7 21.8754 5.72258 10.8716
7681 2526 5 -0.35 20.8832 5.38617 10.3738
ITEM: TIMESTEP
94000
ITEM: NUMBER OF ATOMS
136
ITEM: BOX BOUNDS xy xz yz pp pp pp
0.0000000000000000e+00 3.6531964750000000e+01 9.1329911900000003e+00
0.0000000000000000e+00 2.1091739680000000e+01 9.1329911900000003e+00
0.0000000000000000e+00 1.4914112149999999e+01 5.2729349200000000e+00
ITEM: ATOMS id mol type q x y z
1 1 1 1.10383 27.399 17.6496 10.5383
2 1 1 1.10383 9.13299 3.44217 4.3758
3 1 1 1.10383 27.399 15.8188 13.1274
4 1 1 1.10383 9.13299 5.27293 1.78671
5 1 1 1.10383 25.8135 14.9034 10.5383
6 1 1 1.10383 10.7185 6.18832 4.3758
7 1 1 1.10383 28.9845 14.9034 10.5383
8 1 1 1.10383 7.5475 6.18832 4.3758
9 1 2 0.115889 18.266 5.48596 12.6084
10 1 2 0.115889 18.266 15.6058 2.30572
11 1 2 0.115888 18.266 13.716 0.969417
12 1 2 0.115888 18.266 7.37578 13.9447
13 1 2 0.11589 25.3934 11.4908 8.12521
14 1 2 0.11589 11.1386 9.60096 6.7889
15 1 2 0.115888 11.1386 11.4908 8.12521
16 1 2 0.115888 25.3934 9.60096 6.7889
17 1 2 0.115889 15.5206 8.96083 0.969417
18 1 2 0.115889 21.0114 12.1309 13.9447
19 1 2 0.115888 22.648 13.0758 12.6084
20 1 2 0.115888 13.884 8.01592 2.30572
21 1 2 0.115889 21.0114 3.90092 8.12521
22 1 2 0.115889 15.5206 17.1908 6.7889
23 1 2 0.115887 13.884 16.2459 8.12521
24 1 2 0.115887 22.648 4.84583 6.7889
25 1 2 0.115889 22.648 16.2459 8.12521
26 1 2 0.115889 13.884 4.84583 6.7889
27 1 2 0.115887 15.5206 3.90092 8.12521
28 1 2 0.115887 21.0114 17.1908 6.7889
29 1 2 0.115889 21.0114 8.96083 0.969417
30 1 2 0.115889 15.5206 12.1309 13.9447
31 1 2 0.115887 13.884 13.0758 12.6084
32 1 2 0.115887 22.648 8.01592 2.30572
33 1 3 0.671939 27.399 18.7442 13.2542
34 1 3 0.671939 9.13299 2.34751 1.65994
35 1 3 0.671939 27.399 12.8934 9.117
36 1 3 0.671939 9.13299 8.19836 5.79712
37 1 3 0.67194 24.8655 14.3561 13.2542
38 1 3 0.67194 11.6665 6.73565 1.65994
39 1 3 0.67194 29.9325 17.2815 9.117
40 1 3 0.67194 6.5995 3.81022 5.79712
41 1 3 0.67194 24.8655 17.2815 9.117
42 1 3 0.67194 11.6665 3.81022 5.79712
43 1 3 0.67194 29.9325 14.3561 13.2542
44 1 3 0.67194 6.5995 6.73565 1.65994
45 1 3 -0.11508 27.399 19.957 14.1117
46 1 3 -0.11508 9.13299 1.13474 0.802379
47 1 3 -0.11508 27.399 11.6806 8.25944
48 1 3 -0.11508 9.13299 9.41113 6.65468
49 1 3 -0.11508 23.8152 13.7497 14.1117
50 1 3 -0.11508 12.7168 7.34203 0.802379
51 1 3 -0.11508 30.9828 17.8879 8.25944
52 1 3 -0.11508 5.54921 3.20384 6.65468
53 1 3 -0.11508 23.8152 17.8879 8.25944
54 1 3 -0.11508 12.7168 3.20384 6.65468
55 1 3 -0.11508 30.9828 13.7497 14.1117
56 1 3 -0.11508 5.54921 7.34203 0.802379
57 1 3 -0.0559 18.266 5.39949 13.5316
58 1 3 -0.0559 18.266 15.6923 1.38254
59 1 3 -0.055903 18.266 14.5575 0.580159
60 1 3 -0.055903 18.266 6.53422 14.334
61 1 3 -0.0559 26.1971 11.1132 7.85825
62 1 3 -0.0559 10.3349 9.9785 7.05587
63 1 3 -0.055903 10.3349 11.1132 7.85825
64 1 3 -0.055903 26.1971 9.9785 7.05587
65 1 3 -0.0559 14.7918 8.54005 0.580159
66 1 3 -0.0559 21.7402 12.5517 14.334
67 1 3 -0.055903 22.7229 13.1191 13.5316
68 1 3 -0.055903 13.8091 7.97268 1.38254
69 1 3 -0.0559 21.7402 3.39366 7.85825
70 1 3 -0.0559 14.7918 17.6981 7.05587
71 1 3 -0.055903 13.8091 17.1307 7.85825
72 1 3 -0.055903 22.7229 3.96103 7.05587
73 1 3 -0.055901 22.7229 17.1307 7.85825
74 1 3 -0.055901 13.8091 3.96103 7.05587
75 1 3 -0.055903 14.7918 3.39366 7.85825
76 1 3 -0.055903 21.7402 17.6981 7.05587
77 1 3 -0.0559 21.7402 8.54005 0.580159
78 1 3 -0.0559 14.7918 12.5517 14.334
79 1 3 -0.055903 13.8091 13.1191 13.5316
80 1 3 -0.055903 22.7229 7.97268 1.38254
81 1 4 -1.26215 27.399 15.8188 11.1856
82 1 4 -1.26215 9.13299 5.27293 3.72853
83 1 4 -0.60118 27.399 18.9383 11.9641
84 1 4 -0.60118 9.13299 2.15347 2.95001
85 1 4 -0.601179 27.399 17.5926 13.8671
86 1 4 -0.601179 9.13299 3.49912 1.04697
87 1 4 -0.601179 26.2336 13.3722 9.45555
88 1 4 -0.601179 10.2984 7.71958 5.45857
89 1 4 -0.60118 28.5643 13.3722 9.45555
90 1 4 -0.60118 7.96762 7.71958 5.45857
91 1 4 -0.60118 25.8628 14.9319 13.8671
92 1 4 -0.60118 10.6692 6.15984 1.04697
93 1 4 -0.601179 24.6974 14.2591 11.9641
94 1 4 -0.601179 11.8345 6.83267 2.95001
95 1 4 -0.60118 28.9351 18.0514 9.45555
96 1 4 -0.60118 7.59682 3.04037 5.45857
97 1 4 -0.601179 30.1005 16.0329 9.45555
98 1 4 -0.601179 6.43145 5.05885 5.45857
99 1 4 -0.601179 24.6974 16.0329 9.45555
100 1 4 -0.601179 11.8345 5.05885 5.45857
101 1 4 -0.60118 25.8628 18.0514 9.45555
102 1 4 -0.60118 10.6692 3.04037 5.45857
103 1 4 -0.60118 28.9351 14.9319 13.8671
104 1 4 -0.60118 7.59682 6.15984 1.04697
105 1 4 -0.60118 30.1005 14.2591 11.9641
106 1 4 -0.60118 6.43145 6.83267 2.95001
797 232 5 -0.35 11.6345 10.8398 2.03607
798 232 6 0.7 10.7076 10.1942 1.77207
799 232 5 -0.35 9.7807 9.54869 1.50807
863 254 5 -0.35 6.38327 3.60792 2.71714
864 254 6 0.7 5.45574 3.72455 2.03034
865 254 5 -0.35 4.52822 3.84119 1.34354
929 276 5 -0.35 8.28788 7.48928 9.62344
930 276 6 0.7 26.4697 8.46724 10.2416
931 276 5 -0.35 26.3855 9.4452 10.8597
1076 325 5 -0.35 18.4098 17.6485 8.1707
1077 325 6 0.7 18.0763 16.5697 7.90516
1078 325 5 -0.35 17.7429 15.4909 7.63963
1079 326 5 -0.35 26.1971 10.3977 14.6306
1080 326 6 0.7 26.8063 11.1522 13.994
1081 326 5 -0.35 27.4155 11.9067 13.3575
1085 328 5 -0.35 20.7542 15.2529 12.1325
1086 328 6 0.7 20.5108 15.1518 11.0028
1087 328 5 -0.35 20.2673 15.0507 9.87315
1094 331 5 -0.35 21.8173 18.4824 14.075
1095 331 6 0.7 21.9306 18.2532 12.9435
1096 331 5 -0.35 22.044 18.0241 11.8121
1103 334 5 -0.35 30.5657 18.7563 11.798
1104 334 6 0.7 30.6866 19.8677 11.4886
1105 334 5 -0.35 21.6745 5.16026 11.1791
1106 335 5 -0.35 10.3412 12.2327 4.55874
1107 335 6 0.7 9.64185 12.5276 3.68151
1108 335 5 -0.35 8.9425 12.8225 2.80427
1109 336 5 -0.35 13.0378 7.60824 12.8716
1110 336 6 0.7 12.5895 7.75334 11.8116
1111 336 5 -0.35 12.1413 7.89843 10.7516
ITEM: TIMESTEP
95000
ITEM: NUMBER OF ATOMS
130
ITEM: BOX BOUNDS xy xz yz pp pp pp
0.0000000000000000e+00 3.6531964750000000e+01 9.1329911900000003e+00
0.0000000000000000e+00 2.1091739680000000e+01 9.1329911900000003e+00
0.0000000000000000e+00 1.4914112149999999e+01 5.2729349200000000e+00
ITEM: ATOMS id mol type q x y z
1 1 1 1.10383 27.399 17.6496 10.5383
2 1 1 1.10383 9.13299 3.44217 4.3758
3 1 1 1.10383 27.399 15.8188 13.1274
4 1 1 1.10383 9.13299 5.27293 1.78671
5 1 1 1.10383 25.8135 14.9034 10.5383
6 1 1 1.10383 10.7185 6.18832 4.3758
7 1 1 1.10383 28.9845 14.9034 10.5383
8 1 1 1.10383 7.5475 6.18832 4.3758
9 1 2 0.115889 18.266 5.48596 12.6084
10 1 2 0.115889 18.266 15.6058 2.30572
11 1 2 0.115888 18.266 13.716 0.969417
12 1 2 0.115888 18.266 7.37578 13.9447
13 1 2 0.11589 25.3934 11.4908 8.12521
14 1 2 0.11589 11.1386 9.60096 6.7889
15 1 2 0.115888 11.1386 11.4908 8.12521
16 1 2 0.115888 25.3934 9.60096 6.7889
17 1 2 0.115889 15.5206 8.96083 0.969417
18 1 2 0.115889 21.0114 12.1309 13.9447
19 1 2 0.115888 22.648 13.0758 12.6084
20 1 2 0.115888 13.884 8.01592 2.30572
21 1 2 0.115889 21.0114 3.90092 8.12521
22 1 2 0.115889 15.5206 17.1908 6.7889
23 1 2 0.115887 13.884 16.2459 8.12521
24 1 2 0.115887 22.648 4.84583 6.7889
25 1 2 0.115889 22.648 16.2459 8.12521
26 1 2 0.115889 13.884 4.84583 6.7889
27 1 2 0.115887 15.5206 3.90092 8.12521
28 1 2 0.115887 21.0114 17.1908 6.7889
29 1 2 0.115889 21.0114 8.96083 0.969417
30 1 2 0.115889 15.5206 12.1309 13.9447
31 1 2 0.115887 13.884 13.0758 12.6084
32 1 2 0.115887 22.648 8.01592 2.30572
33 1 3 0.671939 27.399 18.7442 13.2542
34 1 3 0.671939 9.13299 2.34751 1.65994
35 1 3 0.671939 27.399 12.8934 9.117
36 1 3 0.671939 9.13299 8.19836 5.79712
37 1 3 0.67194 24.8655 14.3561 13.2542
38 1 3 0.67194 11.6665 6.73565 1.65994
39 1 3 0.67194 29.9325 17.2815 9.117
40 1 3 0.67194 6.5995 3.81022 5.79712
41 1 3 0.67194 24.8655 17.2815 9.117
42 1 3 0.67194 11.6665 3.81022 5.79712
43 1 3 0.67194 29.9325 14.3561 13.2542
44 1 3 0.67194 6.5995 6.73565 1.65994
45 1 3 -0.11508 27.399 19.957 14.1117
46 1 3 -0.11508 9.13299 1.13474 0.802379
47 1 3 -0.11508 27.399 11.6806 8.25944
48 1 3 -0.11508 9.13299 9.41113 6.65468
49 1 3 -0.11508 23.8152 13.7497 14.1117
50 1 3 -0.11508 12.7168 7.34203 0.802379
51 1 3 -0.11508 30.9828 17.8879 8.25944
52 1 3 -0.11508 5.54921 3.20384 6.65468
53 1 3 -0.11508 23.8152 17.8879 8.25944
54 1 3 -0.11508 12.7168 3.20384 6.65468
55 1 3 -0.11508 30.9828 13.7497 14.1117
56 1 3 -0.11508 5.54921 7.34203 0.802379
57 1 3 -0.0559 18.266 5.39949 13.5316
58 1 3 -0.0559 18.266 15.6923 1.38254
59 1 3 -0.055903 18.266 14.5575 0.580159
60 1 3 -0.055903 18.266 6.53422 14.334
61 1 3 -0.0559 26.1971 11.1132 7.85825
62 1 3 -0.0559 10.3349 9.9785 7.05587
63 1 3 -0.055903 10.3349 11.1132 7.85825
64 1 3 -0.055903 26.1971 9.9785 7.05587
65 1 3 -0.0559 14.7918 8.54005 0.580159
66 1 3 -0.0559 21.7402 12.5517 14.334
67 1 3 -0.055903 22.7229 13.1191 13.5316
68 1 3 -0.055903 13.8091 7.97268 1.38254
69 1 3 -0.0559 21.7402 3.39366 7.85825
70 1 3 -0.0559 14.7918 17.6981 7.05587
71 1 3 -0.055903 13.8091 17.1307 7.85825
72 1 3 -0.055903 22.7229 3.96103 7.05587
73 1 3 -0.055901 22.7229 17.1307 7.85825
74 1 3 -0.055901 13.8091 3.96103 7.05587
75 1 3 -0.055903 14.7918 3.39366 7.85825
76 1 3 -0.055903 21.7402 17.6981 7.05587
77 1 3 -0.0559 21.7402 8.54005 0.580159
78 1 3 -0.0559 14.7918 12.5517 14.334
79 1 3 -0.055903 13.8091 13.1191 13.5316
80 1 3 -0.055903 22.7229 7.97268 1.38254
81 1 4 -1.26215 27.399 15.8188 11.1856
82 1 4 -1.26215 9.13299 5.27293 3.72853
83 1 4 -0.60118 27.399 18.9383 11.9641
84 1 4 -0.60118 9.13299 2.15347 2.95001
85 1 4 -0.601179 27.399 17.5926 13.8671
86 1 4 -0.601179 9.13299 3.49912 1.04697
87 1 4 -0.601179 26.2336 13.3722 9.45555
88 1 4 -0.601179 10.2984 7.71958 5.45857
89 1 4 -0.60118 28.5643 13.3722 9.45555
90 1 4 -0.60118 7.96762 7.71958 5.45857
91 1 4 -0.60118 25.8628 14.9319 13.8671
92 1 4 -0.60118 10.6692 6.15984 1.04697
93 1 4 -0.601179 24.6974 14.2591 11.9641
94 1 4 -0.601179 11.8345 6.83267 2.95001
95 1 4 -0.60118 28.9351 18.0514 9.45555
96 1 4 -0.60118 7.59682 3.04037 5.45857
97 1 4 -0.601179 30.1005 16.0329 9.45555
98 1 4 -0.601179 6.43145 5.05885 5.45857
99 1 4 -0.601179 24.6974 16.0329 9.45555
100 1 4 -0.601179 11.8345 5.05885 5.45857
101 1 4 -0.60118 25.8628 18.0514 9.45555
102 1 4 -0.60118 10.6692 3.04037 5.45857
103 1 4 -0.60118 28.9351 14.9319 13.8671
104 1 4 -0.60118 7.59682 6.15984 1.04697
105 1 4 -0.60118 30.1005 14.2591 11.9641
106 1 4 -0.60118 6.43145 6.83267 2.95001
2456 785 5 -0.35 22.2819 16.8445 12.5459
2457 785 6 0.7 21.736 17.8636 12.4506
2458 785 5 -0.35 21.1902 18.8828 12.3553
2534 811 5 -0.35 21.9826 7.29624 13.6771
2535 811 6 0.7 21.6474 7.05007 12.5942
2536 811 5 -0.35 21.3121 6.8039 11.5113
2537 812 5 -0.35 28.0316 11.9743 13.8014
2538 812 6 0.7 27.1085 11.4403 14.258
2539 812 5 -0.35 26.1855 10.9062 14.7145
2612 837 5 -0.35 27.1049 9.75782 11.7158
2613 837 6 0.7 26.9175 8.80967 11.0743
2614 837 5 -0.35 26.7301 7.86152 10.4328
2621 840 5 -0.35 9.79311 9.73493 0.807612
2622 840 6 0.7 10.7266 10.3944 0.609217
2623 840 5 -0.35 11.66 11.0538 0.410823
2651 850 5 -0.35 18.7793 5.7861 5.57599
2652 850 6 0.7 18.9205 5.81834 4.42506
2653 850 5 -0.35 19.0616 5.85059 3.27413
2657 852 5 -0.35 16.3157 5.01269 3.32716
2658 852 6 0.7 15.2392 4.60123 3.45926
2659 852 5 -0.35 14.1627 4.18977 3.59136
2660 853 5 -0.35 3.47658 4.59479 1.69408
2661 853 6 0.7 3.61331 3.60076 1.11201
2662 853 5 -0.35 3.75004 2.60672 0.529946
ITEM: TIMESTEP
96000
ITEM: NUMBER OF ATOMS
133
ITEM: BOX BOUNDS xy xz yz pp pp pp
0.0000000000000000e+00 3.6531964750000000e+01 9.1329911900000003e+00
0.0000000000000000e+00 2.1091739680000000e+01 9.1329911900000003e+00
0.0000000000000000e+00 1.4914112149999999e+01 5.2729349200000000e+00
ITEM: ATOMS id mol type q x y z
1 1 1 1.10383 27.399 17.6496 10.5383
2 1 1 1.10383 9.13299 3.44217 4.3758
3 1 1 1.10383 27.399 15.8188 13.1274
4 1 1 1.10383 9.13299 5.27293 1.78671
5 1 1 1.10383 25.8135 14.9034 10.5383
6 1 1 1.10383 10.7185 6.18832 4.3758
7 1 1 1.10383 28.9845 14.9034 10.5383
8 1 1 1.10383 7.5475 6.18832 4.3758
9 1 2 0.115889 18.266 5.48596 12.6084
10 1 2 0.115889 18.266 15.6058 2.30572
11 1 2 0.115888 18.266 13.716 0.969417
12 1 2 0.115888 18.266 7.37578 13.9447
13 1 2 0.11589 25.3934 11.4908 8.12521
14 1 2 0.11589 11.1386 9.60096 6.7889
15 1 2 0.115888 11.1386 11.4908 8.12521
16 1 2 0.115888 25.3934 9.60096 6.7889
17 1 2 0.115889 15.5206 8.96083 0.969417
18 1 2 0.115889 21.0114 12.1309 13.9447
19 1 2 0.115888 22.648 13.0758 12.6084
20 1 2 0.115888 13.884 8.01592 2.30572
21 1 2 0.115889 21.0114 3.90092 8.12521
22 1 2 0.115889 15.5206 17.1908 6.7889
23 1 2 0.115887 13.884 16.2459 8.12521
24 1 2 0.115887 22.648 4.84583 6.7889
25 1 2 0.115889 22.648 16.2459 8.12521
26 1 2 0.115889 13.884 4.84583 6.7889
27 1 2 0.115887 15.5206 3.90092 8.12521
28 1 2 0.115887 21.0114 17.1908 6.7889
29 1 2 0.115889 21.0114 8.96083 0.969417
30 1 2 0.115889 15.5206 12.1309 13.9447
31 1 2 0.115887 13.884 13.0758 12.6084
32 1 2 0.115887 22.648 8.01592 2.30572
33 1 3 0.671939 27.399 18.7442 13.2542
34 1 3 0.671939 9.13299 2.34751 1.65994
35 1 3 0.671939 27.399 12.8934 9.117
36 1 3 0.671939 9.13299 8.19836 5.79712
37 1 3 0.67194 24.8655 14.3561 13.2542
38 1 3 0.67194 11.6665 6.73565 1.65994
39 1 3 0.67194 29.9325 17.2815 9.117
40 1 3 0.67194 6.5995 3.81022 5.79712
41 1 3 0.67194 24.8655 17.2815 9.117
42 1 3 0.67194 11.6665 3.81022 5.79712
43 1 3 0.67194 29.9325 14.3561 13.2542
44 1 3 0.67194 6.5995 6.73565 1.65994
45 1 3 -0.11508 27.399 19.957 14.1117
46 1 3 -0.11508 9.13299 1.13474 0.802379
47 1 3 -0.11508 27.399 11.6806 8.25944
48 1 3 -0.11508 9.13299 9.41113 6.65468
49 1 3 -0.11508 23.8152 13.7497 14.1117
50 1 3 -0.11508 12.7168 7.34203 0.802379
51 1 3 -0.11508 30.9828 17.8879 8.25944
52 1 3 -0.11508 5.54921 3.20384 6.65468
53 1 3 -0.11508 23.8152 17.8879 8.25944
54 1 3 -0.11508 12.7168 3.20384 6.65468
55 1 3 -0.11508 30.9828 13.7497 14.1117
56 1 3 -0.11508 5.54921 7.34203 0.802379
57 1 3 -0.0559 18.266 5.39949 13.5316
58 1 3 -0.0559 18.266 15.6923 1.38254
59 1 3 -0.055903 18.266 14.5575 0.580159
60 1 3 -0.055903 18.266 6.53422 14.334
61 1 3 -0.0559 26.1971 11.1132 7.85825
62 1 3 -0.0559 10.3349 9.9785 7.05587
63 1 3 -0.055903 10.3349 11.1132 7.85825
64 1 3 -0.055903 26.1971 9.9785 7.05587
65 1 3 -0.0559 14.7918 8.54005 0.580159
66 1 3 -0.0559 21.7402 12.5517 14.334
67 1 3 -0.055903 22.7229 13.1191 13.5316
68 1 3 -0.055903 13.8091 7.97268 1.38254
69 1 3 -0.0559 21.7402 3.39366 7.85825
70 1 3 -0.0559 14.7918 17.6981 7.05587
71 1 3 -0.055903 13.8091 17.1307 7.85825
72 1 3 -0.055903 22.7229 3.96103 7.05587
73 1 3 -0.055901 22.7229 17.1307 7.85825
74 1 3 -0.055901 13.8091 3.96103 7.05587
75 1 3 -0.055903 14.7918 3.39366 7.85825
76 1 3 -0.055903 21.7402 17.6981 7.05587
77 1 3 -0.0559 21.7402 8.54005 0.580159
78 1 3 -0.0559 14.7918 12.5517 14.334
79 1 3 -0.055903 13.8091 13.1191 13.5316
80 1 3 -0.055903 22.7229 7.97268 1.38254
81 1 4 -1.26215 27.399 15.8188 11.1856
82 1 4 -1.26215 9.13299 5.27293 3.72853
83 1 4 -0.60118 27.399 18.9383 11.9641
84 1 4 -0.60118 9.13299 2.15347 2.95001
85 1 4 -0.601179 27.399 17.5926 13.8671
86 1 4 -0.601179 9.13299 3.49912 1.04697
87 1 4 -0.601179 26.2336 13.3722 9.45555
88 1 4 -0.601179 10.2984 7.71958 5.45857
89 1 4 -0.60118 28.5643 13.3722 9.45555
90 1 4 -0.60118 7.96762 7.71958 5.45857
91 1 4 -0.60118 25.8628 14.9319 13.8671
92 1 4 -0.60118 10.6692 6.15984 1.04697
93 1 4 -0.601179 24.6974 14.2591 11.9641
94 1 4 -0.601179 11.8345 6.83267 2.95001
95 1 4 -0.60118 28.9351 18.0514 9.45555
96 1 4 -0.60118 7.59682 3.04037 5.45857
97 1 4 -0.601179 30.1005 16.0329 9.45555
98 1 4 -0.601179 6.43145 5.05885 5.45857
99 1 4 -0.601179 24.6974 16.0329 9.45555
100 1 4 -0.601179 11.8345 5.05885 5.45857
101 1 4 -0.60118 25.8628 18.0514 9.45555
102 1 4 -0.60118 10.6692 3.04037 5.45857
103 1 4 -0.60118 28.9351 14.9319 13.8671
104 1 4 -0.60118 7.59682 6.15984 1.04697
105 1 4 -0.60118 30.1005 14.2591 11.9641
106 1 4 -0.60118 6.43145 6.83267 2.95001
785 228 5 -0.35 31.2583 17.1105 12.2429
786 228 6 0.7 32.345 16.822 12.528
787 228 5 -0.35 15.1658 16.5335 12.8131
803 234 5 -0.35 28.2788 11.4544 12.5233
804 234 6 0.7 28.7805 10.4625 12.855
805 234 5 -0.35 11.0161 9.47058 13.1866
806 235 5 -0.35 27.7164 17.2947 5.95666
807 235 6 0.7 28.5333 16.4773 6.05774
808 235 5 -0.35 29.3502 15.66 6.15882
830 243 5 -0.35 24.2369 16.0384 4.48423
831 243 6 0.7 24.7646 15.1059 4.9288
832 243 5 -0.35 25.2923 14.1734 5.37337
839 246 5 -0.35 21.2895 16.2642 13.0879
840 246 6 0.7 22.054 16.9334 13.6477
841 246 5 -0.35 22.8185 17.6026 14.2074
848 249 5 -0.35 19.9677 9.52207 5.49332
849 249 6 0.7 19.7389 8.97215 4.49791
850 249 5 -0.35 19.5101 8.42222 3.50251
851 250 5 -0.35 21.7946 10.7314 2.88397
852 250 6 0.7 21.8733 11.8677 2.66459
853 250 5 -0.35 21.952 13.0041 2.44522
854 251 5 -0.35 7.41731 10.5185 1.79876
855 251 6 0.7 7.93431 11.5561 1.83919
856 251 5 -0.35 8.4513 12.5937 1.87962
857 252 5 -0.35 14.8123 15.1828 1.08133
858 252 6 0.7 13.7086 15.5253 1.18224
859 252 5 -0.35 12.6049 15.8678 1.28315
ITEM: TIMESTEP
97000
ITEM: NUMBER OF ATOMS
151
ITEM: BOX BOUNDS xy xz yz pp pp pp
0.0000000000000000e+00 3.6531964750000000e+01 9.1329911900000003e+00
0.0000000000000000e+00 2.1091739680000000e+01 9.1329911900000003e+00
0.0000000000000000e+00 1.4914112149999999e+01 5.2729349200000000e+00
ITEM: ATOMS id mol type q x y z
1 1 1 1.10383 27.399 17.6496 10.5383
2 1 1 1.10383 9.13299 3.44217 4.3758
3 1 1 1.10383 27.399 15.8188 13.1274
4 1 1 1.10383 9.13299 5.27293 1.78671
5 1 1 1.10383 25.8135 14.9034 10.5383
6 1 1 1.10383 10.7185 6.18832 4.3758
7 1 1 1.10383 28.9845 14.9034 10.5383
8 1 1 1.10383 7.5475 6.18832 4.3758
9 1 2 0.115889 18.266 5.48596 12.6084
10 1 2 0.115889 18.266 15.6058 2.30572
11 1 2 0.115888 18.266 13.716 0.969417
12 1 2 0.115888 18.266 7.37578 13.9447
13 1 2 0.11589 25.3934 11.4908 8.12521
14 1 2 0.11589 11.1386 9.60096 6.7889
15 1 2 0.115888 11.1386 11.4908 8.12521
16 1 2 0.115888 25.3934 9.60096 6.7889
17 1 2 0.115889 15.5206 8.96083 0.969417
18 1 2 0.115889 21.0114 12.1309 13.9447
19 1 2 0.115888 22.648 13.0758 12.6084
20 1 2 0.115888 13.884 8.01592 2.30572
21 1 2 0.115889 21.0114 3.90092 8.12521
22 1 2 0.115889 15.5206 17.1908 6.7889
23 1 2 0.115887 13.884 16.2459 8.12521
24 1 2 0.115887 22.648 4.84583 6.7889
25 1 2 0.115889 22.648 16.2459 8.12521
26 1 2 0.115889 13.884 4.84583 6.7889
27 1 2 0.115887 15.5206 3.90092 8.12521
28 1 2 0.115887 21.0114 17.1908 6.7889
29 1 2 0.115889 21.0114 8.96083 0.969417
30 1 2 0.115889 15.5206 12.1309 13.9447
31 1 2 0.115887 13.884 13.0758 12.6084
32 1 2 0.115887 22.648 8.01592 2.30572
33 1 3 0.671939 27.399 18.7442 13.2542
34 1 3 0.671939 9.13299 2.34751 1.65994
35 1 3 0.671939 27.399 12.8934 9.117
36 1 3 0.671939 9.13299 8.19836 5.79712
37 1 3 0.67194 24.8655 14.3561 13.2542
38 1 3 0.67194 11.6665 6.73565 1.65994
39 1 3 0.67194 29.9325 17.2815 9.117
40 1 3 0.67194 6.5995 3.81022 5.79712
41 1 3 0.67194 24.8655 17.2815 9.117
42 1 3 0.67194 11.6665 3.81022 5.79712
43 1 3 0.67194 29.9325 14.3561 13.2542
44 1 3 0.67194 6.5995 6.73565 1.65994
45 1 3 -0.11508 27.399 19.957 14.1117
46 1 3 -0.11508 9.13299 1.13474 0.802379
47 1 3 -0.11508 27.399 11.6806 8.25944
48 1 3 -0.11508 9.13299 9.41113 6.65468
49 1 3 -0.11508 23.8152 13.7497 14.1117
50 1 3 -0.11508 12.7168 7.34203 0.802379
51 1 3 -0.11508 30.9828 17.8879 8.25944
52 1 3 -0.11508 5.54921 3.20384 6.65468
53 1 3 -0.11508 23.8152 17.8879 8.25944
54 1 3 -0.11508 12.7168 3.20384 6.65468
55 1 3 -0.11508 30.9828 13.7497 14.1117
56 1 3 -0.11508 5.54921 7.34203 0.802379
57 1 3 -0.0559 18.266 5.39949 13.5316
58 1 3 -0.0559 18.266 15.6923 1.38254
59 1 3 -0.055903 18.266 14.5575 0.580159
60 1 3 -0.055903 18.266 6.53422 14.334
61 1 3 -0.0559 26.1971 11.1132 7.85825
62 1 3 -0.0559 10.3349 9.9785 7.05587
63 1 3 -0.055903 10.3349 11.1132 7.85825
64 1 3 -0.055903 26.1971 9.9785 7.05587
65 1 3 -0.0559 14.7918 8.54005 0.580159
66 1 3 -0.0559 21.7402 12.5517 14.334
67 1 3 -0.055903 22.7229 13.1191 13.5316
68 1 3 -0.055903 13.8091 7.97268 1.38254
69 1 3 -0.0559 21.7402 3.39366 7.85825
70 1 3 -0.0559 14.7918 17.6981 7.05587
71 1 3 -0.055903 13.8091 17.1307 7.85825
72 1 3 -0.055903 22.7229 3.96103 7.05587
73 1 3 -0.055901 22.7229 17.1307 7.85825
74 1 3 -0.055901 13.8091 3.96103 7.05587
75 1 3 -0.055903 14.7918 3.39366 7.85825
76 1 3 -0.055903 21.7402 17.6981 7.05587
77 1 3 -0.0559 21.7402 8.54005 0.580159
78 1 3 -0.0559 14.7918 12.5517 14.334
79 1 3 -0.055903 13.8091 13.1191 13.5316
80 1 3 -0.055903 22.7229 7.97268 1.38254
81 1 4 -1.26215 27.399 15.8188 11.1856
82 1 4 -1.26215 9.13299 5.27293 3.72853
83 1 4 -0.60118 27.399 18.9383 11.9641
84 1 4 -0.60118 9.13299 2.15347 2.95001
85 1 4 -0.601179 27.399 17.5926 13.8671
86 1 4 -0.601179 9.13299 3.49912 1.04697
87 1 4 -0.601179 26.2336 13.3722 9.45555
88 1 4 -0.601179 10.2984 7.71958 5.45857
89 1 4 -0.60118 28.5643 13.3722 9.45555
90 1 4 -0.60118 7.96762 7.71958 5.45857
91 1 4 -0.60118 25.8628 14.9319 13.8671
92 1 4 -0.60118 10.6692 6.15984 1.04697
93 1 4 -0.601179 24.6974 14.2591 11.9641
94 1 4 -0.601179 11.8345 6.83267 2.95001
95 1 4 -0.60118 28.9351 18.0514 9.45555
96 1 4 -0.60118 7.59682 3.04037 5.45857
97 1 4 -0.601179 30.1005 16.0329 9.45555
98 1 4 -0.601179 6.43145 5.05885 5.45857
99 1 4 -0.601179 24.6974 16.0329 9.45555
100 1 4 -0.601179 11.8345 5.05885 5.45857
101 1 4 -0.60118 25.8628 18.0514 9.45555
102 1 4 -0.60118 10.6692 3.04037 5.45857
103 1 4 -0.60118 28.9351 14.9319 13.8671
104 1 4 -0.60118 7.59682 6.15984 1.04697
105 1 4 -0.60118 30.1005 14.2591 11.9641
106 1 4 -0.60118 6.43145 6.83267 2.95001
392 97 5 -0.35 18.8063 18.1522 8.98073
393 97 6 0.7 9.11031 3.34602 9.03764
394 97 5 -0.35 8.54736 4.35867 9.09455
485 128 5 -0.35 14.2658 2.60084 3.82619
486 128 6 0.7 13.2987 3.05464 3.37414
487 128 5 -0.35 12.3315 3.50844 2.92209
488 129 5 -0.35 16.645 13.8159 11.7436
489 129 6 0.7 16.0455 14.7991 11.8829
490 129 5 -0.35 15.4459 15.7823 12.0222
491 130 5 -0.35 5.71389 2.01208 3.37141
492 130 6 0.7 15.3 16.7972 3.63927
493 130 5 -0.35 15.7531 15.7635 3.90713
497 132 5 -0.35 18.0457 6.59604 0.954149
498 132 6 0.7 27.1936 11.8816 14.7084
499 132 5 -0.35 27.2085 11.8943 13.5486
512 137 5 -0.35 29.9658 17.4133 12.6282
513 137 6 0.7 30.7031 18.0503 13.2576
514 137 5 -0.35 31.4405 18.6873 13.887
518 139 5 -0.35 12.0427 14.6238 5.98034
519 139 6 0.7 29.2603 14.9324 6.36933
520 139 5 -0.35 28.212 15.2411 6.75833
536 145 5 -0.35 20.7975 16.8178 12.1821
537 145 6 0.7 21.6885 17.2277 12.8015
538 145 5 -0.35 22.5794 17.6376 13.421
557 152 5 -0.35 22.7356 9.82691 4.75866
558 152 6 0.7 23.777 9.71273 4.26064
559 152 5 -0.35 24.8184 9.59856 3.76261
590 163 5 -0.35 19.4112 9.20593 3.66268
591 163 6 0.7 18.8512 9.38512 2.66272
592 163 5 -0.35 18.2912 9.5643 1.66276
599 166 5 -0.35 12.6042 9.4851 10.7128
600 166 6 0.7 11.9694 10.2575 11.3011
601 166 5 -0.35 11.3346 11.0298 11.8894
602 167 5 -0.35 23.4788 13.8109 6.87901
603 167 6 0.7 24.0242 13.0432 6.20172
604 167 5 -0.35 24.5697 12.2755 5.52443
611 170 5 -0.35 24.352 15.0721 3.70695
612 170 6 0.7 23.9324 15.3697 2.66724
613 170 5 -0.35 23.5128 15.6673 1.62753
614 171 5 -0.35 12.8238 10.5024 4.68201
615 171 6 0.7 12.8867 10.8333 3.572
616 171 5 -0.35 12.9496 11.1642 2.46198
617 172 5 -0.35 18.1471 11.5709 9.46365
618 172 6 0.7 18.7141 11.7409 10.4612
619 172 5 -0.35 19.2811 11.9109 11.4588
ITEM: TIMESTEP
98000
ITEM: NUMBER OF ATOMS
133
ITEM: BOX BOUNDS xy xz yz pp pp pp
0.0000000000000000e+00 3.6531964750000000e+01 9.1329911900000003e+00
0.0000000000000000e+00 2.1091739680000000e+01 9.1329911900000003e+00
0.0000000000000000e+00 1.4914112149999999e+01 5.2729349200000000e+00
ITEM: ATOMS id mol type q x y z
1 1 1 1.10383 27.399 17.6496 10.5383
2 1 1 1.10383 9.13299 3.44217 4.3758
3 1 1 1.10383 27.399 15.8188 13.1274
4 1 1 1.10383 9.13299 5.27293 1.78671
5 1 1 1.10383 25.8135 14.9034 10.5383
6 1 1 1.10383 10.7185 6.18832 4.3758
7 1 1 1.10383 28.9845 14.9034 10.5383
8 1 1 1.10383 7.5475 6.18832 4.3758
9 1 2 0.115889 18.266 5.48596 12.6084
10 1 2 0.115889 18.266 15.6058 2.30572
11 1 2 0.115888 18.266 13.716 0.969417
12 1 2 0.115888 18.266 7.37578 13.9447
13 1 2 0.11589 25.3934 11.4908 8.12521
14 1 2 0.11589 11.1386 9.60096 6.7889
15 1 2 0.115888 11.1386 11.4908 8.12521
16 1 2 0.115888 25.3934 9.60096 6.7889
17 1 2 0.115889 15.5206 8.96083 0.969417
18 1 2 0.115889 21.0114 12.1309 13.9447
19 1 2 0.115888 22.648 13.0758 12.6084
20 1 2 0.115888 13.884 8.01592 2.30572
21 1 2 0.115889 21.0114 3.90092 8.12521
22 1 2 0.115889 15.5206 17.1908 6.7889
23 1 2 0.115887 13.884 16.2459 8.12521
24 1 2 0.115887 22.648 4.84583 6.7889
25 1 2 0.115889 22.648 16.2459 8.12521
26 1 2 0.115889 13.884 4.84583 6.7889
27 1 2 0.115887 15.5206 3.90092 8.12521
28 1 2 0.115887 21.0114 17.1908 6.7889
29 1 2 0.115889 21.0114 8.96083 0.969417
30 1 2 0.115889 15.5206 12.1309 13.9447
31 1 2 0.115887 13.884 13.0758 12.6084
32 1 2 0.115887 22.648 8.01592 2.30572
33 1 3 0.671939 27.399 18.7442 13.2542
34 1 3 0.671939 9.13299 2.34751 1.65994
35 1 3 0.671939 27.399 12.8934 9.117
36 1 3 0.671939 9.13299 8.19836 5.79712
37 1 3 0.67194 24.8655 14.3561 13.2542
38 1 3 0.67194 11.6665 6.73565 1.65994
39 1 3 0.67194 29.9325 17.2815 9.117
40 1 3 0.67194 6.5995 3.81022 5.79712
41 1 3 0.67194 24.8655 17.2815 9.117
42 1 3 0.67194 11.6665 3.81022 5.79712
43 1 3 0.67194 29.9325 14.3561 13.2542
44 1 3 0.67194 6.5995 6.73565 1.65994
45 1 3 -0.11508 27.399 19.957 14.1117
46 1 3 -0.11508 9.13299 1.13474 0.802379
47 1 3 -0.11508 27.399 11.6806 8.25944
48 1 3 -0.11508 9.13299 9.41113 6.65468
49 1 3 -0.11508 23.8152 13.7497 14.1117
50 1 3 -0.11508 12.7168 7.34203 0.802379
51 1 3 -0.11508 30.9828 17.8879 8.25944
52 1 3 -0.11508 5.54921 3.20384 6.65468
53 1 3 -0.11508 23.8152 17.8879 8.25944
54 1 3 -0.11508 12.7168 3.20384 6.65468
55 1 3 -0.11508 30.9828 13.7497 14.1117
56 1 3 -0.11508 5.54921 7.34203 0.802379
57 1 3 -0.0559 18.266 5.39949 13.5316
58 1 3 -0.0559 18.266 15.6923 1.38254
59 1 3 -0.055903 18.266 14.5575 0.580159
60 1 3 -0.055903 18.266 6.53422 14.334
61 1 3 -0.0559 26.1971 11.1132 7.85825
62 1 3 -0.0559 10.3349 9.9785 7.05587
63 1 3 -0.055903 10.3349 11.1132 7.85825
64 1 3 -0.055903 26.1971 9.9785 7.05587
65 1 3 -0.0559 14.7918 8.54005 0.580159
66 1 3 -0.0559 21.7402 12.5517 14.334
67 1 3 -0.055903 22.7229 13.1191 13.5316
68 1 3 -0.055903 13.8091 7.97268 1.38254
69 1 3 -0.0559 21.7402 3.39366 7.85825
70 1 3 -0.0559 14.7918 17.6981 7.05587
71 1 3 -0.055903 13.8091 17.1307 7.85825
72 1 3 -0.055903 22.7229 3.96103 7.05587
73 1 3 -0.055901 22.7229 17.1307 7.85825
74 1 3 -0.055901 13.8091 3.96103 7.05587
75 1 3 -0.055903 14.7918 3.39366 7.85825
76 1 3 -0.055903 21.7402 17.6981 7.05587
77 1 3 -0.0559 21.7402 8.54005 0.580159
78 1 3 -0.0559 14.7918 12.5517 14.334
79 1 3 -0.055903 13.8091 13.1191 13.5316
80 1 3 -0.055903 22.7229 7.97268 1.38254
81 1 4 -1.26215 27.399 15.8188 11.1856
82 1 4 -1.26215 9.13299 5.27293 3.72853
83 1 4 -0.60118 27.399 18.9383 11.9641
84 1 4 -0.60118 9.13299 2.15347 2.95001
85 1 4 -0.601179 27.399 17.5926 13.8671
86 1 4 -0.601179 9.13299 3.49912 1.04697
87 1 4 -0.601179 26.2336 13.3722 9.45555
88 1 4 -0.601179 10.2984 7.71958 5.45857
89 1 4 -0.60118 28.5643 13.3722 9.45555
90 1 4 -0.60118 7.96762 7.71958 5.45857
91 1 4 -0.60118 25.8628 14.9319 13.8671
92 1 4 -0.60118 10.6692 6.15984 1.04697
93 1 4 -0.601179 24.6974 14.2591 11.9641
94 1 4 -0.601179 11.8345 6.83267 2.95001
95 1 4 -0.60118 28.9351 18.0514 9.45555
96 1 4 -0.60118 7.59682 3.04037 5.45857
97 1 4 -0.601179 30.1005 16.0329 9.45555
98 1 4 -0.601179 6.43145 5.05885 5.45857
99 1 4 -0.601179 24.6974 16.0329 9.45555
100 1 4 -0.601179 11.8345 5.05885 5.45857
101 1 4 -0.60118 25.8628 18.0514 9.45555
102 1 4 -0.60118 10.6692 3.04037 5.45857
103 1 4 -0.60118 28.9351 14.9319 13.8671
104 1 4 -0.60118 7.59682 6.15984 1.04697
105 1 4 -0.60118 30.1005 14.2591 11.9641
106 1 4 -0.60118 6.43145 6.83267 2.95001
1919 606 5 -0.35 12.4309 3.5911 10.1432
1920 606 6 0.7 11.3987 3.67721 9.62083
1921 606 5 -0.35 10.3666 3.76332 9.09851
1976 625 5 -0.35 22.7182 12.339 8.15071
1977 625 6 0.7 22.3534 13.1406 8.90567
1978 625 5 -0.35 21.9886 13.9423 9.66062
1982 627 5 -0.35 19.9628 16.5967 10.7376
1983 627 6 0.7 20.9087 16.3258 11.3519
1984 627 5 -0.35 21.8547 16.0549 11.9662
2039 646 5 -0.35 9.61744 9.05197 0.15419
2040 646 6 0.7 18.8048 14.1549 13.9221
2041 646 5 -0.35 18.8592 13.9849 12.7759
2114 671 5 -0.35 5.83958 2.80991 1.47008
2115 671 6 0.7 5.9544 2.5637 0.342341
2116 671 5 -0.35 15.2022 7.59042 14.1287
2120 673 5 -0.35 27.4957 15.7979 7.48062
2121 673 6 0.7 27.8746 14.9562 6.77805
2122 673 5 -0.35 28.2536 14.1146 6.07548
2126 675 5 -0.35 19.8927 2.29692 4.81646
2127 675 6 0.7 20.6867 1.74695 4.17396
2128 675 5 -0.35 12.3476 17.0158 3.53146
2141 680 5 -0.35 15.8189 4.10064 3.53558
2142 680 6 0.7 15.7273 4.11871 2.37934
2143 680 5 -0.35 15.6358 4.13677 1.2231
2144 681 5 -0.35 1.80937 2.43963 0.732825
2145 681 6 0.7 11.534 7.23071 14.7732
2146 681 5 -0.35 12.1257 6.74885 13.8995
ITEM: TIMESTEP
99000
ITEM: NUMBER OF ATOMS
145
ITEM: BOX BOUNDS xy xz yz pp pp pp
0.0000000000000000e+00 3.6531964750000000e+01 9.1329911900000003e+00
0.0000000000000000e+00 2.1091739680000000e+01 9.1329911900000003e+00
0.0000000000000000e+00 1.4914112149999999e+01 5.2729349200000000e+00
ITEM: ATOMS id mol type q x y z
1 1 1 1.10383 27.399 17.6496 10.5383
2 1 1 1.10383 9.13299 3.44217 4.3758
3 1 1 1.10383 27.399 15.8188 13.1274
4 1 1 1.10383 9.13299 5.27293 1.78671
5 1 1 1.10383 25.8135 14.9034 10.5383
6 1 1 1.10383 10.7185 6.18832 4.3758
7 1 1 1.10383 28.9845 14.9034 10.5383
8 1 1 1.10383 7.5475 6.18832 4.3758
9 1 2 0.115889 18.266 5.48596 12.6084
10 1 2 0.115889 18.266 15.6058 2.30572
11 1 2 0.115888 18.266 13.716 0.969417
12 1 2 0.115888 18.266 7.37578 13.9447
13 1 2 0.11589 25.3934 11.4908 8.12521
14 1 2 0.11589 11.1386 9.60096 6.7889
15 1 2 0.115888 11.1386 11.4908 8.12521
16 1 2 0.115888 25.3934 9.60096 6.7889
17 1 2 0.115889 15.5206 8.96083 0.969417
18 1 2 0.115889 21.0114 12.1309 13.9447
19 1 2 0.115888 22.648 13.0758 12.6084
20 1 2 0.115888 13.884 8.01592 2.30572
21 1 2 0.115889 21.0114 3.90092 8.12521
22 1 2 0.115889 15.5206 17.1908 6.7889
23 1 2 0.115887 13.884 16.2459 8.12521
24 1 2 0.115887 22.648 4.84583 6.7889
25 1 2 0.115889 22.648 16.2459 8.12521
26 1 2 0.115889 13.884 4.84583 6.7889
27 1 2 0.115887 15.5206 3.90092 8.12521
28 1 2 0.115887 21.0114 17.1908 6.7889
29 1 2 0.115889 21.0114 8.96083 0.969417
30 1 2 0.115889 15.5206 12.1309 13.9447
31 1 2 0.115887 13.884 13.0758 12.6084
32 1 2 0.115887 22.648 8.01592 2.30572
33 1 3 0.671939 27.399 18.7442 13.2542
34 1 3 0.671939 9.13299 2.34751 1.65994
35 1 3 0.671939 27.399 12.8934 9.117
36 1 3 0.671939 9.13299 8.19836 5.79712
37 1 3 0.67194 24.8655 14.3561 13.2542
38 1 3 0.67194 11.6665 6.73565 1.65994
39 1 3 0.67194 29.9325 17.2815 9.117
40 1 3 0.67194 6.5995 3.81022 5.79712
41 1 3 0.67194 24.8655 17.2815 9.117
42 1 3 0.67194 11.6665 3.81022 5.79712
43 1 3 0.67194 29.9325 14.3561 13.2542
44 1 3 0.67194 6.5995 6.73565 1.65994
45 1 3 -0.11508 27.399 19.957 14.1117
46 1 3 -0.11508 9.13299 1.13474 0.802379
47 1 3 -0.11508 27.399 11.6806 8.25944
48 1 3 -0.11508 9.13299 9.41113 6.65468
49 1 3 -0.11508 23.8152 13.7497 14.1117
50 1 3 -0.11508 12.7168 7.34203 0.802379
51 1 3 -0.11508 30.9828 17.8879 8.25944
52 1 3 -0.11508 5.54921 3.20384 6.65468
53 1 3 -0.11508 23.8152 17.8879 8.25944
54 1 3 -0.11508 12.7168 3.20384 6.65468
55 1 3 -0.11508 30.9828 13.7497 14.1117
56 1 3 -0.11508 5.54921 7.34203 0.802379
57 1 3 -0.0559 18.266 5.39949 13.5316
58 1 3 -0.0559 18.266 15.6923 1.38254
59 1 3 -0.055903 18.266 14.5575 0.580159
60 1 3 -0.055903 18.266 6.53422 14.334
61 1 3 -0.0559 26.1971 11.1132 7.85825
62 1 3 -0.0559 10.3349 9.9785 7.05587
63 1 3 -0.055903 10.3349 11.1132 7.85825
64 1 3 -0.055903 26.1971 9.9785 7.05587
65 1 3 -0.0559 14.7918 8.54005 0.580159
66 1 3 -0.0559 21.7402 12.5517 14.334
67 1 3 -0.055903 22.7229 13.1191 13.5316
68 1 3 -0.055903 13.8091 7.97268 1.38254
69 1 3 -0.0559 21.7402 3.39366 7.85825
70 1 3 -0.0559 14.7918 17.6981 7.05587
71 1 3 -0.055903 13.8091 17.1307 7.85825
72 1 3 -0.055903 22.7229 3.96103 7.05587
73 1 3 -0.055901 22.7229 17.1307 7.85825
74 1 3 -0.055901 13.8091 3.96103 7.05587
75 1 3 -0.055903 14.7918 3.39366 7.85825
76 1 3 -0.055903 21.7402 17.6981 7.05587
77 1 3 -0.0559 21.7402 8.54005 0.580159
78 1 3 -0.0559 14.7918 12.5517 14.334
79 1 3 -0.055903 13.8091 13.1191 13.5316
80 1 3 -0.055903 22.7229 7.97268 1.38254
81 1 4 -1.26215 27.399 15.8188 11.1856
82 1 4 -1.26215 9.13299 5.27293 3.72853
83 1 4 -0.60118 27.399 18.9383 11.9641
84 1 4 -0.60118 9.13299 2.15347 2.95001
85 1 4 -0.601179 27.399 17.5926 13.8671
86 1 4 -0.601179 9.13299 3.49912 1.04697
87 1 4 -0.601179 26.2336 13.3722 9.45555
88 1 4 -0.601179 10.2984 7.71958 5.45857
89 1 4 -0.60118 28.5643 13.3722 9.45555
90 1 4 -0.60118 7.96762 7.71958 5.45857
91 1 4 -0.60118 25.8628 14.9319 13.8671
92 1 4 -0.60118 10.6692 6.15984 1.04697
93 1 4 -0.601179 24.6974 14.2591 11.9641
94 1 4 -0.601179 11.8345 6.83267 2.95001
95 1 4 -0.60118 28.9351 18.0514 9.45555
96 1 4 -0.60118 7.59682 3.04037 5.45857
97 1 4 -0.601179 30.1005 16.0329 9.45555
98 1 4 -0.601179 6.43145 5.05885 5.45857
99 1 4 -0.601179 24.6974 16.0329 9.45555
100 1 4 -0.601179 11.8345 5.05885 5.45857
101 1 4 -0.60118 25.8628 18.0514 9.45555
102 1 4 -0.60118 10.6692 3.04037 5.45857
103 1 4 -0.60118 28.9351 14.9319 13.8671
104 1 4 -0.60118 7.59682 6.15984 1.04697
105 1 4 -0.60118 30.1005 14.2591 11.9641
106 1 4 -0.60118 6.43145 6.83267 2.95001
3386 1095 5 -0.35 8.97403 5.14649 7.3038
3387 1095 6 0.7 8.11772 5.42347 8.03566
3388 1095 5 -0.35 7.26141 5.70045 8.76751
3446 1115 5 -0.35 31.1046 17.2039 12.6036
3447 1115 6 0.7 32.1243 16.7213 12.8735
3448 1115 5 -0.35 14.878 16.2387 13.1435
3503 1134 5 -0.35 27.8015 12.1258 11.9068
3504 1134 6 0.7 28.6619 11.3571 12.0268
3505 1134 5 -0.35 11.2564 10.5885 12.1468
3545 1148 5 -0.35 25.2752 13.4682 6.20578
3546 1148 6 0.7 25.4203 14.6106 6.06605
3547 1148 5 -0.35 25.5654 15.753 5.92632
3560 1153 5 -0.35 11.143 10.3836 0.0306133
3561 1153 6 0.7 10.4274 11.295 0.0835164
3562 1153 5 -0.35 9.71185 12.2065 0.136419
3581 1160 5 -0.35 25.6208 13.494 1.37634
3582 1160 6 0.7 25.674 14.3489 0.594109
3583 1160 5 -0.35 34.8602 20.4767 14.726
3584 1161 5 -0.35 28.5602 17.216 4.71183
3585 1161 6 0.7 27.928 16.6746 3.90384
3586 1161 5 -0.35 27.2958 16.1332 3.09585
3587 1162 5 -0.35 15.1341 12.6999 0.516526
3588 1162 6 0.7 24.1291 17.7147 14.3082
3589 1162 5 -0.35 23.9912 17.4565 13.1857
3602 1167 5 -0.35 17.0624 14.1486 11.466
3603 1167 6 0.7 16.4645 14.4725 10.5262
3604 1167 5 -0.35 15.8667 14.7965 9.5864
3605 1168 5 -0.35 14.8195 7.05864 10.3337
3606 1168 6 0.7 15.6773 7.8176 10.1501
3607 1168 5 -0.35 16.5352 8.57657 9.96652
3608 1169 5 -0.35 17.3438 5.80323 6.05289
3609 1169 6 0.7 16.517 5.93272 5.24958
3610 1169 5 -0.35 15.6902 6.06221 4.44628
3611 1170 5 -0.35 22.3206 13.0103 5.13406
3612 1170 6 0.7 22.5424 12.7197 4.03318
3613 1170 5 -0.35 22.7643 12.4291 2.93229
3614 1171 5 -0.35 16.2899 9.77582 3.5006
3615 1171 6 0.7 16.3723 9.35144 4.57703
3616 1171 5 -0.35 16.4548 8.92706 5.65346
ITEM: TIMESTEP
100000
ITEM: NUMBER OF ATOMS
127
ITEM: BOX BOUNDS xy xz yz pp pp pp
0.0000000000000000e+00 3.6531964750000000e+01 9.1329911900000003e+00
0.0000000000000000e+00 2.1091739680000000e+01 9.1329911900000003e+00
0.0000000000000000e+00 1.4914112149999999e+01 5.2729349200000000e+00
ITEM: ATOMS id mol type q x y z
1 1 1 1.10383 27.399 17.6496 10.5383
2 1 1 1.10383 9.13299 3.44217 4.3758
3 1 1 1.10383 27.399 15.8188 13.1274
4 1 1 1.10383 9.13299 5.27293 1.78671
5 1 1 1.10383 25.8135 14.9034 10.5383
6 1 1 1.10383 10.7185 6.18832 4.3758
7 1 1 1.10383 28.9845 14.9034 10.5383
8 1 1 1.10383 7.5475 6.18832 4.3758
9 1 2 0.115889 18.266 5.48596 12.6084
10 1 2 0.115889 18.266 15.6058 2.30572
11 1 2 0.115888 18.266 13.716 0.969417
12 1 2 0.115888 18.266 7.37578 13.9447
13 1 2 0.11589 25.3934 11.4908 8.12521
14 1 2 0.11589 11.1386 9.60096 6.7889
15 1 2 0.115888 11.1386 11.4908 8.12521
16 1 2 0.115888 25.3934 9.60096 6.7889
17 1 2 0.115889 15.5206 8.96083 0.969417
18 1 2 0.115889 21.0114 12.1309 13.9447
19 1 2 0.115888 22.648 13.0758 12.6084
20 1 2 0.115888 13.884 8.01592 2.30572
21 1 2 0.115889 21.0114 3.90092 8.12521
22 1 2 0.115889 15.5206 17.1908 6.7889
23 1 2 0.115887 13.884 16.2459 8.12521
24 1 2 0.115887 22.648 4.84583 6.7889
25 1 2 0.115889 22.648 16.2459 8.12521
26 1 2 0.115889 13.884 4.84583 6.7889
27 1 2 0.115887 15.5206 3.90092 8.12521
28 1 2 0.115887 21.0114 17.1908 6.7889
29 1 2 0.115889 21.0114 8.96083 0.969417
30 1 2 0.115889 15.5206 12.1309 13.9447
31 1 2 0.115887 13.884 13.0758 12.6084
32 1 2 0.115887 22.648 8.01592 2.30572
33 1 3 0.671939 27.399 18.7442 13.2542
34 1 3 0.671939 9.13299 2.34751 1.65994
35 1 3 0.671939 27.399 12.8934 9.117
36 1 3 0.671939 9.13299 8.19836 5.79712
37 1 3 0.67194 24.8655 14.3561 13.2542
38 1 3 0.67194 11.6665 6.73565 1.65994
39 1 3 0.67194 29.9325 17.2815 9.117
40 1 3 0.67194 6.5995 3.81022 5.79712
41 1 3 0.67194 24.8655 17.2815 9.117
42 1 3 0.67194 11.6665 3.81022 5.79712
43 1 3 0.67194 29.9325 14.3561 13.2542
44 1 3 0.67194 6.5995 6.73565 1.65994
45 1 3 -0.11508 27.399 19.957 14.1117
46 1 3 -0.11508 9.13299 1.13474 0.802379
47 1 3 -0.11508 27.399 11.6806 8.25944
48 1 3 -0.11508 9.13299 9.41113 6.65468
49 1 3 -0.11508 23.8152 13.7497 14.1117
50 1 3 -0.11508 12.7168 7.34203 0.802379
51 1 3 -0.11508 30.9828 17.8879 8.25944
52 1 3 -0.11508 5.54921 3.20384 6.65468
53 1 3 -0.11508 23.8152 17.8879 8.25944
54 1 3 -0.11508 12.7168 3.20384 6.65468
55 1 3 -0.11508 30.9828 13.7497 14.1117
56 1 3 -0.11508 5.54921 7.34203 0.802379
57 1 3 -0.0559 18.266 5.39949 13.5316
58 1 3 -0.0559 18.266 15.6923 1.38254
59 1 3 -0.055903 18.266 14.5575 0.580159
60 1 3 -0.055903 18.266 6.53422 14.334
61 1 3 -0.0559 26.1971 11.1132 7.85825
62 1 3 -0.0559 10.3349 9.9785 7.05587
63 1 3 -0.055903 10.3349 11.1132 7.85825
64 1 3 -0.055903 26.1971 9.9785 7.05587
65 1 3 -0.0559 14.7918 8.54005 0.580159
66 1 3 -0.0559 21.7402 12.5517 14.334
67 1 3 -0.055903 22.7229 13.1191 13.5316
68 1 3 -0.055903 13.8091 7.97268 1.38254
69 1 3 -0.0559 21.7402 3.39366 7.85825
70 1 3 -0.0559 14.7918 17.6981 7.05587
71 1 3 -0.055903 13.8091 17.1307 7.85825
72 1 3 -0.055903 22.7229 3.96103 7.05587
73 1 3 -0.055901 22.7229 17.1307 7.85825
74 1 3 -0.055901 13.8091 3.96103 7.05587
75 1 3 -0.055903 14.7918 3.39366 7.85825
76 1 3 -0.055903 21.7402 17.6981 7.05587
77 1 3 -0.0559 21.7402 8.54005 0.580159
78 1 3 -0.0559 14.7918 12.5517 14.334
79 1 3 -0.055903 13.8091 13.1191 13.5316
80 1 3 -0.055903 22.7229 7.97268 1.38254
81 1 4 -1.26215 27.399 15.8188 11.1856
82 1 4 -1.26215 9.13299 5.27293 3.72853
83 1 4 -0.60118 27.399 18.9383 11.9641
84 1 4 -0.60118 9.13299 2.15347 2.95001
85 1 4 -0.601179 27.399 17.5926 13.8671
86 1 4 -0.601179 9.13299 3.49912 1.04697
87 1 4 -0.601179 26.2336 13.3722 9.45555
88 1 4 -0.601179 10.2984 7.71958 5.45857
89 1 4 -0.60118 28.5643 13.3722 9.45555
90 1 4 -0.60118 7.96762 7.71958 5.45857
91 1 4 -0.60118 25.8628 14.9319 13.8671
92 1 4 -0.60118 10.6692 6.15984 1.04697
93 1 4 -0.601179 24.6974 14.2591 11.9641
94 1 4 -0.601179 11.8345 6.83267 2.95001
95 1 4 -0.60118 28.9351 18.0514 9.45555
96 1 4 -0.60118 7.59682 3.04037 5.45857
97 1 4 -0.601179 30.1005 16.0329 9.45555
98 1 4 -0.601179 6.43145 5.05885 5.45857
99 1 4 -0.601179 24.6974 16.0329 9.45555
100 1 4 -0.601179 11.8345 5.05885 5.45857
101 1 4 -0.60118 25.8628 18.0514 9.45555
102 1 4 -0.60118 10.6692 3.04037 5.45857
103 1 4 -0.60118 28.9351 14.9319 13.8671
104 1 4 -0.60118 7.59682 6.15984 1.04697
105 1 4 -0.60118 30.1005 14.2591 11.9641
106 1 4 -0.60118 6.43145 6.83267 2.95001
5075 1658 5 -0.35 26.1835 11.7125 11.9677
5076 1658 6 0.7 25.2729 11.4698 11.2912
5077 1658 5 -0.35 24.3624 11.2272 10.6147
5102 1667 5 -0.35 12.7929 10.9763 0.852136
5103 1667 6 0.7 21.3423 15.8314 14.8549
5104 1667 5 -0.35 20.7588 15.4136 13.9436
5111 1670 5 -0.35 12.2931 9.92745 3.8808
5112 1670 6 0.7 11.2384 9.81423 3.41128
5113 1670 5 -0.35 10.1837 9.70102 2.94175
5141 1680 5 -0.35 15.5454 13.0305 0.266293
5142 1680 6 0.7 24.5681 17.9102 14.0947
5143 1680 5 -0.35 24.4579 17.517 13.0089
5264 1721 5 -0.35 19.1764 17.5085 11.9355
5265 1721 6 0.7 19.4886 17.8778 10.8812
5266 1721 5 -0.35 19.8009 18.2471 9.82677
5270 1723 5 -0.35 20.7286 7.65392 11.1444
5271 1723 6 0.7 21.3801 6.97736 10.4637
5272 1723 5 -0.35 22.0316 6.3008 9.78292
5273 1724 5 -0.35 10.5194 7.05765 11.2301
5274 1724 6 0.7 10.4803 7.00545 10.0719
5275 1724 5 -0.35 10.4412 6.95325 8.91373
