ITEM: TIMESTEP
0
ITEM: NUMBER OF ATOMS
106
ITEM: BOX BOUNDS xy xz yz pp pp pp
0.0000000000000000e+00 3.6531964750000000e+01 9.1329911900000003e+00
0.0000000000000000e+00 2.1091739680000000e+01 9.1329911900000003e+00
0.0000000000000000e+00 1.4914112149999999e+01 5.2729349200000000e+00
ITEM: ATOMS id mol type q x y z
1 1 1 1.10383 27.399 17.6496 10.5383
2 1 1 1.10383 9.13299 3.44217 4.3758
3 1 1 1.10383 27.399 15.8188 13.1274
4 1 1 1.10383 9.13299 5.27293 1.78671
5 1 1 1.10383 25.8135 14.9034 10.5383
6 1 1 1.10383 10.7185 6.18832 4.3758
7 1 1 1.10383 28.9845 14.9034 10.5383
8 1 1 1.10383 7.5475 6.18832 4.3758
9 1 2 0.115889 18.266 5.48596 12.6084
10 1 2 0.115889 18.266 15.6058 2.30572
11 1 2 0.115888 18.266 13.716 0.969417
12 1 2 0.115888 18.266 7.37578 13.9447
13 1 2 0.11589 25.3934 11.4908 8.12521
14 1 2 0.11589 11.1386 9.60096 6.7889
15 1 2 0.115888 11.1386 11.4908 8.12521
16 1 2 0.115888 25.3934 9.60096 6.7889
17 1 2 0.115889 15.5206 8.96083 0.969417
18 1 2 0.115889 21.0114 12.1309 13.9447
19 1 2 0.115888 22.648 13.0758 12.6084
20 1 2 0.115888 13.884 8.01592 2.30572
21 1 2 0.115889 21.0114 3.90092 8.12521
22 1 2 0.115889 15.5206 17.1908 6.7889
23 1 2 0.115887 13.884 16.2459 8.12521
24 1 2 0.115887 22.648 4.84583 6.7889
25 1 2 0.115889 22.648 16.2459 8.12521
26 1 2 0.115889 13.884 4.84583 6.7889
27 1 2 0.115887 15.5206 3.90092 8.12521
28 1 2 0.115887 21.0114 17.1908 6.7889
29 1 2 0.115889 21.0114 8.96083 0.969417
30 1 2 0.115889 15.5206 12.1309 13.9447
31 1 2 0.115887 13.884 13.0758 12.6084
32 1 2 0.115887 22.648 8.01592 2.30572
33 1 3 0.671939 27.399 18.7442 13.2542
34 1 3 0.671939 9.13299 2.34751 1.65994
35 1 3 0.671939 27.399 12.8934 9.117
36 1 3 0.671939 9.13299 8.19836 5.79712
37 1 3 0.67194 24.8655 14.3561 13.2542
38 1 3 0.67194 11.6665 6.73565 1.65994
39 1 3 0.67194 29.9325 17.2815 9.117
40 1 3 0.67194 6.5995 3.81022 5.79712
41 1 3 0.67194 24.8655 17.2815 9.117
42 1 3 0.67194 11.6665 3.81022 5.79712
43 1 3 0.67194 29.9325 14.3561 13.2542
44 1 3 0.67194 6.5995 6.73565 1.65994
45 1 3 -0.11508 27.399 19.957 14.1117
46 1 3 -0.11508 9.13299 1.13474 0.802379
47 1 3 -0.11508 27.399 11.6806 8.25944
48 1 3 -0.11508 9.13299 9.41113 6.65468
49 1 3 -0.11508 23.8152 13.7497 14.1117
50 1 3 -0.11508 12.7168 7.34203 0.802379
51 1 3 -0.11508 30.9828 17.8879 8.25944
52 1 3 -0.11508 5.54921 3.20384 6.65468
53 1 3 -0.11508 23.8152 17.8879 8.25944
54 1 3 -0.11508 12.7168 3.20384 6.65468
55 1 3 -0.11508 30.9828 13.7497 14.1117
56 1 3 -0.11508 5.54921 7.34203 0.802379
57 1 3 -0.0559 18.266 5.39949 13.5316
58 1 3 -0.0559 18.266 15.6923 1.38254
59 1 3 -0.055903 18.266 14.5575 0.580159
60 1 3 -0.055903 18.266 6.53422 14.334
61 1 3 -0.0559 26.1971 11.1132 7.85825
62 1 3 -0.0559 10.3349 9.9785 7.05587
63 1 3 -0.055903 10.3349 11.1132 7.85825
64 1 3 -0.055903 26.1971 9.9785 7.05587
65 1 3 -0.0559 14.7918 8.54005 0.580159
66 1 3 -0.0559 21.7402 12.5517 14.334
67 1 3 -0.055903 22.7229 13.1191 13.5316
68 1 3 -0.055903 13.8091 7.97268 1.38254
69 1 3 -0.0559 21.7402 3.39366 7.85825
70 1 3 -0.0559 14.7918 17.6981 7.05587
71 1 3 -0.055903 13.8091 17.1307 7.85825
72 1 3 -0.055903 22.7229 3.96103 7.05587
73 1 3 -0.055901 22.7229 17.1307 7.85825
74 1 3 -0.055901 13.8091 3.96103 7.05587
75 1 3 -0.055903 14.7918 3.39366 7.85825
76 1 3 -0.055903 21.7402 17.6981 7.05587
77 1 3 -0.0559 21.7402 8.54005 0.580159
78 1 3 -0.0559 14.7918 12.5517 14.334
79 1 3 -0.055903 13.8091 13.1191 13.5316
80 1 3 -0.055903 22.7229 7.97268 1.38254
81 1 4 -1.26215 27.399 15.8188 11.1856
82 1 4 -1.26215 9.13299 5.27293 3.72853
83 1 4 -0.60118 27.399 18.9383 11.9641
84 1 4 -0.60118 9.13299 2.15347 2.95001
85 1 4 -0.601179 27.399 17.5926 13.8671
86 1 4 -0.601179 9.13299 3.49912 1.04697
87 1 4 -0.601179 26.2336 13.3722 9.45555
88 1 4 -0.601179 10.2984 7.71958 5.45857
89 1 4 -0.60118 28.5643 13.3722 9.45555
90 1 4 -0.60118 7.96762 7.71958 5.45857
91 1 4 -0.60118 25.8628 14.9319 13.8671
92 1 4 -0.60118 10.6692 6.15984 1.04697
93 1 4 -0.601179 24.6974 14.2591 11.9641
94 1 4 -0.601179 11.8345 6.83267 2.95001
95 1 4 -0.60118 28.9351 18.0514 9.45555
96 1 4 -0.60118 7.59682 3.04037 5.45857
97 1 4 -0.601179 30.1005 16.0329 9.45555
98 1 4 -0.601179 6.43145 5.05885 5.45857
99 1 4 -0.601179 24.6974 16.0329 9.45555
100 1 4 -0.601179 11.8345 5.05885 5.45857
101 1 4 -0.60118 25.8628 18.0514 9.45555
102 1 4 -0.60118 10.6692 3.04037 5.45857
103 1 4 -0.60118 28.9351 14.9319 13.8671
104 1 4 -0.60118 7.59682 6.15984 1.04697
105 1 4 -0.60118 30.1005 14.2591 11.9641
106 1 4 -0.60118 6.43145 6.83267 2.95001
ITEM: TIMESTEP
1000
ITEM: NUMBER OF ATOMS
109
ITEM: BOX BOUNDS xy xz yz pp pp pp
0.0000000000000000e+00 3.6531964750000000e+01 9.1329911900000003e+00
0.0000000000000000e+00 2.1091739680000000e+01 9.1329911900000003e+00
0.0000000000000000e+00 1.4914112149999999e+01 5.2729349200000000e+00
ITEM: ATOMS id mol type q x y z
1 1 1 1.10383 27.399 17.6496 10.5383
2 1 1 1.10383 9.13299 3.44217 4.3758
3 1 1 1.10383 27.399 15.8188 13.1274
4 1 1 1.10383 9.13299 5.27293 1.78671
5 1 1 1.10383 25.8135 14.9034 10.5383
6 1 1 1.10383 10.7185 6.18832 4.3758
7 1 1 1.10383 28.9845 14.9034 10.5383
8 1 1 1.10383 7.5475 6.18832 4.3758
9 1 2 0.115889 18.266 5.48596 12.6084
10 1 2 0.115889 18.266 15.6058 2.30572
11 1 2 0.115888 18.266 13.716 0.969417
12 1 2 0.115888 18.266 7.37578 13.9447
13 1 2 0.11589 25.3934 11.4908 8.12521
14 1 2 0.11589 11.1386 9.60096 6.7889
15 1 2 0.115888 11.1386 11.4908 8.12521
16 1 2 0.115888 25.3934 9.60096 6.7889
17 1 2 0.115889 15.5206 8.96083 0.969417
18 1 2 0.115889 21.0114 12.1309 13.9447
19 1 2 0.115888 22.648 13.0758 12.6084
20 1 2 0.115888 13.884 8.01592 2.30572
21 1 2 0.115889 21.0114 3.90092 8.12521
22 1 2 0.115889 15.5206 17.1908 6.7889
23 1 2 0.115887 13.884 16.2459 8.12521
24 1 2 0.115887 22.648 4.84583 6.7889
25 1 2 0.115889 22.648 16.2459 8.12521
26 1 2 0.115889 13.884 4.84583 6.7889
27 1 2 0.115887 15.5206 3.90092 8.12521
28 1 2 0.115887 21.0114 17.1908 6.7889
29 1 2 0.115889 21.0114 8.96083 0.969417
30 1 2 0.115889 15.5206 12.1309 13.9447
31 1 2 0.115887 13.884 13.0758 12.6084
32 1 2 0.115887 22.648 8.01592 2.30572
33 1 3 0.671939 27.399 18.7442 13.2542
34 1 3 0.671939 9.13299 2.34751 1.65994
35 1 3 0.671939 27.399 12.8934 9.117
36 1 3 0.671939 9.13299 8.19836 5.79712
37 1 3 0.67194 24.8655 14.3561 13.2542
38 1 3 0.67194 11.6665 6.73565 1.65994
39 1 3 0.67194 29.9325 17.2815 9.117
40 1 3 0.67194 6.5995 3.81022 5.79712
41 1 3 0.67194 24.8655 17.2815 9.117
42 1 3 0.67194 11.6665 3.81022 5.79712
43 1 3 0.67194 29.9325 14.3561 13.2542
44 1 3 0.67194 6.5995 6.73565 1.65994
45 1 3 -0.11508 27.399 19.957 14.1117
46 1 3 -0.11508 9.13299 1.13474 0.802379
47 1 3 -0.11508 27.399 11.6806 8.25944
48 1 3 -0.11508 9.13299 9.41113 6.65468
49 1 3 -0.11508 23.8152 13.7497 14.1117
50 1 3 -0.11508 12.7168 7.34203 0.802379
51 1 3 -0.11508 30.9828 17.8879 8.25944
52 1 3 -0.11508 5.54921 3.20384 6.65468
53 1 3 -0.11508 23.8152 17.8879 8.25944
54 1 3 -0.11508 12.7168 3.20384 6.65468
55 1 3 -0.11508 30.9828 13.7497 14.1117
56 1 3 -0.11508 5.54921 7.34203 0.802379
57 1 3 -0.0559 18.266 5.39949 13.5316
58 1 3 -0.0559 18.266 15.6923 1.38254
59 1 3 -0.055903 18.266 14.5575 0.580159
60 1 3 -0.055903 18.266 6.53422 14.334
61 1 3 -0.0559 26.1971 11.1132 7.85825
62 1 3 -0.0559 10.3349 9.9785 7.05587
63 1 3 -0.055903 10.3349 11.1132 7.85825
64 1 3 -0.055903 26.1971 9.9785 7.05587
65 1 3 -0.0559 14.7918 8.54005 0.580159
66 1 3 -0.0559 21.7402 12.5517 14.334
67 1 3 -0.055903 22.7229 13.1191 13.5316
68 1 3 -0.055903 13.8091 7.97268 1.38254
69 1 3 -0.0559 21.7402 3.39366 7.85825
70 1 3 -0.0559 14.7918 17.6981 7.05587
71 1 3 -0.055903 13.8091 17.1307 7.85825
72 1 3 -0.055903 22.7229 3.96103 7.05587
73 1 3 -0.055901 22.7229 17.1307 7.85825
74 1 3 -0.055901 13.8091 3.96103 7.05587
75 1 3 -0.055903 14.7918 3.39366 7.85825
76 1 3 -0.055903 21.7402 17.6981 7.05587
77 1 3 -0.0559 21.7402 8.54005 0.580159
78 1 3 -0.0559 14.7918 12.5517 14.334
79 1 3 -0.055903 13.8091 13.1191 13.5316
80 1 3 -0.055903 22.7229 7.97268 1.38254
81 1 4 -1.26215 27.399 15.8188 11.1856
82 1 4 -1.26215 9.13299 5.27293 3.72853
83 1 4 -0.60118 27.399 18.9383 11.9641
84 1 4 -0.60118 9.13299 2.15347 2.95001
85 1 4 -0.601179 27.399 17.5926 13.8671
86 1 4 -0.601179 9.13299 3.49912 1.04697
87 1 4 -0.601179 26.2336 13.3722 9.45555
88 1 4 -0.601179 10.2984 7.71958 5.45857
89 1 4 -0.60118 28.5643 13.3722 9.45555
90 1 4 -0.60118 7.96762 7.71958 5.45857
91 1 4 -0.60118 25.8628 14.9319 13.8671
92 1 4 -0.60118 10.6692 6.15984 1.04697
93 1 4 -0.601179 24.6974 14.2591 11.9641
94 1 4 -0.601179 11.8345 6.83267 2.95001
95 1 4 -0.60118 28.9351 18.0514 9.45555
96 1 4 -0.60118 7.59682 3.04037 5.45857
97 1 4 -0.601179 30.1005 16.0329 9.45555
98 1 4 -0.601179 6.43145 5.05885 5.45857
99 1 4 -0.601179 24.6974 16.0329 9.45555
100 1 4 -0.601179 11.8345 5.05885 5.45857
101 1 4 -0.60118 25.8628 18.0514 9.45555
102 1 4 -0.60118 10.6692 3.04037 5.45857
103 1 4 -0.60118 28.9351 14.9319 13.8671
104 1 4 -0.60118 7.59682 6.15984 1.04697
105 1 4 -0.60118 30.1005 14.2591 11.9641
106 1 4 -0.60118 6.43145 6.83267 2.95001
107 2 5 -0.35 21.6612 6.13169 12.8345
108 2 6 0.7 21.6414 5.66673 13.8971
109 2 5 -0.35 21.6217 15.7476 0.0455074
ITEM: TIMESTEP
2000
ITEM: NUMBER OF ATOMS
112
ITEM: BOX BOUNDS xy xz yz pp pp pp
0.0000000000000000e+00 3.6531964750000000e+01 9.1329911900000003e+00
0.0000000000000000e+00 2.1091739680000000e+01 9.1329911900000003e+00
0.0000000000000000e+00 1.4914112149999999e+01 5.2729349200000000e+00
ITEM: ATOMS id mol type q x y z
1 1 1 1.10383 27.399 17.6496 10.5383
2 1 1 1.10383 9.13299 3.44217 4.3758
3 1 1 1.10383 27.399 15.8188 13.1274
4 1 1 1.10383 9.13299 5.27293 1.78671
5 1 1 1.10383 25.8135 14.9034 10.5383
6 1 1 1.10383 10.7185 6.18832 4.3758
7 1 1 1.10383 28.9845 14.9034 10.5383
8 1 1 1.10383 7.5475 6.18832 4.3758
9 1 2 0.115889 18.266 5.48596 12.6084
10 1 2 0.115889 18.266 15.6058 2.30572
11 1 2 0.115888 18.266 13.716 0.969417
12 1 2 0.115888 18.266 7.37578 13.9447
13 1 2 0.11589 25.3934 11.4908 8.12521
14 1 2 0.11589 11.1386 9.60096 6.7889
15 1 2 0.115888 11.1386 11.4908 8.12521
16 1 2 0.115888 25.3934 9.60096 6.7889
17 1 2 0.115889 15.5206 8.96083 0.969417
18 1 2 0.115889 21.0114 12.1309 13.9447
19 1 2 0.115888 22.648 13.0758 12.6084
20 1 2 0.115888 13.884 8.01592 2.30572
21 1 2 0.115889 21.0114 3.90092 8.12521
22 1 2 0.115889 15.5206 17.1908 6.7889
23 1 2 0.115887 13.884 16.2459 8.12521
24 1 2 0.115887 22.648 4.84583 6.7889
25 1 2 0.115889 22.648 16.2459 8.12521
26 1 2 0.115889 13.884 4.84583 6.7889
27 1 2 0.115887 15.5206 3.90092 8.12521
28 1 2 0.115887 21.0114 17.1908 6.7889
29 1 2 0.115889 21.0114 8.96083 0.969417
30 1 2 0.115889 15.5206 12.1309 13.9447
31 1 2 0.115887 13.884 13.0758 12.6084
32 1 2 0.115887 22.648 8.01592 2.30572
33 1 3 0.671939 27.399 18.7442 13.2542
34 1 3 0.671939 9.13299 2.34751 1.65994
35 1 3 0.671939 27.399 12.8934 9.117
36 1 3 0.671939 9.13299 8.19836 5.79712
37 1 3 0.67194 24.8655 14.3561 13.2542
38 1 3 0.67194 11.6665 6.73565 1.65994
39 1 3 0.67194 29.9325 17.2815 9.117
40 1 3 0.67194 6.5995 3.81022 5.79712
41 1 3 0.67194 24.8655 17.2815 9.117
42 1 3 0.67194 11.6665 3.81022 5.79712
43 1 3 0.67194 29.9325 14.3561 13.2542
44 1 3 0.67194 6.5995 6.73565 1.65994
45 1 3 -0.11508 27.399 19.957 14.1117
46 1 3 -0.11508 9.13299 1.13474 0.802379
47 1 3 -0.11508 27.399 11.6806 8.25944
48 1 3 -0.11508 9.13299 9.41113 6.65468
49 1 3 -0.11508 23.8152 13.7497 14.1117
50 1 3 -0.11508 12.7168 7.34203 0.802379
51 1 3 -0.11508 30.9828 17.8879 8.25944
52 1 3 -0.11508 5.54921 3.20384 6.65468
53 1 3 -0.11508 23.8152 17.8879 8.25944
54 1 3 -0.11508 12.7168 3.20384 6.65468
55 1 3 -0.11508 30.9828 13.7497 14.1117
56 1 3 -0.11508 5.54921 7.34203 0.802379
57 1 3 -0.0559 18.266 5.39949 13.5316
58 1 3 -0.0559 18.266 15.6923 1.38254
59 1 3 -0.055903 18.266 14.5575 0.580159
60 1 3 -0.055903 18.266 6.53422 14.334
61 1 3 -0.0559 26.1971 11.1132 7.85825
62 1 3 -0.0559 10.3349 9.9785 7.05587
63 1 3 -0.055903 10.3349 11.1132 7.85825
64 1 3 -0.055903 26.1971 9.9785 7.05587
65 1 3 -0.0559 14.7918 8.54005 0.580159
66 1 3 -0.0559 21.7402 12.5517 14.334
67 1 3 -0.055903 22.7229 13.1191 13.5316
68 1 3 -0.055903 13.8091 7.97268 1.38254
69 1 3 -0.0559 21.7402 3.39366 7.85825
70 1 3 -0.0559 14.7918 17.6981 7.05587
71 1 3 -0.055903 13.8091 17.1307 7.85825
72 1 3 -0.055903 22.7229 3.96103 7.05587
73 1 3 -0.055901 22.7229 17.1307 7.85825
74 1 3 -0.055901 13.8091 3.96103 7.05587
75 1 3 -0.055903 14.7918 3.39366 7.85825
76 1 3 -0.055903 21.7402 17.6981 7.05587
77 1 3 -0.0559 21.7402 8.54005 0.580159
78 1 3 -0.0559 14.7918 12.5517 14.334
79 1 3 -0.055903 13.8091 13.1191 13.5316
80 1 3 -0.055903 22.7229 7.97268 1.38254
81 1 4 -1.26215 27.399 15.8188 11.1856
82 1 4 -1.26215 9.13299 5.27293 3.72853
83 1 4 -0.60118 27.399 18.9383 11.9641
84 1 4 -0.60118 9.13299 2.15347 2.95001
85 1 4 -0.601179 27.399 17.5926 13.8671
86 1 4 -0.601179 9.13299 3.49912 1.04697
87 1 4 -0.601179 26.2336 13.3722 9.45555
88 1 4 -0.601179 10.2984 7.71958 5.45857
89 1 4 -0.60118 28.5643 13.3722 9.45555
90 1 4 -0.60118 7.96762 7.71958 5.45857
91 1 4 -0.60118 25.8628 14.9319 13.8671
92 1 4 -0.60118 10.6692 6.15984 1.04697
93 1 4 -0.601179 24.6974 14.2591 11.9641
94 1 4 -0.601179 11.8345 6.83267 2.95001
95 1 4 -0.60118 28.9351 18.0514 9.45555
96 1 4 -0.60118 7.59682 3.04037 5.45857
97 1 4 -0.601179 30.1005 16.0329 9.45555
98 1 4 -0.601179 6.43145 5.05885 5.45857
99 1 4 -0.601179 24.6974 16.0329 9.45555
100 1 4 -0.601179 11.8345 5.05885 5.45857
101 1 4 -0.60118 25.8628 18.0514 9.45555
102 1 4 -0.60118 10.6692 3.04037 5.45857
103 1 4 -0.60118 28.9351 14.9319 13.8671
104 1 4 -0.60118 7.59682 6.15984 1.04697
105 1 4 -0.60118 30.1005 14.2591 11.9641
106 1 4 -0.60118 6.43145 6.83267 2.95001
107 2 5 -0.35 32.5755 17.06 13.5966
108 2 6 0.7 31.5976 17.2645 13.0071
109 2 5 -0.35 30.6197 17.4689 12.4176
110 3 5 -0.35 19.3367 6.38945 9.18636
111 3 6 0.7 19.5627 6.15639 8.07271
112 3 5 -0.35 19.7886 5.92332 6.95906
ITEM: TIMESTEP
3000
ITEM: NUMBER OF ATOMS
115
ITEM: BOX BOUNDS xy xz yz pp pp pp
0.0000000000000000e+00 3.6531964750000000e+01 9.1329911900000003e+00
0.0000000000000000e+00 2.1091739680000000e+01 9.1329911900000003e+00
0.0000000000000000e+00 1.4914112149999999e+01 5.2729349200000000e+00
ITEM: ATOMS id mol type q x y z
1 1 1 1.10383 27.399 17.6496 10.5383
2 1 1 1.10383 9.13299 3.44217 4.3758
3 1 1 1.10383 27.399 15.8188 13.1274
4 1 1 1.10383 9.13299 5.27293 1.78671
5 1 1 1.10383 25.8135 14.9034 10.5383
6 1 1 1.10383 10.7185 6.18832 4.3758
7 1 1 1.10383 28.9845 14.9034 10.5383
8 1 1 1.10383 7.5475 6.18832 4.3758
9 1 2 0.115889 18.266 5.48596 12.6084
10 1 2 0.115889 18.266 15.6058 2.30572
11 1 2 0.115888 18.266 13.716 0.969417
12 1 2 0.115888 18.266 7.37578 13.9447
13 1 2 0.11589 25.3934 11.4908 8.12521
14 1 2 0.11589 11.1386 9.60096 6.7889
15 1 2 0.115888 11.1386 11.4908 8.12521
16 1 2 0.115888 25.3934 9.60096 6.7889
17 1 2 0.115889 15.5206 8.96083 0.969417
18 1 2 0.115889 21.0114 12.1309 13.9447
19 1 2 0.115888 22.648 13.0758 12.6084
20 1 2 0.115888 13.884 8.01592 2.30572
21 1 2 0.115889 21.0114 3.90092 8.12521
22 1 2 0.115889 15.5206 17.1908 6.7889
23 1 2 0.115887 13.884 16.2459 8.12521
24 1 2 0.115887 22.648 4.84583 6.7889
25 1 2 0.115889 22.648 16.2459 8.12521
26 1 2 0.115889 13.884 4.84583 6.7889
27 1 2 0.115887 15.5206 3.90092 8.12521
28 1 2 0.115887 21.0114 17.1908 6.7889
29 1 2 0.115889 21.0114 8.96083 0.969417
30 1 2 0.115889 15.5206 12.1309 13.9447
31 1 2 0.115887 13.884 13.0758 12.6084
32 1 2 0.115887 22.648 8.01592 2.30572
33 1 3 0.671939 27.399 18.7442 13.2542
34 1 3 0.671939 9.13299 2.34751 1.65994
35 1 3 0.671939 27.399 12.8934 9.117
36 1 3 0.671939 9.13299 8.19836 5.79712
37 1 3 0.67194 24.8655 14.3561 13.2542
38 1 3 0.67194 11.6665 6.73565 1.65994
39 1 3 0.67194 29.9325 17.2815 9.117
40 1 3 0.67194 6.5995 3.81022 5.79712
41 1 3 0.67194 24.8655 17.2815 9.117
42 1 3 0.67194 11.6665 3.81022 5.79712
43 1 3 0.67194 29.9325 14.3561 13.2542
44 1 3 0.67194 6.5995 6.73565 1.65994
45 1 3 -0.11508 27.399 19.957 14.1117
46 1 3 -0.11508 9.13299 1.13474 0.802379
47 1 3 -0.11508 27.399 11.6806 8.25944
48 1 3 -0.11508 9.13299 9.41113 6.65468
49 1 3 -0.11508 23.8152 13.7497 14.1117
50 1 3 -0.11508 12.7168 7.34203 0.802379
51 1 3 -0.11508 30.9828 17.8879 8.25944
52 1 3 -0.11508 5.54921 3.20384 6.65468
53 1 3 -0.11508 23.8152 17.8879 8.25944
54 1 3 -0.11508 12.7168 3.20384 6.65468
55 1 3 -0.11508 30.9828 13.7497 14.1117
56 1 3 -0.11508 5.54921 7.34203 0.802379
57 1 3 -0.0559 18.266 5.39949 13.5316
58 1 3 -0.0559 18.266 15.6923 1.38254
59 1 3 -0.055903 18.266 14.5575 0.580159
60 1 3 -0.055903 18.266 6.53422 14.334
61 1 3 -0.0559 26.1971 11.1132 7.85825
62 1 3 -0.0559 10.3349 9.9785 7.05587
63 1 3 -0.055903 10.3349 11.1132 7.85825
64 1 3 -0.055903 26.1971 9.9785 7.05587
65 1 3 -0.0559 14.7918 8.54005 0.580159
66 1 3 -0.0559 21.7402 12.5517 14.334
67 1 3 -0.055903 22.7229 13.1191 13.5316
68 1 3 -0.055903 13.8091 7.97268 1.38254
69 1 3 -0.0559 21.7402 3.39366 7.85825
70 1 3 -0.0559 14.7918 17.6981 7.05587
71 1 3 -0.055903 13.8091 17.1307 7.85825
72 1 3 -0.055903 22.7229 3.96103 7.05587
73 1 3 -0.055901 22.7229 17.1307 7.85825
74 1 3 -0.055901 13.8091 3.96103 7.05587
75 1 3 -0.055903 14.7918 3.39366 7.85825
76 1 3 -0.055903 21.7402 17.6981 7.05587
77 1 3 -0.0559 21.7402 8.54005 0.580159
78 1 3 -0.0559 14.7918 12.5517 14.334
79 1 3 -0.055903 13.8091 13.1191 13.5316
80 1 3 -0.055903 22.7229 7.97268 1.38254
81 1 4 -1.26215 27.399 15.8188 11.1856
82 1 4 -1.26215 9.13299 5.27293 3.72853
83 1 4 -0.60118 27.399 18.9383 11.9641
84 1 4 -0.60118 9.13299 2.15347 2.95001
85 1 4 -0.601179 27.399 17.5926 13.8671
86 1 4 -0.601179 9.13299 3.49912 1.04697
87 1 4 -0.601179 26.2336 13.3722 9.45555
88 1 4 -0.601179 10.2984 7.71958 5.45857
89 1 4 -0.60118 28.5643 13.3722 9.45555
90 1 4 -0.60118 7.96762 7.71958 5.45857
91 1 4 -0.60118 25.8628 14.9319 13.8671
92 1 4 -0.60118 10.6692 6.15984 1.04697
93 1 4 -0.601179 24.6974 14.2591 11.9641
94 1 4 -0.601179 11.8345 6.83267 2.95001
95 1 4 -0.60118 28.9351 18.0514 9.45555
96 1 4 -0.60118 7.59682 3.04037 5.45857
97 1 4 -0.601179 30.1005 16.0329 9.45555
98 1 4 -0.601179 6.43145 5.05885 5.45857
99 1 4 -0.601179 24.6974 16.0329 9.45555
100 1 4 -0.601179 11.8345 5.05885 5.45857
101 1 4 -0.60118 25.8628 18.0514 9.45555
102 1 4 -0.60118 10.6692 3.04037 5.45857
103 1 4 -0.60118 28.9351 14.9319 13.8671
104 1 4 -0.60118 7.59682 6.15984 1.04697
105 1 4 -0.60118 30.1005 14.2591 11.9641
106 1 4 -0.60118 6.43145 6.83267 2.95001
131 10 5 -0.35 5.97573 3.81551 2.60692
132 10 6 0.7 5.19189 2.96055 2.6219
133 10 5 -0.35 4.40805 2.10558 2.63688
140 13 5 -0.35 23.9799 11.3987 0.625083
141 13 6 0.7 33.3604 16.3904 14.4414
142 13 5 -0.35 15.342 16.1092 13.3435
146 15 5 -0.35 26.8031 8.53178 10.7909
147 15 6 0.7 25.7379 8.42985 10.3431
148 15 5 -0.35 24.6727 8.32793 9.89535
ITEM: TIMESTEP
4000
ITEM: NUMBER OF ATOMS
112
ITEM: BOX BOUNDS xy xz yz pp pp pp
0.0000000000000000e+00 3.6531964750000000e+01 9.1329911900000003e+00
0.0000000000000000e+00 2.1091739680000000e+01 9.1329911900000003e+00
0.0000000000000000e+00 1.4914112149999999e+01 5.2729349200000000e+00
ITEM: ATOMS id mol type q x y z
1 1 1 1.10383 27.399 17.6496 10.5383
2 1 1 1.10383 9.13299 3.44217 4.3758
3 1 1 1.10383 27.399 15.8188 13.1274
4 1 1 1.10383 9.13299 5.27293 1.78671
5 1 1 1.10383 25.8135 14.9034 10.5383
6 1 1 1.10383 10.7185 6.18832 4.3758
7 1 1 1.10383 28.9845 14.9034 10.5383
8 1 1 1.10383 7.5475 6.18832 4.3758
9 1 2 0.115889 18.266 5.48596 12.6084
10 1 2 0.115889 18.266 15.6058 2.30572
11 1 2 0.115888 18.266 13.716 0.969417
12 1 2 0.115888 18.266 7.37578 13.9447
13 1 2 0.11589 25.3934 11.4908 8.12521
14 1 2 0.11589 11.1386 9.60096 6.7889
15 1 2 0.115888 11.1386 11.4908 8.12521
16 1 2 0.115888 25.3934 9.60096 6.7889
17 1 2 0.115889 15.5206 8.96083 0.969417
18 1 2 0.115889 21.0114 12.1309 13.9447
19 1 2 0.115888 22.648 13.0758 12.6084
20 1 2 0.115888 13.884 8.01592 2.30572
21 1 2 0.115889 21.0114 3.90092 8.12521
22 1 2 0.115889 15.5206 17.1908 6.7889
23 1 2 0.115887 13.884 16.2459 8.12521
24 1 2 0.115887 22.648 4.84583 6.7889
25 1 2 0.115889 22.648 16.2459 8.12521
26 1 2 0.115889 13.884 4.84583 6.7889
27 1 2 0.115887 15.5206 3.90092 8.12521
28 1 2 0.115887 21.0114 17.1908 6.7889
29 1 2 0.115889 21.0114 8.96083 0.969417
30 1 2 0.115889 15.5206 12.1309 13.9447
31 1 2 0.115887 13.884 13.0758 12.6084
32 1 2 0.115887 22.648 8.01592 2.30572
33 1 3 0.671939 27.399 18.7442 13.2542
34 1 3 0.671939 9.13299 2.34751 1.65994
35 1 3 0.671939 27.399 12.8934 9.117
36 1 3 0.671939 9.13299 8.19836 5.79712
37 1 3 0.67194 24.8655 14.3561 13.2542
38 1 3 0.67194 11.6665 6.73565 1.65994
39 1 3 0.67194 29.9325 17.2815 9.117
40 1 3 0.67194 6.5995 3.81022 5.79712
41 1 3 0.67194 24.8655 17.2815 9.117
42 1 3 0.67194 11.6665 3.81022 5.79712
43 1 3 0.67194 29.9325 14.3561 13.2542
44 1 3 0.67194 6.5995 6.73565 1.65994
45 1 3 -0.11508 27.399 19.957 14.1117
46 1 3 -0.11508 9.13299 1.13474 0.802379
47 1 3 -0.11508 27.399 11.6806 8.25944
48 1 3 -0.11508 9.13299 9.41113 6.65468
49 1 3 -0.11508 23.8152 13.7497 14.1117
50 1 3 -0.11508 12.7168 7.34203 0.802379
51 1 3 -0.11508 30.9828 17.8879 8.25944
52 1 3 -0.11508 5.54921 3.20384 6.65468
53 1 3 -0.11508 23.8152 17.8879 8.25944
54 1 3 -0.11508 12.7168 3.20384 6.65468
55 1 3 -0.11508 30.9828 13.7497 14.1117
56 1 3 -0.11508 5.54921 7.34203 0.802379
57 1 3 -0.0559 18.266 5.39949 13.5316
58 1 3 -0.0559 18.266 15.6923 1.38254
59 1 3 -0.055903 18.266 14.5575 0.580159
60 1 3 -0.055903 18.266 6.53422 14.334
61 1 3 -0.0559 26.1971 11.1132 7.85825
62 1 3 -0.0559 10.3349 9.9785 7.05587
63 1 3 -0.055903 10.3349 11.1132 7.85825
64 1 3 -0.055903 26.1971 9.9785 7.05587
65 1 3 -0.0559 14.7918 8.54005 0.580159
66 1 3 -0.0559 21.7402 12.5517 14.334
67 1 3 -0.055903 22.7229 13.1191 13.5316
68 1 3 -0.055903 13.8091 7.97268 1.38254
69 1 3 -0.0559 21.7402 3.39366 7.85825
70 1 3 -0.0559 14.7918 17.6981 7.05587
71 1 3 -0.055903 13.8091 17.1307 7.85825
72 1 3 -0.055903 22.7229 3.96103 7.05587
73 1 3 -0.055901 22.7229 17.1307 7.85825
74 1 3 -0.055901 13.8091 3.96103 7.05587
75 1 3 -0.055903 14.7918 3.39366 7.85825
76 1 3 -0.055903 21.7402 17.6981 7.05587
77 1 3 -0.0559 21.7402 8.54005 0.580159
78 1 3 -0.0559 14.7918 12.5517 14.334
79 1 3 -0.055903 13.8091 13.1191 13.5316
80 1 3 -0.055903 22.7229 7.97268 1.38254
81 1 4 -1.26215 27.399 15.8188 11.1856
82 1 4 -1.26215 9.13299 5.27293 3.72853
83 1 4 -0.60118 27.399 18.9383 11.9641
84 1 4 -0.60118 9.13299 2.15347 2.95001
85 1 4 -0.601179 27.399 17.5926 13.8671
86 1 4 -0.601179 9.13299 3.49912 1.04697
87 1 4 -0.601179 26.2336 13.3722 9.45555
88 1 4 -0.601179 10.2984 7.71958 5.45857
89 1 4 -0.60118 28.5643 13.3722 9.45555
90 1 4 -0.60118 7.96762 7.71958 5.45857
91 1 4 -0.60118 25.8628 14.9319 13.8671
92 1 4 -0.60118 10.6692 6.15984 1.04697
93 1 4 -0.601179 24.6974 14.2591 11.9641
94 1 4 -0.601179 11.8345 6.83267 2.95001
95 1 4 -0.60118 28.9351 18.0514 9.45555
96 1 4 -0.60118 7.59682 3.04037 5.45857
97 1 4 -0.601179 30.1005 16.0329 9.45555
98 1 4 -0.601179 6.43145 5.05885 5.45857
99 1 4 -0.601179 24.6974 16.0329 9.45555
100 1 4 -0.601179 11.8345 5.05885 5.45857
101 1 4 -0.60118 25.8628 18.0514 9.45555
102 1 4 -0.60118 10.6692 3.04037 5.45857
103 1 4 -0.60118 28.9351 14.9319 13.8671
104 1 4 -0.60118 7.59682 6.15984 1.04697
105 1 4 -0.60118 30.1005 14.2591 11.9641
106 1 4 -0.60118 6.43145 6.83267 2.95001
125 8 5 -0.35 31.3637 18.6707 12.1167
126 8 6 0.7 32.39 18.468 11.6156
127 8 5 -0.35 15.1504 18.2653 11.1145
128 9 5 -0.35 8.46978 10.594 2.84312
129 9 6 0.7 25.6951 10.676 3.34906
130 9 5 -0.35 24.6545 10.758 3.85499
ITEM: TIMESTEP
5000
ITEM: NUMBER OF ATOMS
109
ITEM: BOX BOUNDS xy xz yz pp pp pp
0.0000000000000000e+00 3.6531964750000000e+01 9.1329911900000003e+00
0.0000000000000000e+00 2.1091739680000000e+01 9.1329911900000003e+00
0.0000000000000000e+00 1.4914112149999999e+01 5.2729349200000000e+00
ITEM: ATOMS id mol type q x y z
1 1 1 1.10383 27.399 17.6496 10.5383
2 1 1 1.10383 9.13299 3.44217 4.3758
3 1 1 1.10383 27.399 15.8188 13.1274
4 1 1 1.10383 9.13299 5.27293 1.78671
5 1 1 1.10383 25.8135 14.9034 10.5383
6 1 1 1.10383 10.7185 6.18832 4.3758
7 1 1 1.10383 28.9845 14.9034 10.5383
8 1 1 1.10383 7.5475 6.18832 4.3758
9 1 2 0.115889 18.266 5.48596 12.6084
10 1 2 0.115889 18.266 15.6058 2.30572
11 1 2 0.115888 18.266 13.716 0.969417
12 1 2 0.115888 18.266 7.37578 13.9447
13 1 2 0.11589 25.3934 11.4908 8.12521
14 1 2 0.11589 11.1386 9.60096 6.7889
15 1 2 0.115888 11.1386 11.4908 8.12521
16 1 2 0.115888 25.3934 9.60096 6.7889
17 1 2 0.115889 15.5206 8.96083 0.969417
18 1 2 0.115889 21.0114 12.1309 13.9447
19 1 2 0.115888 22.648 13.0758 12.6084
20 1 2 0.115888 13.884 8.01592 2.30572
21 1 2 0.115889 21.0114 3.90092 8.12521
22 1 2 0.115889 15.5206 17.1908 6.7889
23 1 2 0.115887 13.884 16.2459 8.12521
24 1 2 0.115887 22.648 4.84583 6.7889
25 1 2 0.115889 22.648 16.2459 8.12521
26 1 2 0.115889 13.884 4.84583 6.7889
27 1 2 0.115887 15.5206 3.90092 8.12521
28 1 2 0.115887 21.0114 17.1908 6.7889
29 1 2 0.115889 21.0114 8.96083 0.969417
30 1 2 0.115889 15.5206 12.1309 13.9447
31 1 2 0.115887 13.884 13.0758 12.6084
32 1 2 0.115887 22.648 8.01592 2.30572
33 1 3 0.671939 27.399 18.7442 13.2542
34 1 3 0.671939 9.13299 2.34751 1.65994
35 1 3 0.671939 27.399 12.8934 9.117
36 1 3 0.671939 9.13299 8.19836 5.79712
37 1 3 0.67194 24.8655 14.3561 13.2542
38 1 3 0.67194 11.6665 6.73565 1.65994
39 1 3 0.67194 29.9325 17.2815 9.117
40 1 3 0.67194 6.5995 3.81022 5.79712
41 1 3 0.67194 24.8655 17.2815 9.117
42 1 3 0.67194 11.6665 3.81022 5.79712
43 1 3 0.67194 29.9325 14.3561 13.2542
44 1 3 0.67194 6.5995 6.73565 1.65994
45 1 3 -0.11508 27.399 19.957 14.1117
46 1 3 -0.11508 9.13299 1.13474 0.802379
47 1 3 -0.11508 27.399 11.6806 8.25944
48 1 3 -0.11508 9.13299 9.41113 6.65468
49 1 3 -0.11508 23.8152 13.7497 14.1117
50 1 3 -0.11508 12.7168 7.34203 0.802379
51 1 3 -0.11508 30.9828 17.8879 8.25944
52 1 3 -0.11508 5.54921 3.20384 6.65468
53 1 3 -0.11508 23.8152 17.8879 8.25944
54 1 3 -0.11508 12.7168 3.20384 6.65468
55 1 3 -0.11508 30.9828 13.7497 14.1117
56 1 3 -0.11508 5.54921 7.34203 0.802379
57 1 3 -0.0559 18.266 5.39949 13.5316
58 1 3 -0.0559 18.266 15.6923 1.38254
59 1 3 -0.055903 18.266 14.5575 0.580159
60 1 3 -0.055903 18.266 6.53422 14.334
61 1 3 -0.0559 26.1971 11.1132 7.85825
62 1 3 -0.0559 10.3349 9.9785 7.05587
63 1 3 -0.055903 10.3349 11.1132 7.85825
64 1 3 -0.055903 26.1971 9.9785 7.05587
65 1 3 -0.0559 14.7918 8.54005 0.580159
66 1 3 -0.0559 21.7402 12.5517 14.334
67 1 3 -0.055903 22.7229 13.1191 13.5316
68 1 3 -0.055903 13.8091 7.97268 1.38254
69 1 3 -0.0559 21.7402 3.39366 7.85825
70 1 3 -0.0559 14.7918 17.6981 7.05587
71 1 3 -0.055903 13.8091 17.1307 7.85825
72 1 3 -0.055903 22.7229 3.96103 7.05587
73 1 3 -0.055901 22.7229 17.1307 7.85825
74 1 3 -0.055901 13.8091 3.96103 7.05587
75 1 3 -0.055903 14.7918 3.39366 7.85825
76 1 3 -0.055903 21.7402 17.6981 7.05587
77 1 3 -0.0559 21.7402 8.54005 0.580159
78 1 3 -0.0559 14.7918 12.5517 14.334
79 1 3 -0.055903 13.8091 13.1191 13.5316
80 1 3 -0.055903 22.7229 7.97268 1.38254
81 1 4 -1.26215 27.399 15.8188 11.1856
82 1 4 -1.26215 9.13299 5.27293 3.72853
83 1 4 -0.60118 27.399 18.9383 11.9641
84 1 4 -0.60118 9.13299 2.15347 2.95001
85 1 4 -0.601179 27.399 17.5926 13.8671
86 1 4 -0.601179 9.13299 3.49912 1.04697
87 1 4 -0.601179 26.2336 13.3722 9.45555
88 1 4 -0.601179 10.2984 7.71958 5.45857
89 1 4 -0.60118 28.5643 13.3722 9.45555
90 1 4 -0.60118 7.96762 7.71958 5.45857
91 1 4 -0.60118 25.8628 14.9319 13.8671
92 1 4 -0.60118 10.6692 6.15984 1.04697
93 1 4 -0.601179 24.6974 14.2591 11.9641
94 1 4 -0.601179 11.8345 6.83267 2.95001
95 1 4 -0.60118 28.9351 18.0514 9.45555
96 1 4 -0.60118 7.59682 3.04037 5.45857
97 1 4 -0.601179 30.1005 16.0329 9.45555
98 1 4 -0.601179 6.43145 5.05885 5.45857
99 1 4 -0.601179 24.6974 16.0329 9.45555
100 1 4 -0.601179 11.8345 5.05885 5.45857
101 1 4 -0.60118 25.8628 18.0514 9.45555
102 1 4 -0.60118 10.6692 3.04037 5.45857
103 1 4 -0.60118 28.9351 14.9319 13.8671
104 1 4 -0.60118 7.59682 6.15984 1.04697
105 1 4 -0.60118 30.1005 14.2591 11.9641
106 1 4 -0.60118 6.43145 6.83267 2.95001
131 10 5 -0.35 17.9142 2.66803 6.52744
132 10 6 0.7 27.1713 17.4495 7.03149
133 10 5 -0.35 27.2954 16.4121 7.53553
ITEM: TIMESTEP
6000
ITEM: NUMBER OF ATOMS
118
ITEM: BOX BOUNDS xy xz yz pp pp pp
0.0000000000000000e+00 3.6531964750000000e+01 9.1329911900000003e+00
0.0000000000000000e+00 2.1091739680000000e+01 9.1329911900000003e+00
0.0000000000000000e+00 1.4914112149999999e+01 5.2729349200000000e+00
ITEM: ATOMS id mol type q x y z
1 1 1 1.10383 27.399 17.6496 10.5383
2 1 1 1.10383 9.13299 3.44217 4.3758
3 1 1 1.10383 27.399 15.8188 13.1274
4 1 1 1.10383 9.13299 5.27293 1.78671
5 1 1 1.10383 25.8135 14.9034 10.5383
6 1 1 1.10383 10.7185 6.18832 4.3758
7 1 1 1.10383 28.9845 14.9034 10.5383
8 1 1 1.10383 7.5475 6.18832 4.3758
9 1 2 0.115889 18.266 5.48596 12.6084
10 1 2 0.115889 18.266 15.6058 2.30572
11 1 2 0.115888 18.266 13.716 0.969417
12 1 2 0.115888 18.266 7.37578 13.9447
13 1 2 0.11589 25.3934 11.4908 8.12521
14 1 2 0.11589 11.1386 9.60096 6.7889
15 1 2 0.115888 11.1386 11.4908 8.12521
16 1 2 0.115888 25.3934 9.60096 6.7889
17 1 2 0.115889 15.5206 8.96083 0.969417
18 1 2 0.115889 21.0114 12.1309 13.9447
19 1 2 0.115888 22.648 13.0758 12.6084
20 1 2 0.115888 13.884 8.01592 2.30572
21 1 2 0.115889 21.0114 3.90092 8.12521
22 1 2 0.115889 15.5206 17.1908 6.7889
23 1 2 0.115887 13.884 16.2459 8.12521
24 1 2 0.115887 22.648 4.84583 6.7889
25 1 2 0.115889 22.648 16.2459 8.12521
26 1 2 0.115889 13.884 4.84583 6.7889
27 1 2 0.115887 15.5206 3.90092 8.12521
28 1 2 0.115887 21.0114 17.1908 6.7889
29 1 2 0.115889 21.0114 8.96083 0.969417
30 1 2 0.115889 15.5206 12.1309 13.9447
31 1 2 0.115887 13.884 13.0758 12.6084
32 1 2 0.115887 22.648 8.01592 2.30572
33 1 3 0.671939 27.399 18.7442 13.2542
34 1 3 0.671939 9.13299 2.34751 1.65994
35 1 3 0.671939 27.399 12.8934 9.117
36 1 3 0.671939 9.13299 8.19836 5.79712
37 1 3 0.67194 24.8655 14.3561 13.2542
38 1 3 0.67194 11.6665 6.73565 1.65994
39 1 3 0.67194 29.9325 17.2815 9.117
40 1 3 0.67194 6.5995 3.81022 5.79712
41 1 3 0.67194 24.8655 17.2815 9.117
42 1 3 0.67194 11.6665 3.81022 5.79712
43 1 3 0.67194 29.9325 14.3561 13.2542
44 1 3 0.67194 6.5995 6.73565 1.65994
45 1 3 -0.11508 27.399 19.957 14.1117
46 1 3 -0.11508 9.13299 1.13474 0.802379
47 1 3 -0.11508 27.399 11.6806 8.25944
48 1 3 -0.11508 9.13299 9.41113 6.65468
49 1 3 -0.11508 23.8152 13.7497 14.1117
50 1 3 -0.11508 12.7168 7.34203 0.802379
51 1 3 -0.11508 30.9828 17.8879 8.25944
52 1 3 -0.11508 5.54921 3.20384 6.65468
53 1 3 -0.11508 23.8152 17.8879 8.25944
54 1 3 -0.11508 12.7168 3.20384 6.65468
55 1 3 -0.11508 30.9828 13.7497 14.1117
56 1 3 -0.11508 5.54921 7.34203 0.802379
57 1 3 -0.0559 18.266 5.39949 13.5316
58 1 3 -0.0559 18.266 15.6923 1.38254
59 1 3 -0.055903 18.266 14.5575 0.580159
60 1 3 -0.055903 18.266 6.53422 14.334
61 1 3 -0.0559 26.1971 11.1132 7.85825
62 1 3 -0.0559 10.3349 9.9785 7.05587
63 1 3 -0.055903 10.3349 11.1132 7.85825
64 1 3 -0.055903 26.1971 9.9785 7.05587
65 1 3 -0.0559 14.7918 8.54005 0.580159
66 1 3 -0.0559 21.7402 12.5517 14.334
67 1 3 -0.055903 22.7229 13.1191 13.5316
68 1 3 -0.055903 13.8091 7.97268 1.38254
69 1 3 -0.0559 21.7402 3.39366 7.85825
70 1 3 -0.0559 14.7918 17.6981 7.05587
71 1 3 -0.055903 13.8091 17.1307 7.85825
72 1 3 -0.055903 22.7229 3.96103 7.05587
73 1 3 -0.055901 22.7229 17.1307 7.85825
74 1 3 -0.055901 13.8091 3.96103 7.05587
75 1 3 -0.055903 14.7918 3.39366 7.85825
76 1 3 -0.055903 21.7402 17.6981 7.05587
77 1 3 -0.0559 21.7402 8.54005 0.580159
78 1 3 -0.0559 14.7918 12.5517 14.334
79 1 3 -0.055903 13.8091 13.1191 13.5316
80 1 3 -0.055903 22.7229 7.97268 1.38254
81 1 4 -1.26215 27.399 15.8188 11.1856
82 1 4 -1.26215 9.13299 5.27293 3.72853
83 1 4 -0.60118 27.399 18.9383 11.9641
84 1 4 -0.60118 9.13299 2.15347 2.95001
85 1 4 -0.601179 27.399 17.5926 13.8671
86 1 4 -0.601179 9.13299 3.49912 1.04697
87 1 4 -0.601179 26.2336 13.3722 9.45555
88 1 4 -0.601179 10.2984 7.71958 5.45857
89 1 4 -0.60118 28.5643 13.3722 9.45555
90 1 4 -0.60118 7.96762 7.71958 5.45857
91 1 4 -0.60118 25.8628 14.9319 13.8671
92 1 4 -0.60118 10.6692 6.15984 1.04697
93 1 4 -0.601179 24.6974 14.2591 11.9641
94 1 4 -0.601179 11.8345 6.83267 2.95001
95 1 4 -0.60118 28.9351 18.0514 9.45555
96 1 4 -0.60118 7.59682 3.04037 5.45857
97 1 4 -0.601179 30.1005 16.0329 9.45555
98 1 4 -0.601179 6.43145 5.05885 5.45857
99 1 4 -0.601179 24.6974 16.0329 9.45555
100 1 4 -0.601179 11.8345 5.05885 5.45857
101 1 4 -0.60118 25.8628 18.0514 9.45555
102 1 4 -0.60118 10.6692 3.04037 5.45857
103 1 4 -0.60118 28.9351 14.9319 13.8671
104 1 4 -0.60118 7.59682 6.15984 1.04697
105 1 4 -0.60118 30.1005 14.2591 11.9641
106 1 4 -0.60118 6.43145 6.83267 2.95001
110 3 5 -0.35 25.5923 13.5035 5.10611
111 3 6 0.7 26.3899 12.7645 4.70189
112 3 5 -0.35 8.92148 12.0256 4.29767
116 5 5 -0.35 12.3149 7.96529 8.36323
117 5 6 0.7 11.3186 7.37424 8.42336
118 5 5 -0.35 10.3222 6.7832 8.48348
119 6 5 -0.35 17.6789 5.65276 9.65503
120 6 6 0.7 17.6198 5.52464 8.50364
121 6 5 -0.35 17.5608 5.39651 7.35225
122 7 5 -0.35 15.5214 18.5726 10.8871
123 7 6 0.7 16.2118 17.8629 10.2827
124 7 5 -0.35 16.9022 17.1532 9.67839
ITEM: TIMESTEP
7000
ITEM: NUMBER OF ATOMS
106
ITEM: BOX BOUNDS xy xz yz pp pp pp
0.0000000000000000e+00 3.6531964750000000e+01 9.1329911900000003e+00
0.0000000000000000e+00 2.1091739680000000e+01 9.1329911900000003e+00
0.0000000000000000e+00 1.4914112149999999e+01 5.2729349200000000e+00
ITEM: ATOMS id mol type q x y z
1 1 1 1.10383 27.399 17.6496 10.5383
2 1 1 1.10383 9.13299 3.44217 4.3758
3 1 1 1.10383 27.399 15.8188 13.1274
4 1 1 1.10383 9.13299 5.27293 1.78671
5 1 1 1.10383 25.8135 14.9034 10.5383
6 1 1 1.10383 10.7185 6.18832 4.3758
7 1 1 1.10383 28.9845 14.9034 10.5383
8 1 1 1.10383 7.5475 6.18832 4.3758
9 1 2 0.115889 18.266 5.48596 12.6084
10 1 2 0.115889 18.266 15.6058 2.30572
11 1 2 0.115888 18.266 13.716 0.969417
12 1 2 0.115888 18.266 7.37578 13.9447
13 1 2 0.11589 25.3934 11.4908 8.12521
14 1 2 0.11589 11.1386 9.60096 6.7889
15 1 2 0.115888 11.1386 11.4908 8.12521
16 1 2 0.115888 25.3934 9.60096 6.7889
17 1 2 0.115889 15.5206 8.96083 0.969417
18 1 2 0.115889 21.0114 12.1309 13.9447
19 1 2 0.115888 22.648 13.0758 12.6084
20 1 2 0.115888 13.884 8.01592 2.30572
21 1 2 0.115889 21.0114 3.90092 8.12521
22 1 2 0.115889 15.5206 17.1908 6.7889
23 1 2 0.115887 13.884 16.2459 8.12521
24 1 2 0.115887 22.648 4.84583 6.7889
25 1 2 0.115889 22.648 16.2459 8.12521
26 1 2 0.115889 13.884 4.84583 6.7889
27 1 2 0.115887 15.5206 3.90092 8.12521
28 1 2 0.115887 21.0114 17.1908 6.7889
29 1 2 0.115889 21.0114 8.96083 0.969417
30 1 2 0.115889 15.5206 12.1309 13.9447
31 1 2 0.115887 13.884 13.0758 12.6084
32 1 2 0.115887 22.648 8.01592 2.30572
33 1 3 0.671939 27.399 18.7442 13.2542
34 1 3 0.671939 9.13299 2.34751 1.65994
35 1 3 0.671939 27.399 12.8934 9.117
36 1 3 0.671939 9.13299 8.19836 5.79712
37 1 3 0.67194 24.8655 14.3561 13.2542
38 1 3 0.67194 11.6665 6.73565 1.65994
39 1 3 0.67194 29.9325 17.2815 9.117
40 1 3 0.67194 6.5995 3.81022 5.79712
41 1 3 0.67194 24.8655 17.2815 9.117
42 1 3 0.67194 11.6665 3.81022 5.79712
43 1 3 0.67194 29.9325 14.3561 13.2542
44 1 3 0.67194 6.5995 6.73565 1.65994
45 1 3 -0.11508 27.399 19.957 14.1117
46 1 3 -0.11508 9.13299 1.13474 0.802379
47 1 3 -0.11508 27.399 11.6806 8.25944
48 1 3 -0.11508 9.13299 9.41113 6.65468
49 1 3 -0.11508 23.8152 13.7497 14.1117
50 1 3 -0.11508 12.7168 7.34203 0.802379
51 1 3 -0.11508 30.9828 17.8879 8.25944
52 1 3 -0.11508 5.54921 3.20384 6.65468
53 1 3 -0.11508 23.8152 17.8879 8.25944
54 1 3 -0.11508 12.7168 3.20384 6.65468
55 1 3 -0.11508 30.9828 13.7497 14.1117
56 1 3 -0.11508 5.54921 7.34203 0.802379
57 1 3 -0.0559 18.266 5.39949 13.5316
58 1 3 -0.0559 18.266 15.6923 1.38254
59 1 3 -0.055903 18.266 14.5575 0.580159
60 1 3 -0.055903 18.266 6.53422 14.334
61 1 3 -0.0559 26.1971 11.1132 7.85825
62 1 3 -0.0559 10.3349 9.9785 7.05587
63 1 3 -0.055903 10.3349 11.1132 7.85825
64 1 3 -0.055903 26.1971 9.9785 7.05587
65 1 3 -0.0559 14.7918 8.54005 0.580159
66 1 3 -0.0559 21.7402 12.5517 14.334
67 1 3 -0.055903 22.7229 13.1191 13.5316
68 1 3 -0.055903 13.8091 7.97268 1.38254
69 1 3 -0.0559 21.7402 3.39366 7.85825
70 1 3 -0.0559 14.7918 17.6981 7.05587
71 1 3 -0.055903 13.8091 17.1307 7.85825
72 1 3 -0.055903 22.7229 3.96103 7.05587
73 1 3 -0.055901 22.7229 17.1307 7.85825
74 1 3 -0.055901 13.8091 3.96103 7.05587
75 1 3 -0.055903 14.7918 3.39366 7.85825
76 1 3 -0.055903 21.7402 17.6981 7.05587
77 1 3 -0.0559 21.7402 8.54005 0.580159
78 1 3 -0.0559 14.7918 12.5517 14.334
79 1 3 -0.055903 13.8091 13.1191 13.5316
80 1 3 -0.055903 22.7229 7.97268 1.38254
81 1 4 -1.26215 27.399 15.8188 11.1856
82 1 4 -1.26215 9.13299 5.27293 3.72853
83 1 4 -0.60118 27.399 18.9383 11.9641
84 1 4 -0.60118 9.13299 2.15347 2.95001
85 1 4 -0.601179 27.399 17.5926 13.8671
86 1 4 -0.601179 9.13299 3.49912 1.04697
87 1 4 -0.601179 26.2336 13.3722 9.45555
88 1 4 -0.601179 10.2984 7.71958 5.45857
89 1 4 -0.60118 28.5643 13.3722 9.45555
90 1 4 -0.60118 7.96762 7.71958 5.45857
91 1 4 -0.60118 25.8628 14.9319 13.8671
92 1 4 -0.60118 10.6692 6.15984 1.04697
93 1 4 -0.601179 24.6974 14.2591 11.9641
94 1 4 -0.601179 11.8345 6.83267 2.95001
95 1 4 -0.60118 28.9351 18.0514 9.45555
96 1 4 -0.60118 7.59682 3.04037 5.45857
97 1 4 -0.601179 30.1005 16.0329 9.45555
98 1 4 -0.601179 6.43145 5.05885 5.45857
99 1 4 -0.601179 24.6974 16.0329 9.45555
100 1 4 -0.601179 11.8345 5.05885 5.45857
101 1 4 -0.60118 25.8628 18.0514 9.45555
102 1 4 -0.60118 10.6692 3.04037 5.45857
103 1 4 -0.60118 28.9351 14.9319 13.8671
104 1 4 -0.60118 7.59682 6.15984 1.04697
105 1 4 -0.60118 30.1005 14.2591 11.9641
106 1 4 -0.60118 6.43145 6.83267 2.95001
ITEM: TIMESTEP
8000
ITEM: NUMBER OF ATOMS
109
ITEM: BOX BOUNDS xy xz yz pp pp pp
0.0000000000000000e+00 3.6531964750000000e+01 9.1329911900000003e+00
0.0000000000000000e+00 2.1091739680000000e+01 9.1329911900000003e+00
0.0000000000000000e+00 1.4914112149999999e+01 5.2729349200000000e+00
ITEM: ATOMS id mol type q x y z
1 1 1 1.10383 27.399 17.6496 10.5383
2 1 1 1.10383 9.13299 3.44217 4.3758
3 1 1 1.10383 27.399 15.8188 13.1274
4 1 1 1.10383 9.13299 5.27293 1.78671
5 1 1 1.10383 25.8135 14.9034 10.5383
6 1 1 1.10383 10.7185 6.18832 4.3758
7 1 1 1.10383 28.9845 14.9034 10.5383
8 1 1 1.10383 7.5475 6.18832 4.3758
9 1 2 0.115889 18.266 5.48596 12.6084
10 1 2 0.115889 18.266 15.6058 2.30572
11 1 2 0.115888 18.266 13.716 0.969417
12 1 2 0.115888 18.266 7.37578 13.9447
13 1 2 0.11589 25.3934 11.4908 8.12521
14 1 2 0.11589 11.1386 9.60096 6.7889
15 1 2 0.115888 11.1386 11.4908 8.12521
16 1 2 0.115888 25.3934 9.60096 6.7889
17 1 2 0.115889 15.5206 8.96083 0.969417
18 1 2 0.115889 21.0114 12.1309 13.9447
19 1 2 0.115888 22.648 13.0758 12.6084
20 1 2 0.115888 13.884 8.01592 2.30572
21 1 2 0.115889 21.0114 3.90092 8.12521
22 1 2 0.115889 15.5206 17.1908 6.7889
23 1 2 0.115887 13.884 16.2459 8.12521
24 1 2 0.115887 22.648 4.84583 6.7889
25 1 2 0.115889 22.648 16.2459 8.12521
26 1 2 0.115889 13.884 4.84583 6.7889
27 1 2 0.115887 15.5206 3.90092 8.12521
28 1 2 0.115887 21.0114 17.1908 6.7889
29 1 2 0.115889 21.0114 8.96083 0.969417
30 1 2 0.115889 15.5206 12.1309 13.9447
31 1 2 0.115887 13.884 13.0758 12.6084
32 1 2 0.115887 22.648 8.01592 2.30572
33 1 3 0.671939 27.399 18.7442 13.2542
34 1 3 0.671939 9.13299 2.34751 1.65994
35 1 3 0.671939 27.399 12.8934 9.117
36 1 3 0.671939 9.13299 8.19836 5.79712
37 1 3 0.67194 24.8655 14.3561 13.2542
38 1 3 0.67194 11.6665 6.73565 1.65994
39 1 3 0.67194 29.9325 17.2815 9.117
40 1 3 0.67194 6.5995 3.81022 5.79712
41 1 3 0.67194 24.8655 17.2815 9.117
42 1 3 0.67194 11.6665 3.81022 5.79712
43 1 3 0.67194 29.9325 14.3561 13.2542
44 1 3 0.67194 6.5995 6.73565 1.65994
45 1 3 -0.11508 27.399 19.957 14.1117
46 1 3 -0.11508 9.13299 1.13474 0.802379
47 1 3 -0.11508 27.399 11.6806 8.25944
48 1 3 -0.11508 9.13299 9.41113 6.65468
49 1 3 -0.11508 23.8152 13.7497 14.1117
50 1 3 -0.11508 12.7168 7.34203 0.802379
51 1 3 -0.11508 30.9828 17.8879 8.25944
52 1 3 -0.11508 5.54921 3.20384 6.65468
53 1 3 -0.11508 23.8152 17.8879 8.25944
54 1 3 -0.11508 12.7168 3.20384 6.65468
55 1 3 -0.11508 30.9828 13.7497 14.1117
56 1 3 -0.11508 5.54921 7.34203 0.802379
57 1 3 -0.0559 18.266 5.39949 13.5316
58 1 3 -0.0559 18.266 15.6923 1.38254
59 1 3 -0.055903 18.266 14.5575 0.580159
60 1 3 -0.055903 18.266 6.53422 14.334
61 1 3 -0.0559 26.1971 11.1132 7.85825
62 1 3 -0.0559 10.3349 9.9785 7.05587
63 1 3 -0.055903 10.3349 11.1132 7.85825
64 1 3 -0.055903 26.1971 9.9785 7.05587
65 1 3 -0.0559 14.7918 8.54005 0.580159
66 1 3 -0.0559 21.7402 12.5517 14.334
67 1 3 -0.055903 22.7229 13.1191 13.5316
68 1 3 -0.055903 13.8091 7.97268 1.38254
69 1 3 -0.0559 21.7402 3.39366 7.85825
70 1 3 -0.0559 14.7918 17.6981 7.05587
71 1 3 -0.055903 13.8091 17.1307 7.85825
72 1 3 -0.055903 22.7229 3.96103 7.05587
73 1 3 -0.055901 22.7229 17.1307 7.85825
74 1 3 -0.055901 13.8091 3.96103 7.05587
75 1 3 -0.055903 14.7918 3.39366 7.85825
76 1 3 -0.055903 21.7402 17.6981 7.05587
77 1 3 -0.0559 21.7402 8.54005 0.580159
78 1 3 -0.0559 14.7918 12.5517 14.334
79 1 3 -0.055903 13.8091 13.1191 13.5316
80 1 3 -0.055903 22.7229 7.97268 1.38254
81 1 4 -1.26215 27.399 15.8188 11.1856
82 1 4 -1.26215 9.13299 5.27293 3.72853
83 1 4 -0.60118 27.399 18.9383 11.9641
84 1 4 -0.60118 9.13299 2.15347 2.95001
85 1 4 -0.601179 27.399 17.5926 13.8671
86 1 4 -0.601179 9.13299 3.49912 1.04697
87 1 4 -0.601179 26.2336 13.3722 9.45555
88 1 4 -0.601179 10.2984 7.71958 5.45857
89 1 4 -0.60118 28.5643 13.3722 9.45555
90 1 4 -0.60118 7.96762 7.71958 5.45857
91 1 4 -0.60118 25.8628 14.9319 13.8671
92 1 4 -0.60118 10.6692 6.15984 1.04697
93 1 4 -0.601179 24.6974 14.2591 11.9641
94 1 4 -0.601179 11.8345 6.83267 2.95001
95 1 4 -0.60118 28.9351 18.0514 9.45555
96 1 4 -0.60118 7.59682 3.04037 5.45857
97 1 4 -0.601179 30.1005 16.0329 9.45555
98 1 4 -0.601179 6.43145 5.05885 5.45857
99 1 4 -0.601179 24.6974 16.0329 9.45555
100 1 4 -0.601179 11.8345 5.05885 5.45857
101 1 4 -0.60118 25.8628 18.0514 9.45555
102 1 4 -0.60118 10.6692 3.04037 5.45857
103 1 4 -0.60118 28.9351 14.9319 13.8671
104 1 4 -0.60118 7.59682 6.15984 1.04697
105 1 4 -0.60118 30.1005 14.2591 11.9641
106 1 4 -0.60118 6.43145 6.83267 2.95001
113 4 5 -0.35 16.8062 5.74508 0.381945
114 4 6 0.7 16.4857 4.69529 0.00670915
115 4 5 -0.35 25.2981 8.91843 14.5456
ITEM: TIMESTEP
9000
ITEM: NUMBER OF ATOMS
112
ITEM: BOX BOUNDS xy xz yz pp pp pp
0.0000000000000000e+00 3.6531964750000000e+01 9.1329911900000003e+00
0.0000000000000000e+00 2.1091739680000000e+01 9.1329911900000003e+00
0.0000000000000000e+00 1.4914112149999999e+01 5.2729349200000000e+00
ITEM: ATOMS id mol type q x y z
1 1 1 1.10383 27.399 17.6496 10.5383
2 1 1 1.10383 9.13299 3.44217 4.3758
3 1 1 1.10383 27.399 15.8188 13.1274
4 1 1 1.10383 9.13299 5.27293 1.78671
5 1 1 1.10383 25.8135 14.9034 10.5383
6 1 1 1.10383 10.7185 6.18832 4.3758
7 1 1 1.10383 28.9845 14.9034 10.5383
8 1 1 1.10383 7.5475 6.18832 4.3758
9 1 2 0.115889 18.266 5.48596 12.6084
10 1 2 0.115889 18.266 15.6058 2.30572
11 1 2 0.115888 18.266 13.716 0.969417
12 1 2 0.115888 18.266 7.37578 13.9447
13 1 2 0.11589 25.3934 11.4908 8.12521
14 1 2 0.11589 11.1386 9.60096 6.7889
15 1 2 0.115888 11.1386 11.4908 8.12521
16 1 2 0.115888 25.3934 9.60096 6.7889
17 1 2 0.115889 15.5206 8.96083 0.969417
18 1 2 0.115889 21.0114 12.1309 13.9447
19 1 2 0.115888 22.648 13.0758 12.6084
20 1 2 0.115888 13.884 8.01592 2.30572
21 1 2 0.115889 21.0114 3.90092 8.12521
22 1 2 0.115889 15.5206 17.1908 6.7889
23 1 2 0.115887 13.884 16.2459 8.12521
24 1 2 0.115887 22.648 4.84583 6.7889
25 1 2 0.115889 22.648 16.2459 8.12521
26 1 2 0.115889 13.884 4.84583 6.7889
27 1 2 0.115887 15.5206 3.90092 8.12521
28 1 2 0.115887 21.0114 17.1908 6.7889
29 1 2 0.115889 21.0114 8.96083 0.969417
30 1 2 0.115889 15.5206 12.1309 13.9447
31 1 2 0.115887 13.884 13.0758 12.6084
32 1 2 0.115887 22.648 8.01592 2.30572
33 1 3 0.671939 27.399 18.7442 13.2542
34 1 3 0.671939 9.13299 2.34751 1.65994
35 1 3 0.671939 27.399 12.8934 9.117
36 1 3 0.671939 9.13299 8.19836 5.79712
37 1 3 0.67194 24.8655 14.3561 13.2542
38 1 3 0.67194 11.6665 6.73565 1.65994
39 1 3 0.67194 29.9325 17.2815 9.117
40 1 3 0.67194 6.5995 3.81022 5.79712
41 1 3 0.67194 24.8655 17.2815 9.117
42 1 3 0.67194 11.6665 3.81022 5.79712
43 1 3 0.67194 29.9325 14.3561 13.2542
44 1 3 0.67194 6.5995 6.73565 1.65994
45 1 3 -0.11508 27.399 19.957 14.1117
46 1 3 -0.11508 9.13299 1.13474 0.802379
47 1 3 -0.11508 27.399 11.6806 8.25944
48 1 3 -0.11508 9.13299 9.41113 6.65468
49 1 3 -0.11508 23.8152 13.7497 14.1117
50 1 3 -0.11508 12.7168 7.34203 0.802379
51 1 3 -0.11508 30.9828 17.8879 8.25944
52 1 3 -0.11508 5.54921 3.20384 6.65468
53 1 3 -0.11508 23.8152 17.8879 8.25944
54 1 3 -0.11508 12.7168 3.20384 6.65468
55 1 3 -0.11508 30.9828 13.7497 14.1117
56 1 3 -0.11508 5.54921 7.34203 0.802379
57 1 3 -0.0559 18.266 5.39949 13.5316
58 1 3 -0.0559 18.266 15.6923 1.38254
59 1 3 -0.055903 18.266 14.5575 0.580159
60 1 3 -0.055903 18.266 6.53422 14.334
61 1 3 -0.0559 26.1971 11.1132 7.85825
62 1 3 -0.0559 10.3349 9.9785 7.05587
63 1 3 -0.055903 10.3349 11.1132 7.85825
64 1 3 -0.055903 26.1971 9.9785 7.05587
65 1 3 -0.0559 14.7918 8.54005 0.580159
66 1 3 -0.0559 21.7402 12.5517 14.334
67 1 3 -0.055903 22.7229 13.1191 13.5316
68 1 3 -0.055903 13.8091 7.97268 1.38254
69 1 3 -0.0559 21.7402 3.39366 7.85825
70 1 3 -0.0559 14.7918 17.6981 7.05587
71 1 3 -0.055903 13.8091 17.1307 7.85825
72 1 3 -0.055903 22.7229 3.96103 7.05587
73 1 3 -0.055901 22.7229 17.1307 7.85825
74 1 3 -0.055901 13.8091 3.96103 7.05587
75 1 3 -0.055903 14.7918 3.39366 7.85825
76 1 3 -0.055903 21.7402 17.6981 7.05587
77 1 3 -0.0559 21.7402 8.54005 0.580159
78 1 3 -0.0559 14.7918 12.5517 14.334
79 1 3 -0.055903 13.8091 13.1191 13.5316
80 1 3 -0.055903 22.7229 7.97268 1.38254
81 1 4 -1.26215 27.399 15.8188 11.1856
82 1 4 -1.26215 9.13299 5.27293 3.72853
83 1 4 -0.60118 27.399 18.9383 11.9641
84 1 4 -0.60118 9.13299 2.15347 2.95001
85 1 4 -0.601179 27.399 17.5926 13.8671
86 1 4 -0.601179 9.13299 3.49912 1.04697
87 1 4 -0.601179 26.2336 13.3722 9.45555
88 1 4 -0.601179 10.2984 7.71958 5.45857
89 1 4 -0.60118 28.5643 13.3722 9.45555
90 1 4 -0.60118 7.96762 7.71958 5.45857
91 1 4 -0.60118 25.8628 14.9319 13.8671
92 1 4 -0.60118 10.6692 6.15984 1.04697
93 1 4 -0.601179 24.6974 14.2591 11.9641
94 1 4 -0.601179 11.8345 6.83267 2.95001
95 1 4 -0.60118 28.9351 18.0514 9.45555
96 1 4 -0.60118 7.59682 3.04037 5.45857
97 1 4 -0.601179 30.1005 16.0329 9.45555
98 1 4 -0.601179 6.43145 5.05885 5.45857
99 1 4 -0.601179 24.6974 16.0329 9.45555
100 1 4 -0.601179 11.8345 5.05885 5.45857
101 1 4 -0.60118 25.8628 18.0514 9.45555
102 1 4 -0.60118 10.6692 3.04037 5.45857
103 1 4 -0.60118 28.9351 14.9319 13.8671
104 1 4 -0.60118 7.59682 6.15984 1.04697
105 1 4 -0.60118 30.1005 14.2591 11.9641
106 1 4 -0.60118 6.43145 6.83267 2.95001
107 2 5 -0.35 7.58909 10.297 1.95411
108 2 6 0.7 8.29014 9.45258 2.32963
109 2 5 -0.35 8.99118 8.60812 2.70516
110 3 5 -0.35 21.0772 8.25505 8.19146
111 3 6 0.7 21.0716 7.61947 7.22109
112 3 5 -0.35 21.066 6.98389 6.25073
ITEM: TIMESTEP
10000
ITEM: NUMBER OF ATOMS
112
ITEM: BOX BOUNDS xy xz yz pp pp pp
0.0000000000000000e+00 3.6531964750000000e+01 9.1329911900000003e+00
0.0000000000000000e+00 2.1091739680000000e+01 9.1329911900000003e+00
0.0000000000000000e+00 1.4914112149999999e+01 5.2729349200000000e+00
ITEM: ATOMS id mol type q x y z
1 1 1 1.10383 27.399 17.6496 10.5383
2 1 1 1.10383 9.13299 3.44217 4.3758
3 1 1 1.10383 27.399 15.8188 13.1274
4 1 1 1.10383 9.13299 5.27293 1.78671
5 1 1 1.10383 25.8135 14.9034 10.5383
6 1 1 1.10383 10.7185 6.18832 4.3758
7 1 1 1.10383 28.9845 14.9034 10.5383
8 1 1 1.10383 7.5475 6.18832 4.3758
9 1 2 0.115889 18.266 5.48596 12.6084
10 1 2 0.115889 18.266 15.6058 2.30572
11 1 2 0.115888 18.266 13.716 0.969417
12 1 2 0.115888 18.266 7.37578 13.9447
13 1 2 0.11589 25.3934 11.4908 8.12521
14 1 2 0.11589 11.1386 9.60096 6.7889
15 1 2 0.115888 11.1386 11.4908 8.12521
16 1 2 0.115888 25.3934 9.60096 6.7889
17 1 2 0.115889 15.5206 8.96083 0.969417
18 1 2 0.115889 21.0114 12.1309 13.9447
19 1 2 0.115888 22.648 13.0758 12.6084
20 1 2 0.115888 13.884 8.01592 2.30572
21 1 2 0.115889 21.0114 3.90092 8.12521
22 1 2 0.115889 15.5206 17.1908 6.7889
23 1 2 0.115887 13.884 16.2459 8.12521
24 1 2 0.115887 22.648 4.84583 6.7889
25 1 2 0.115889 22.648 16.2459 8.12521
26 1 2 0.115889 13.884 4.84583 6.7889
27 1 2 0.115887 15.5206 3.90092 8.12521
28 1 2 0.115887 21.0114 17.1908 6.7889
29 1 2 0.115889 21.0114 8.96083 0.969417
30 1 2 0.115889 15.5206 12.1309 13.9447
31 1 2 0.115887 13.884 13.0758 12.6084
32 1 2 0.115887 22.648 8.01592 2.30572
33 1 3 0.671939 27.399 18.7442 13.2542
34 1 3 0.671939 9.13299 2.34751 1.65994
35 1 3 0.671939 27.399 12.8934 9.117
36 1 3 0.671939 9.13299 8.19836 5.79712
37 1 3 0.67194 24.8655 14.3561 13.2542
38 1 3 0.67194 11.6665 6.73565 1.65994
39 1 3 0.67194 29.9325 17.2815 9.117
40 1 3 0.67194 6.5995 3.81022 5.79712
41 1 3 0.67194 24.8655 17.2815 9.117
42 1 3 0.67194 11.6665 3.81022 5.79712
43 1 3 0.67194 29.9325 14.3561 13.2542
44 1 3 0.67194 6.5995 6.73565 1.65994
45 1 3 -0.11508 27.399 19.957 14.1117
46 1 3 -0.11508 9.13299 1.13474 0.802379
47 1 3 -0.11508 27.399 11.6806 8.25944
48 1 3 -0.11508 9.13299 9.41113 6.65468
49 1 3 -0.11508 23.8152 13.7497 14.1117
50 1 3 -0.11508 12.7168 7.34203 0.802379
51 1 3 -0.11508 30.9828 17.8879 8.25944
52 1 3 -0.11508 5.54921 3.20384 6.65468
53 1 3 -0.11508 23.8152 17.8879 8.25944
54 1 3 -0.11508 12.7168 3.20384 6.65468
55 1 3 -0.11508 30.9828 13.7497 14.1117
56 1 3 -0.11508 5.54921 7.34203 0.802379
57 1 3 -0.0559 18.266 5.39949 13.5316
58 1 3 -0.0559 18.266 15.6923 1.38254
59 1 3 -0.055903 18.266 14.5575 0.580159
60 1 3 -0.055903 18.266 6.53422 14.334
61 1 3 -0.0559 26.1971 11.1132 7.85825
62 1 3 -0.0559 10.3349 9.9785 7.05587
63 1 3 -0.055903 10.3349 11.1132 7.85825
64 1 3 -0.055903 26.1971 9.9785 7.05587
65 1 3 -0.0559 14.7918 8.54005 0.580159
66 1 3 -0.0559 21.7402 12.5517 14.334
67 1 3 -0.055903 22.7229 13.1191 13.5316
68 1 3 -0.055903 13.8091 7.97268 1.38254
69 1 3 -0.0559 21.7402 3.39366 7.85825
70 1 3 -0.0559 14.7918 17.6981 7.05587
71 1 3 -0.055903 13.8091 17.1307 7.85825
72 1 3 -0.055903 22.7229 3.96103 7.05587
73 1 3 -0.055901 22.7229 17.1307 7.85825
74 1 3 -0.055901 13.8091 3.96103 7.05587
75 1 3 -0.055903 14.7918 3.39366 7.85825
76 1 3 -0.055903 21.7402 17.6981 7.05587
77 1 3 -0.0559 21.7402 8.54005 0.580159
78 1 3 -0.0559 14.7918 12.5517 14.334
79 1 3 -0.055903 13.8091 13.1191 13.5316
80 1 3 -0.055903 22.7229 7.97268 1.38254
81 1 4 -1.26215 27.399 15.8188 11.1856
82 1 4 -1.26215 9.13299 5.27293 3.72853
83 1 4 -0.60118 27.399 18.9383 11.9641
84 1 4 -0.60118 9.13299 2.15347 2.95001
85 1 4 -0.601179 27.399 17.5926 13.8671
86 1 4 -0.601179 9.13299 3.49912 1.04697
87 1 4 -0.601179 26.2336 13.3722 9.45555
88 1 4 -0.601179 10.2984 7.71958 5.45857
89 1 4 -0.60118 28.5643 13.3722 9.45555
90 1 4 -0.60118 7.96762 7.71958 5.45857
91 1 4 -0.60118 25.8628 14.9319 13.8671
92 1 4 -0.60118 10.6692 6.15984 1.04697
93 1 4 -0.601179 24.6974 14.2591 11.9641
94 1 4 -0.601179 11.8345 6.83267 2.95001
95 1 4 -0.60118 28.9351 18.0514 9.45555
96 1 4 -0.60118 7.59682 3.04037 5.45857
97 1 4 -0.601179 30.1005 16.0329 9.45555
98 1 4 -0.601179 6.43145 5.05885 5.45857
99 1 4 -0.601179 24.6974 16.0329 9.45555
100 1 4 -0.601179 11.8345 5.05885 5.45857
101 1 4 -0.60118 25.8628 18.0514 9.45555
102 1 4 -0.60118 10.6692 3.04037 5.45857
103 1 4 -0.60118 28.9351 14.9319 13.8671
104 1 4 -0.60118 7.59682 6.15984 1.04697
105 1 4 -0.60118 30.1005 14.2591 11.9641
106 1 4 -0.60118 6.43145 6.83267 2.95001
107 2 5 -0.35 23.6475 10.1591 11.961
108 2 6 0.7 24.6192 10.7255 12.245
109 2 5 -0.35 25.5908 11.2919 12.5289
122 7 5 -0.35 12.2712 3.24008 2.45829
123 7 6 0.7 13.0198 3.28262 1.57321
124 7 5 -0.35 13.7684 3.32517 0.68813
ITEM: TIMESTEP
11000
ITEM: NUMBER OF ATOMS
109
ITEM: BOX BOUNDS xy xz yz pp pp pp
0.0000000000000000e+00 3.6531964750000000e+01 9.1329911900000003e+00
0.0000000000000000e+00 2.1091739680000000e+01 9.1329911900000003e+00
0.0000000000000000e+00 1.4914112149999999e+01 5.2729349200000000e+00
ITEM: ATOMS id mol type q x y z
1 1 1 1.10383 27.399 17.6496 10.5383
2 1 1 1.10383 9.13299 3.44217 4.3758
3 1 1 1.10383 27.399 15.8188 13.1274
4 1 1 1.10383 9.13299 5.27293 1.78671
5 1 1 1.10383 25.8135 14.9034 10.5383
6 1 1 1.10383 10.7185 6.18832 4.3758
7 1 1 1.10383 28.9845 14.9034 10.5383
8 1 1 1.10383 7.5475 6.18832 4.3758
9 1 2 0.115889 18.266 5.48596 12.6084
10 1 2 0.115889 18.266 15.6058 2.30572
11 1 2 0.115888 18.266 13.716 0.969417
12 1 2 0.115888 18.266 7.37578 13.9447
13 1 2 0.11589 25.3934 11.4908 8.12521
14 1 2 0.11589 11.1386 9.60096 6.7889
15 1 2 0.115888 11.1386 11.4908 8.12521
16 1 2 0.115888 25.3934 9.60096 6.7889
17 1 2 0.115889 15.5206 8.96083 0.969417
18 1 2 0.115889 21.0114 12.1309 13.9447
19 1 2 0.115888 22.648 13.0758 12.6084
20 1 2 0.115888 13.884 8.01592 2.30572
21 1 2 0.115889 21.0114 3.90092 8.12521
22 1 2 0.115889 15.5206 17.1908 6.7889
23 1 2 0.115887 13.884 16.2459 8.12521
24 1 2 0.115887 22.648 4.84583 6.7889
25 1 2 0.115889 22.648 16.2459 8.12521
26 1 2 0.115889 13.884 4.84583 6.7889
27 1 2 0.115887 15.5206 3.90092 8.12521
28 1 2 0.115887 21.0114 17.1908 6.7889
29 1 2 0.115889 21.0114 8.96083 0.969417
30 1 2 0.115889 15.5206 12.1309 13.9447
31 1 2 0.115887 13.884 13.0758 12.6084
32 1 2 0.115887 22.648 8.01592 2.30572
33 1 3 0.671939 27.399 18.7442 13.2542
34 1 3 0.671939 9.13299 2.34751 1.65994
35 1 3 0.671939 27.399 12.8934 9.117
36 1 3 0.671939 9.13299 8.19836 5.79712
37 1 3 0.67194 24.8655 14.3561 13.2542
38 1 3 0.67194 11.6665 6.73565 1.65994
39 1 3 0.67194 29.9325 17.2815 9.117
40 1 3 0.67194 6.5995 3.81022 5.79712
41 1 3 0.67194 24.8655 17.2815 9.117
42 1 3 0.67194 11.6665 3.81022 5.79712
43 1 3 0.67194 29.9325 14.3561 13.2542
44 1 3 0.67194 6.5995 6.73565 1.65994
45 1 3 -0.11508 27.399 19.957 14.1117
46 1 3 -0.11508 9.13299 1.13474 0.802379
47 1 3 -0.11508 27.399 11.6806 8.25944
48 1 3 -0.11508 9.13299 9.41113 6.65468
49 1 3 -0.11508 23.8152 13.7497 14.1117
50 1 3 -0.11508 12.7168 7.34203 0.802379
51 1 3 -0.11508 30.9828 17.8879 8.25944
52 1 3 -0.11508 5.54921 3.20384 6.65468
53 1 3 -0.11508 23.8152 17.8879 8.25944
54 1 3 -0.11508 12.7168 3.20384 6.65468
55 1 3 -0.11508 30.9828 13.7497 14.1117
56 1 3 -0.11508 5.54921 7.34203 0.802379
57 1 3 -0.0559 18.266 5.39949 13.5316
58 1 3 -0.0559 18.266 15.6923 1.38254
59 1 3 -0.055903 18.266 14.5575 0.580159
60 1 3 -0.055903 18.266 6.53422 14.334
61 1 3 -0.0559 26.1971 11.1132 7.85825
62 1 3 -0.0559 10.3349 9.9785 7.05587
63 1 3 -0.055903 10.3349 11.1132 7.85825
64 1 3 -0.055903 26.1971 9.9785 7.05587
65 1 3 -0.0559 14.7918 8.54005 0.580159
66 1 3 -0.0559 21.7402 12.5517 14.334
67 1 3 -0.055903 22.7229 13.1191 13.5316
68 1 3 -0.055903 13.8091 7.97268 1.38254
69 1 3 -0.0559 21.7402 3.39366 7.85825
70 1 3 -0.0559 14.7918 17.6981 7.05587
71 1 3 -0.055903 13.8091 17.1307 7.85825
72 1 3 -0.055903 22.7229 3.96103 7.05587
73 1 3 -0.055901 22.7229 17.1307 7.85825
74 1 3 -0.055901 13.8091 3.96103 7.05587
75 1 3 -0.055903 14.7918 3.39366 7.85825
76 1 3 -0.055903 21.7402 17.6981 7.05587
77 1 3 -0.0559 21.7402 8.54005 0.580159
78 1 3 -0.0559 14.7918 12.5517 14.334
79 1 3 -0.055903 13.8091 13.1191 13.5316
80 1 3 -0.055903 22.7229 7.97268 1.38254
81 1 4 -1.26215 27.399 15.8188 11.1856
82 1 4 -1.26215 9.13299 5.27293 3.72853
83 1 4 -0.60118 27.399 18.9383 11.9641
84 1 4 -0.60118 9.13299 2.15347 2.95001
85 1 4 -0.601179 27.399 17.5926 13.8671
86 1 4 -0.601179 9.13299 3.49912 1.04697
87 1 4 -0.601179 26.2336 13.3722 9.45555
88 1 4 -0.601179 10.2984 7.71958 5.45857
89 1 4 -0.60118 28.5643 13.3722 9.45555
90 1 4 -0.60118 7.96762 7.71958 5.45857
91 1 4 -0.60118 25.8628 14.9319 13.8671
92 1 4 -0.60118 10.6692 6.15984 1.04697
93 1 4 -0.601179 24.6974 14.2591 11.9641
94 1 4 -0.601179 11.8345 6.83267 2.95001
95 1 4 -0.60118 28.9351 18.0514 9.45555
96 1 4 -0.60118 7.59682 3.04037 5.45857
97 1 4 -0.601179 30.1005 16.0329 9.45555
98 1 4 -0.601179 6.43145 5.05885 5.45857
99 1 4 -0.601179 24.6974 16.0329 9.45555
100 1 4 -0.601179 11.8345 5.05885 5.45857
101 1 4 -0.60118 25.8628 18.0514 9.45555
102 1 4 -0.60118 10.6692 3.04037 5.45857
103 1 4 -0.60118 28.9351 14.9319 13.8671
104 1 4 -0.60118 7.59682 6.15984 1.04697
105 1 4 -0.60118 30.1005 14.2591 11.9641
106 1 4 -0.60118 6.43145 6.83267 2.95001
107 2 5 -0.35 19.8065 6.09231 2.34757
108 2 6 0.7 19.699 5.29212 1.51465
109 2 5 -0.35 19.5916 4.49193 0.681727
ITEM: TIMESTEP
12000
ITEM: NUMBER OF ATOMS
106
ITEM: BOX BOUNDS xy xz yz pp pp pp
0.0000000000000000e+00 3.6531964750000000e+01 9.1329911900000003e+00
0.0000000000000000e+00 2.1091739680000000e+01 9.1329911900000003e+00
0.0000000000000000e+00 1.4914112149999999e+01 5.2729349200000000e+00
ITEM: ATOMS id mol type q x y z
1 1 1 1.10383 27.399 17.6496 10.5383
2 1 1 1.10383 9.13299 3.44217 4.3758
3 1 1 1.10383 27.399 15.8188 13.1274
4 1 1 1.10383 9.13299 5.27293 1.78671
5 1 1 1.10383 25.8135 14.9034 10.5383
6 1 1 1.10383 10.7185 6.18832 4.3758
7 1 1 1.10383 28.9845 14.9034 10.5383
8 1 1 1.10383 7.5475 6.18832 4.3758
9 1 2 0.115889 18.266 5.48596 12.6084
10 1 2 0.115889 18.266 15.6058 2.30572
11 1 2 0.115888 18.266 13.716 0.969417
12 1 2 0.115888 18.266 7.37578 13.9447
13 1 2 0.11589 25.3934 11.4908 8.12521
14 1 2 0.11589 11.1386 9.60096 6.7889
15 1 2 0.115888 11.1386 11.4908 8.12521
16 1 2 0.115888 25.3934 9.60096 6.7889
17 1 2 0.115889 15.5206 8.96083 0.969417
18 1 2 0.115889 21.0114 12.1309 13.9447
19 1 2 0.115888 22.648 13.0758 12.6084
20 1 2 0.115888 13.884 8.01592 2.30572
21 1 2 0.115889 21.0114 3.90092 8.12521
22 1 2 0.115889 15.5206 17.1908 6.7889
23 1 2 0.115887 13.884 16.2459 8.12521
24 1 2 0.115887 22.648 4.84583 6.7889
25 1 2 0.115889 22.648 16.2459 8.12521
26 1 2 0.115889 13.884 4.84583 6.7889
27 1 2 0.115887 15.5206 3.90092 8.12521
28 1 2 0.115887 21.0114 17.1908 6.7889
29 1 2 0.115889 21.0114 8.96083 0.969417
30 1 2 0.115889 15.5206 12.1309 13.9447
31 1 2 0.115887 13.884 13.0758 12.6084
32 1 2 0.115887 22.648 8.01592 2.30572
33 1 3 0.671939 27.399 18.7442 13.2542
34 1 3 0.671939 9.13299 2.34751 1.65994
35 1 3 0.671939 27.399 12.8934 9.117
36 1 3 0.671939 9.13299 8.19836 5.79712
37 1 3 0.67194 24.8655 14.3561 13.2542
38 1 3 0.67194 11.6665 6.73565 1.65994
39 1 3 0.67194 29.9325 17.2815 9.117
40 1 3 0.67194 6.5995 3.81022 5.79712
41 1 3 0.67194 24.8655 17.2815 9.117
42 1 3 0.67194 11.6665 3.81022 5.79712
43 1 3 0.67194 29.9325 14.3561 13.2542
44 1 3 0.67194 6.5995 6.73565 1.65994
45 1 3 -0.11508 27.399 19.957 14.1117
46 1 3 -0.11508 9.13299 1.13474 0.802379
47 1 3 -0.11508 27.399 11.6806 8.25944
48 1 3 -0.11508 9.13299 9.41113 6.65468
49 1 3 -0.11508 23.8152 13.7497 14.1117
50 1 3 -0.11508 12.7168 7.34203 0.802379
51 1 3 -0.11508 30.9828 17.8879 8.25944
52 1 3 -0.11508 5.54921 3.20384 6.65468
53 1 3 -0.11508 23.8152 17.8879 8.25944
54 1 3 -0.11508 12.7168 3.20384 6.65468
55 1 3 -0.11508 30.9828 13.7497 14.1117
56 1 3 -0.11508 5.54921 7.34203 0.802379
57 1 3 -0.0559 18.266 5.39949 13.5316
58 1 3 -0.0559 18.266 15.6923 1.38254
59 1 3 -0.055903 18.266 14.5575 0.580159
60 1 3 -0.055903 18.266 6.53422 14.334
61 1 3 -0.0559 26.1971 11.1132 7.85825
62 1 3 -0.0559 10.3349 9.9785 7.05587
63 1 3 -0.055903 10.3349 11.1132 7.85825
64 1 3 -0.055903 26.1971 9.9785 7.05587
65 1 3 -0.0559 14.7918 8.54005 0.580159
66 1 3 -0.0559 21.7402 12.5517 14.334
67 1 3 -0.055903 22.7229 13.1191 13.5316
68 1 3 -0.055903 13.8091 7.97268 1.38254
69 1 3 -0.0559 21.7402 3.39366 7.85825
70 1 3 -0.0559 14.7918 17.6981 7.05587
71 1 3 -0.055903 13.8091 17.1307 7.85825
72 1 3 -0.055903 22.7229 3.96103 7.05587
73 1 3 -0.055901 22.7229 17.1307 7.85825
74 1 3 -0.055901 13.8091 3.96103 7.05587
75 1 3 -0.055903 14.7918 3.39366 7.85825
76 1 3 -0.055903 21.7402 17.6981 7.05587
77 1 3 -0.0559 21.7402 8.54005 0.580159
78 1 3 -0.0559 14.7918 12.5517 14.334
79 1 3 -0.055903 13.8091 13.1191 13.5316
80 1 3 -0.055903 22.7229 7.97268 1.38254
81 1 4 -1.26215 27.399 15.8188 11.1856
82 1 4 -1.26215 9.13299 5.27293 3.72853
83 1 4 -0.60118 27.399 18.9383 11.9641
84 1 4 -0.60118 9.13299 2.15347 2.95001
85 1 4 -0.601179 27.399 17.5926 13.8671
86 1 4 -0.601179 9.13299 3.49912 1.04697
87 1 4 -0.601179 26.2336 13.3722 9.45555
88 1 4 -0.601179 10.2984 7.71958 5.45857
89 1 4 -0.60118 28.5643 13.3722 9.45555
90 1 4 -0.60118 7.96762 7.71958 5.45857
91 1 4 -0.60118 25.8628 14.9319 13.8671
92 1 4 -0.60118 10.6692 6.15984 1.04697
93 1 4 -0.601179 24.6974 14.2591 11.9641
94 1 4 -0.601179 11.8345 6.83267 2.95001
95 1 4 -0.60118 28.9351 18.0514 9.45555
96 1 4 -0.60118 7.59682 3.04037 5.45857
97 1 4 -0.601179 30.1005 16.0329 9.45555
98 1 4 -0.601179 6.43145 5.05885 5.45857
99 1 4 -0.601179 24.6974 16.0329 9.45555
100 1 4 -0.601179 11.8345 5.05885 5.45857
101 1 4 -0.60118 25.8628 18.0514 9.45555
102 1 4 -0.60118 10.6692 3.04037 5.45857
103 1 4 -0.60118 28.9351 14.9319 13.8671
104 1 4 -0.60118 7.59682 6.15984 1.04697
105 1 4 -0.60118 30.1005 14.2591 11.9641
106 1 4 -0.60118 6.43145 6.83267 2.95001
ITEM: TIMESTEP
13000
ITEM: NUMBER OF ATOMS
121
ITEM: BOX BOUNDS xy xz yz pp pp pp
0.0000000000000000e+00 3.6531964750000000e+01 9.1329911900000003e+00
0.0000000000000000e+00 2.1091739680000000e+01 9.1329911900000003e+00
0.0000000000000000e+00 1.4914112149999999e+01 5.2729349200000000e+00
ITEM: ATOMS id mol type q x y z
1 1 1 1.10383 27.399 17.6496 10.5383
2 1 1 1.10383 9.13299 3.44217 4.3758
3 1 1 1.10383 27.399 15.8188 13.1274
4 1 1 1.10383 9.13299 5.27293 1.78671
5 1 1 1.10383 25.8135 14.9034 10.5383
6 1 1 1.10383 10.7185 6.18832 4.3758
7 1 1 1.10383 28.9845 14.9034 10.5383
8 1 1 1.10383 7.5475 6.18832 4.3758
9 1 2 0.115889 18.266 5.48596 12.6084
10 1 2 0.115889 18.266 15.6058 2.30572
11 1 2 0.115888 18.266 13.716 0.969417
12 1 2 0.115888 18.266 7.37578 13.9447
13 1 2 0.11589 25.3934 11.4908 8.12521
14 1 2 0.11589 11.1386 9.60096 6.7889
15 1 2 0.115888 11.1386 11.4908 8.12521
16 1 2 0.115888 25.3934 9.60096 6.7889
17 1 2 0.115889 15.5206 8.96083 0.969417
18 1 2 0.115889 21.0114 12.1309 13.9447
19 1 2 0.115888 22.648 13.0758 12.6084
20 1 2 0.115888 13.884 8.01592 2.30572
21 1 2 0.115889 21.0114 3.90092 8.12521
22 1 2 0.115889 15.5206 17.1908 6.7889
23 1 2 0.115887 13.884 16.2459 8.12521
24 1 2 0.115887 22.648 4.84583 6.7889
25 1 2 0.115889 22.648 16.2459 8.12521
26 1 2 0.115889 13.884 4.84583 6.7889
27 1 2 0.115887 15.5206 3.90092 8.12521
28 1 2 0.115887 21.0114 17.1908 6.7889
29 1 2 0.115889 21.0114 8.96083 0.969417
30 1 2 0.115889 15.5206 12.1309 13.9447
31 1 2 0.115887 13.884 13.0758 12.6084
32 1 2 0.115887 22.648 8.01592 2.30572
33 1 3 0.671939 27.399 18.7442 13.2542
34 1 3 0.671939 9.13299 2.34751 1.65994
35 1 3 0.671939 27.399 12.8934 9.117
36 1 3 0.671939 9.13299 8.19836 5.79712
37 1 3 0.67194 24.8655 14.3561 13.2542
38 1 3 0.67194 11.6665 6.73565 1.65994
39 1 3 0.67194 29.9325 17.2815 9.117
40 1 3 0.67194 6.5995 3.81022 5.79712
41 1 3 0.67194 24.8655 17.2815 9.117
42 1 3 0.67194 11.6665 3.81022 5.79712
43 1 3 0.67194 29.9325 14.3561 13.2542
44 1 3 0.67194 6.5995 6.73565 1.65994
45 1 3 -0.11508 27.399 19.957 14.1117
46 1 3 -0.11508 9.13299 1.13474 0.802379
47 1 3 -0.11508 27.399 11.6806 8.25944
48 1 3 -0.11508 9.13299 9.41113 6.65468
49 1 3 -0.11508 23.8152 13.7497 14.1117
50 1 3 -0.11508 12.7168 7.34203 0.802379
51 1 3 -0.11508 30.9828 17.8879 8.25944
52 1 3 -0.11508 5.54921 3.20384 6.65468
53 1 3 -0.11508 23.8152 17.8879 8.25944
54 1 3 -0.11508 12.7168 3.20384 6.65468
55 1 3 -0.11508 30.9828 13.7497 14.1117
56 1 3 -0.11508 5.54921 7.34203 0.802379
57 1 3 -0.0559 18.266 5.39949 13.5316
58 1 3 -0.0559 18.266 15.6923 1.38254
59 1 3 -0.055903 18.266 14.5575 0.580159
60 1 3 -0.055903 18.266 6.53422 14.334
61 1 3 -0.0559 26.1971 11.1132 7.85825
62 1 3 -0.0559 10.3349 9.9785 7.05587
63 1 3 -0.055903 10.3349 11.1132 7.85825
64 1 3 -0.055903 26.1971 9.9785 7.05587
65 1 3 -0.0559 14.7918 8.54005 0.580159
66 1 3 -0.0559 21.7402 12.5517 14.334
67 1 3 -0.055903 22.7229 13.1191 13.5316
68 1 3 -0.055903 13.8091 7.97268 1.38254
69 1 3 -0.0559 21.7402 3.39366 7.85825
70 1 3 -0.0559 14.7918 17.6981 7.05587
71 1 3 -0.055903 13.8091 17.1307 7.85825
72 1 3 -0.055903 22.7229 3.96103 7.05587
73 1 3 -0.055901 22.7229 17.1307 7.85825
74 1 3 -0.055901 13.8091 3.96103 7.05587
75 1 3 -0.055903 14.7918 3.39366 7.85825
76 1 3 -0.055903 21.7402 17.6981 7.05587
77 1 3 -0.0559 21.7402 8.54005 0.580159
78 1 3 -0.0559 14.7918 12.5517 14.334
79 1 3 -0.055903 13.8091 13.1191 13.5316
80 1 3 -0.055903 22.7229 7.97268 1.38254
81 1 4 -1.26215 27.399 15.8188 11.1856
82 1 4 -1.26215 9.13299 5.27293 3.72853
83 1 4 -0.60118 27.399 18.9383 11.9641
84 1 4 -0.60118 9.13299 2.15347 2.95001
85 1 4 -0.601179 27.399 17.5926 13.8671
86 1 4 -0.601179 9.13299 3.49912 1.04697
87 1 4 -0.601179 26.2336 13.3722 9.45555
88 1 4 -0.601179 10.2984 7.71958 5.45857
89 1 4 -0.60118 28.5643 13.3722 9.45555
90 1 4 -0.60118 7.96762 7.71958 5.45857
91 1 4 -0.60118 25.8628 14.9319 13.8671
92 1 4 -0.60118 10.6692 6.15984 1.04697
93 1 4 -0.601179 24.6974 14.2591 11.9641
94 1 4 -0.601179 11.8345 6.83267 2.95001
95 1 4 -0.60118 28.9351 18.0514 9.45555
96 1 4 -0.60118 7.59682 3.04037 5.45857
97 1 4 -0.601179 30.1005 16.0329 9.45555
98 1 4 -0.601179 6.43145 5.05885 5.45857
99 1 4 -0.601179 24.6974 16.0329 9.45555
100 1 4 -0.601179 11.8345 5.05885 5.45857
101 1 4 -0.60118 25.8628 18.0514 9.45555
102 1 4 -0.60118 10.6692 3.04037 5.45857
103 1 4 -0.60118 28.9351 14.9319 13.8671
104 1 4 -0.60118 7.59682 6.15984 1.04697
105 1 4 -0.60118 30.1005 14.2591 11.9641
106 1 4 -0.60118 6.43145 6.83267 2.95001
110 3 5 -0.35 14.3606 15.7032 11.0978
111 3 6 0.7 14.8048 16.5314 11.7778
112 3 5 -0.35 15.249 17.3595 12.4579
113 4 5 -0.35 7.18079 6.13341 8.45633
114 4 6 0.7 24.3626 6.53069 8.34493
115 4 5 -0.35 23.2785 6.92796 8.23353
116 5 5 -0.35 21.5031 4.26039 3.24021
117 5 6 0.7 21.1185 4.46613 2.16534
118 5 5 -0.35 20.7339 4.67187 1.09048
119 6 5 -0.35 21.4483 11.4235 1.31295
120 6 6 0.7 21.8235 11.8226 0.290391
121 6 5 -0.35 31.3317 17.4945 14.1819
122 7 5 -0.35 16.7831 16.2189 8.74745
123 7 6 0.7 17.2727 17.2659 8.64895
124 7 5 -0.35 17.7622 18.3129 8.55045
ITEM: TIMESTEP
14000
ITEM: NUMBER OF ATOMS
106
ITEM: BOX BOUNDS xy xz yz pp pp pp
0.0000000000000000e+00 3.6531964750000000e+01 9.1329911900000003e+00
0.0000000000000000e+00 2.1091739680000000e+01 9.1329911900000003e+00
0.0000000000000000e+00 1.4914112149999999e+01 5.2729349200000000e+00
ITEM: ATOMS id mol type q x y z
1 1 1 1.10383 27.399 17.6496 10.5383
2 1 1 1.10383 9.13299 3.44217 4.3758
3 1 1 1.10383 27.399 15.8188 13.1274
4 1 1 1.10383 9.13299 5.27293 1.78671
5 1 1 1.10383 25.8135 14.9034 10.5383
6 1 1 1.10383 10.7185 6.18832 4.3758
7 1 1 1.10383 28.9845 14.9034 10.5383
8 1 1 1.10383 7.5475 6.18832 4.3758
9 1 2 0.115889 18.266 5.48596 12.6084
10 1 2 0.115889 18.266 15.6058 2.30572
11 1 2 0.115888 18.266 13.716 0.969417
12 1 2 0.115888 18.266 7.37578 13.9447
13 1 2 0.11589 25.3934 11.4908 8.12521
14 1 2 0.11589 11.1386 9.60096 6.7889
15 1 2 0.115888 11.1386 11.4908 8.12521
16 1 2 0.115888 25.3934 9.60096 6.7889
17 1 2 0.115889 15.5206 8.96083 0.969417
18 1 2 0.115889 21.0114 12.1309 13.9447
19 1 2 0.115888 22.648 13.0758 12.6084
20 1 2 0.115888 13.884 8.01592 2.30572
21 1 2 0.115889 21.0114 3.90092 8.12521
22 1 2 0.115889 15.5206 17.1908 6.7889
23 1 2 0.115887 13.884 16.2459 8.12521
24 1 2 0.115887 22.648 4.84583 6.7889
25 1 2 0.115889 22.648 16.2459 8.12521
26 1 2 0.115889 13.884 4.84583 6.7889
27 1 2 0.115887 15.5206 3.90092 8.12521
28 1 2 0.115887 21.0114 17.1908 6.7889
29 1 2 0.115889 21.0114 8.96083 0.969417
30 1 2 0.115889 15.5206 12.1309 13.9447
31 1 2 0.115887 13.884 13.0758 12.6084
32 1 2 0.115887 22.648 8.01592 2.30572
33 1 3 0.671939 27.399 18.7442 13.2542
34 1 3 0.671939 9.13299 2.34751 1.65994
35 1 3 0.671939 27.399 12.8934 9.117
36 1 3 0.671939 9.13299 8.19836 5.79712
37 1 3 0.67194 24.8655 14.3561 13.2542
38 1 3 0.67194 11.6665 6.73565 1.65994
39 1 3 0.67194 29.9325 17.2815 9.117
40 1 3 0.67194 6.5995 3.81022 5.79712
41 1 3 0.67194 24.8655 17.2815 9.117
42 1 3 0.67194 11.6665 3.81022 5.79712
43 1 3 0.67194 29.9325 14.3561 13.2542
44 1 3 0.67194 6.5995 6.73565 1.65994
45 1 3 -0.11508 27.399 19.957 14.1117
46 1 3 -0.11508 9.13299 1.13474 0.802379
47 1 3 -0.11508 27.399 11.6806 8.25944
48 1 3 -0.11508 9.13299 9.41113 6.65468
49 1 3 -0.11508 23.8152 13.7497 14.1117
50 1 3 -0.11508 12.7168 7.34203 0.802379
51 1 3 -0.11508 30.9828 17.8879 8.25944
52 1 3 -0.11508 5.54921 3.20384 6.65468
53 1 3 -0.11508 23.8152 17.8879 8.25944
54 1 3 -0.11508 12.7168 3.20384 6.65468
55 1 3 -0.11508 30.9828 13.7497 14.1117
56 1 3 -0.11508 5.54921 7.34203 0.802379
57 1 3 -0.0559 18.266 5.39949 13.5316
58 1 3 -0.0559 18.266 15.6923 1.38254
59 1 3 -0.055903 18.266 14.5575 0.580159
60 1 3 -0.055903 18.266 6.53422 14.334
61 1 3 -0.0559 26.1971 11.1132 7.85825
62 1 3 -0.0559 10.3349 9.9785 7.05587
63 1 3 -0.055903 10.3349 11.1132 7.85825
64 1 3 -0.055903 26.1971 9.9785 7.05587
65 1 3 -0.0559 14.7918 8.54005 0.580159
66 1 3 -0.0559 21.7402 12.5517 14.334
67 1 3 -0.055903 22.7229 13.1191 13.5316
68 1 3 -0.055903 13.8091 7.97268 1.38254
69 1 3 -0.0559 21.7402 3.39366 7.85825
70 1 3 -0.0559 14.7918 17.6981 7.05587
71 1 3 -0.055903 13.8091 17.1307 7.85825
72 1 3 -0.055903 22.7229 3.96103 7.05587
73 1 3 -0.055901 22.7229 17.1307 7.85825
74 1 3 -0.055901 13.8091 3.96103 7.05587
75 1 3 -0.055903 14.7918 3.39366 7.85825
76 1 3 -0.055903 21.7402 17.6981 7.05587
77 1 3 -0.0559 21.7402 8.54005 0.580159
78 1 3 -0.0559 14.7918 12.5517 14.334
79 1 3 -0.055903 13.8091 13.1191 13.5316
80 1 3 -0.055903 22.7229 7.97268 1.38254
81 1 4 -1.26215 27.399 15.8188 11.1856
82 1 4 -1.26215 9.13299 5.27293 3.72853
83 1 4 -0.60118 27.399 18.9383 11.9641
84 1 4 -0.60118 9.13299 2.15347 2.95001
85 1 4 -0.601179 27.399 17.5926 13.8671
86 1 4 -0.601179 9.13299 3.49912 1.04697
87 1 4 -0.601179 26.2336 13.3722 9.45555
88 1 4 -0.601179 10.2984 7.71958 5.45857
89 1 4 -0.60118 28.5643 13.3722 9.45555
90 1 4 -0.60118 7.96762 7.71958 5.45857
91 1 4 -0.60118 25.8628 14.9319 13.8671
92 1 4 -0.60118 10.6692 6.15984 1.04697
93 1 4 -0.601179 24.6974 14.2591 11.9641
94 1 4 -0.601179 11.8345 6.83267 2.95001
95 1 4 -0.60118 28.9351 18.0514 9.45555
96 1 4 -0.60118 7.59682 3.04037 5.45857
97 1 4 -0.601179 30.1005 16.0329 9.45555
98 1 4 -0.601179 6.43145 5.05885 5.45857
99 1 4 -0.601179 24.6974 16.0329 9.45555
100 1 4 -0.601179 11.8345 5.05885 5.45857
101 1 4 -0.60118 25.8628 18.0514 9.45555
102 1 4 -0.60118 10.6692 3.04037 5.45857
103 1 4 -0.60118 28.9351 14.9319 13.8671
104 1 4 -0.60118 7.59682 6.15984 1.04697
105 1 4 -0.60118 30.1005 14.2591 11.9641
106 1 4 -0.60118 6.43145 6.83267 2.95001
ITEM: TIMESTEP
15000
ITEM: NUMBER OF ATOMS
109
ITEM: BOX BOUNDS xy xz yz pp pp pp
0.0000000000000000e+00 3.6531964750000000e+01 9.1329911900000003e+00
0.0000000000000000e+00 2.1091739680000000e+01 9.1329911900000003e+00
0.0000000000000000e+00 1.4914112149999999e+01 5.2729349200000000e+00
ITEM: ATOMS id mol type q x y z
1 1 1 1.10383 27.399 17.6496 10.5383
2 1 1 1.10383 9.13299 3.44217 4.3758
3 1 1 1.10383 27.399 15.8188 13.1274
4 1 1 1.10383 9.13299 5.27293 1.78671
5 1 1 1.10383 25.8135 14.9034 10.5383
6 1 1 1.10383 10.7185 6.18832 4.3758
7 1 1 1.10383 28.9845 14.9034 10.5383
8 1 1 1.10383 7.5475 6.18832 4.3758
9 1 2 0.115889 18.266 5.48596 12.6084
10 1 2 0.115889 18.266 15.6058 2.30572
11 1 2 0.115888 18.266 13.716 0.969417
12 1 2 0.115888 18.266 7.37578 13.9447
13 1 2 0.11589 25.3934 11.4908 8.12521
14 1 2 0.11589 11.1386 9.60096 6.7889
15 1 2 0.115888 11.1386 11.4908 8.12521
16 1 2 0.115888 25.3934 9.60096 6.7889
17 1 2 0.115889 15.5206 8.96083 0.969417
18 1 2 0.115889 21.0114 12.1309 13.9447
19 1 2 0.115888 22.648 13.0758 12.6084
20 1 2 0.115888 13.884 8.01592 2.30572
21 1 2 0.115889 21.0114 3.90092 8.12521
22 1 2 0.115889 15.5206 17.1908 6.7889
23 1 2 0.115887 13.884 16.2459 8.12521
24 1 2 0.115887 22.648 4.84583 6.7889
25 1 2 0.115889 22.648 16.2459 8.12521
26 1 2 0.115889 13.884 4.84583 6.7889
27 1 2 0.115887 15.5206 3.90092 8.12521
28 1 2 0.115887 21.0114 17.1908 6.7889
29 1 2 0.115889 21.0114 8.96083 0.969417
30 1 2 0.115889 15.5206 12.1309 13.9447
31 1 2 0.115887 13.884 13.0758 12.6084
32 1 2 0.115887 22.648 8.01592 2.30572
33 1 3 0.671939 27.399 18.7442 13.2542
34 1 3 0.671939 9.13299 2.34751 1.65994
35 1 3 0.671939 27.399 12.8934 9.117
36 1 3 0.671939 9.13299 8.19836 5.79712
37 1 3 0.67194 24.8655 14.3561 13.2542
38 1 3 0.67194 11.6665 6.73565 1.65994
39 1 3 0.67194 29.9325 17.2815 9.117
40 1 3 0.67194 6.5995 3.81022 5.79712
41 1 3 0.67194 24.8655 17.2815 9.117
42 1 3 0.67194 11.6665 3.81022 5.79712
43 1 3 0.67194 29.9325 14.3561 13.2542
44 1 3 0.67194 6.5995 6.73565 1.65994
45 1 3 -0.11508 27.399 19.957 14.1117
46 1 3 -0.11508 9.13299 1.13474 0.802379
47 1 3 -0.11508 27.399 11.6806 8.25944
48 1 3 -0.11508 9.13299 9.41113 6.65468
49 1 3 -0.11508 23.8152 13.7497 14.1117
50 1 3 -0.11508 12.7168 7.34203 0.802379
51 1 3 -0.11508 30.9828 17.8879 8.25944
52 1 3 -0.11508 5.54921 3.20384 6.65468
53 1 3 -0.11508 23.8152 17.8879 8.25944
54 1 3 -0.11508 12.7168 3.20384 6.65468
55 1 3 -0.11508 30.9828 13.7497 14.1117
56 1 3 -0.11508 5.54921 7.34203 0.802379
57 1 3 -0.0559 18.266 5.39949 13.5316
58 1 3 -0.0559 18.266 15.6923 1.38254
59 1 3 -0.055903 18.266 14.5575 0.580159
60 1 3 -0.055903 18.266 6.53422 14.334
61 1 3 -0.0559 26.1971 11.1132 7.85825
62 1 3 -0.0559 10.3349 9.9785 7.05587
63 1 3 -0.055903 10.3349 11.1132 7.85825
64 1 3 -0.055903 26.1971 9.9785 7.05587
65 1 3 -0.0559 14.7918 8.54005 0.580159
66 1 3 -0.0559 21.7402 12.5517 14.334
67 1 3 -0.055903 22.7229 13.1191 13.5316
68 1 3 -0.055903 13.8091 7.97268 1.38254
69 1 3 -0.0559 21.7402 3.39366 7.85825
70 1 3 -0.0559 14.7918 17.6981 7.05587
71 1 3 -0.055903 13.8091 17.1307 7.85825
72 1 3 -0.055903 22.7229 3.96103 7.05587
73 1 3 -0.055901 22.7229 17.1307 7.85825
74 1 3 -0.055901 13.8091 3.96103 7.05587
75 1 3 -0.055903 14.7918 3.39366 7.85825
76 1 3 -0.055903 21.7402 17.6981 7.05587
77 1 3 -0.0559 21.7402 8.54005 0.580159
78 1 3 -0.0559 14.7918 12.5517 14.334
79 1 3 -0.055903 13.8091 13.1191 13.5316
80 1 3 -0.055903 22.7229 7.97268 1.38254
81 1 4 -1.26215 27.399 15.8188 11.1856
82 1 4 -1.26215 9.13299 5.27293 3.72853
83 1 4 -0.60118 27.399 18.9383 11.9641
84 1 4 -0.60118 9.13299 2.15347 2.95001
85 1 4 -0.601179 27.399 17.5926 13.8671
86 1 4 -0.601179 9.13299 3.49912 1.04697
87 1 4 -0.601179 26.2336 13.3722 9.45555
88 1 4 -0.601179 10.2984 7.71958 5.45857
89 1 4 -0.60118 28.5643 13.3722 9.45555
90 1 4 -0.60118 7.96762 7.71958 5.45857
91 1 4 -0.60118 25.8628 14.9319 13.8671
92 1 4 -0.60118 10.6692 6.15984 1.04697
93 1 4 -0.601179 24.6974 14.2591 11.9641
94 1 4 -0.601179 11.8345 6.83267 2.95001
95 1 4 -0.60118 28.9351 18.0514 9.45555
96 1 4 -0.60118 7.59682 3.04037 5.45857
97 1 4 -0.601179 30.1005 16.0329 9.45555
98 1 4 -0.601179 6.43145 5.05885 5.45857
99 1 4 -0.601179 24.6974 16.0329 9.45555
100 1 4 -0.601179 11.8345 5.05885 5.45857
101 1 4 -0.60118 25.8628 18.0514 9.45555
102 1 4 -0.60118 10.6692 3.04037 5.45857
103 1 4 -0.60118 28.9351 14.9319 13.8671
104 1 4 -0.60118 7.59682 6.15984 1.04697
105 1 4 -0.60118 30.1005 14.2591 11.9641
106 1 4 -0.60118 6.43145 6.83267 2.95001
110 3 5 -0.35 21.7302 12.9375 0.162402
111 3 6 0.7 30.7383 18.1152 13.9272
112 3 5 -0.35 30.6134 18.0199 12.7779
ITEM: TIMESTEP
16000
ITEM: NUMBER OF ATOMS
109
ITEM: BOX BOUNDS xy xz yz pp pp pp
0.0000000000000000e+00 3.6531964750000000e+01 9.1329911900000003e+00
0.0000000000000000e+00 2.1091739680000000e+01 9.1329911900000003e+00
0.0000000000000000e+00 1.4914112149999999e+01 5.2729349200000000e+00
ITEM: ATOMS id mol type q x y z
1 1 1 1.10383 27.399 17.6496 10.5383
2 1 1 1.10383 9.13299 3.44217 4.3758
3 1 1 1.10383 27.399 15.8188 13.1274
4 1 1 1.10383 9.13299 5.27293 1.78671
5 1 1 1.10383 25.8135 14.9034 10.5383
6 1 1 1.10383 10.7185 6.18832 4.3758
7 1 1 1.10383 28.9845 14.9034 10.5383
8 1 1 1.10383 7.5475 6.18832 4.3758
9 1 2 0.115889 18.266 5.48596 12.6084
10 1 2 0.115889 18.266 15.6058 2.30572
11 1 2 0.115888 18.266 13.716 0.969417
12 1 2 0.115888 18.266 7.37578 13.9447
13 1 2 0.11589 25.3934 11.4908 8.12521
14 1 2 0.11589 11.1386 9.60096 6.7889
15 1 2 0.115888 11.1386 11.4908 8.12521
16 1 2 0.115888 25.3934 9.60096 6.7889
17 1 2 0.115889 15.5206 8.96083 0.969417
18 1 2 0.115889 21.0114 12.1309 13.9447
19 1 2 0.115888 22.648 13.0758 12.6084
20 1 2 0.115888 13.884 8.01592 2.30572
21 1 2 0.115889 21.0114 3.90092 8.12521
22 1 2 0.115889 15.5206 17.1908 6.7889
23 1 2 0.115887 13.884 16.2459 8.12521
24 1 2 0.115887 22.648 4.84583 6.7889
25 1 2 0.115889 22.648 16.2459 8.12521
26 1 2 0.115889 13.884 4.84583 6.7889
27 1 2 0.115887 15.5206 3.90092 8.12521
28 1 2 0.115887 21.0114 17.1908 6.7889
29 1 2 0.115889 21.0114 8.96083 0.969417
30 1 2 0.115889 15.5206 12.1309 13.9447
31 1 2 0.115887 13.884 13.0758 12.6084
32 1 2 0.115887 22.648 8.01592 2.30572
33 1 3 0.671939 27.399 18.7442 13.2542
34 1 3 0.671939 9.13299 2.34751 1.65994
35 1 3 0.671939 27.399 12.8934 9.117
36 1 3 0.671939 9.13299 8.19836 5.79712
37 1 3 0.67194 24.8655 14.3561 13.2542
38 1 3 0.67194 11.6665 6.73565 1.65994
39 1 3 0.67194 29.9325 17.2815 9.117
40 1 3 0.67194 6.5995 3.81022 5.79712
41 1 3 0.67194 24.8655 17.2815 9.117
42 1 3 0.67194 11.6665 3.81022 5.79712
43 1 3 0.67194 29.9325 14.3561 13.2542
44 1 3 0.67194 6.5995 6.73565 1.65994
45 1 3 -0.11508 27.399 19.957 14.1117
46 1 3 -0.11508 9.13299 1.13474 0.802379
47 1 3 -0.11508 27.399 11.6806 8.25944
48 1 3 -0.11508 9.13299 9.41113 6.65468
49 1 3 -0.11508 23.8152 13.7497 14.1117
50 1 3 -0.11508 12.7168 7.34203 0.802379
51 1 3 -0.11508 30.9828 17.8879 8.25944
52 1 3 -0.11508 5.54921 3.20384 6.65468
53 1 3 -0.11508 23.8152 17.8879 8.25944
54 1 3 -0.11508 12.7168 3.20384 6.65468
55 1 3 -0.11508 30.9828 13.7497 14.1117
56 1 3 -0.11508 5.54921 7.34203 0.802379
57 1 3 -0.0559 18.266 5.39949 13.5316
58 1 3 -0.0559 18.266 15.6923 1.38254
59 1 3 -0.055903 18.266 14.5575 0.580159
60 1 3 -0.055903 18.266 6.53422 14.334
61 1 3 -0.0559 26.1971 11.1132 7.85825
62 1 3 -0.0559 10.3349 9.9785 7.05587
63 1 3 -0.055903 10.3349 11.1132 7.85825
64 1 3 -0.055903 26.1971 9.9785 7.05587
65 1 3 -0.0559 14.7918 8.54005 0.580159
66 1 3 -0.0559 21.7402 12.5517 14.334
67 1 3 -0.055903 22.7229 13.1191 13.5316
68 1 3 -0.055903 13.8091 7.97268 1.38254
69 1 3 -0.0559 21.7402 3.39366 7.85825
70 1 3 -0.0559 14.7918 17.6981 7.05587
71 1 3 -0.055903 13.8091 17.1307 7.85825
72 1 3 -0.055903 22.7229 3.96103 7.05587
73 1 3 -0.055901 22.7229 17.1307 7.85825
74 1 3 -0.055901 13.8091 3.96103 7.05587
75 1 3 -0.055903 14.7918 3.39366 7.85825
76 1 3 -0.055903 21.7402 17.6981 7.05587
77 1 3 -0.0559 21.7402 8.54005 0.580159
78 1 3 -0.0559 14.7918 12.5517 14.334
79 1 3 -0.055903 13.8091 13.1191 13.5316
80 1 3 -0.055903 22.7229 7.97268 1.38254
81 1 4 -1.26215 27.399 15.8188 11.1856
82 1 4 -1.26215 9.13299 5.27293 3.72853
83 1 4 -0.60118 27.399 18.9383 11.9641
84 1 4 -0.60118 9.13299 2.15347 2.95001
85 1 4 -0.601179 27.399 17.5926 13.8671
86 1 4 -0.601179 9.13299 3.49912 1.04697
87 1 4 -0.601179 26.2336 13.3722 9.45555
88 1 4 -0.601179 10.2984 7.71958 5.45857
89 1 4 -0.60118 28.5643 13.3722 9.45555
90 1 4 -0.60118 7.96762 7.71958 5.45857
91 1 4 -0.60118 25.8628 14.9319 13.8671
92 1 4 -0.60118 10.6692 6.15984 1.04697
93 1 4 -0.601179 24.6974 14.2591 11.9641
94 1 4 -0.601179 11.8345 6.83267 2.95001
95 1 4 -0.60118 28.9351 18.0514 9.45555
96 1 4 -0.60118 7.59682 3.04037 5.45857
97 1 4 -0.601179 30.1005 16.0329 9.45555
98 1 4 -0.601179 6.43145 5.05885 5.45857
99 1 4 -0.601179 24.6974 16.0329 9.45555
100 1 4 -0.601179 11.8345 5.05885 5.45857
101 1 4 -0.60118 25.8628 18.0514 9.45555
102 1 4 -0.60118 10.6692 3.04037 5.45857
103 1 4 -0.60118 28.9351 14.9319 13.8671
104 1 4 -0.60118 7.59682 6.15984 1.04697
105 1 4 -0.60118 30.1005 14.2591 11.9641
106 1 4 -0.60118 6.43145 6.83267 2.95001
107 2 5 -0.35 17.1296 10.7053 11.9038
108 2 6 0.7 17.74 11.097 10.9985
109 2 5 -0.35 18.3504 11.4887 10.0931
ITEM: TIMESTEP
17000
ITEM: NUMBER OF ATOMS
106
ITEM: BOX BOUNDS xy xz yz pp pp pp
0.0000000000000000e+00 3.6531964750000000e+01 9.1329911900000003e+00
0.0000000000000000e+00 2.1091739680000000e+01 9.1329911900000003e+00
0.0000000000000000e+00 1.4914112149999999e+01 5.2729349200000000e+00
ITEM: ATOMS id mol type q x y z
1 1 1 1.10383 27.399 17.6496 10.5383
2 1 1 1.10383 9.13299 3.44217 4.3758
3 1 1 1.10383 27.399 15.8188 13.1274
4 1 1 1.10383 9.13299 5.27293 1.78671
5 1 1 1.10383 25.8135 14.9034 10.5383
6 1 1 1.10383 10.7185 6.18832 4.3758
7 1 1 1.10383 28.9845 14.9034 10.5383
8 1 1 1.10383 7.5475 6.18832 4.3758
9 1 2 0.115889 18.266 5.48596 12.6084
10 1 2 0.115889 18.266 15.6058 2.30572
11 1 2 0.115888 18.266 13.716 0.969417
12 1 2 0.115888 18.266 7.37578 13.9447
13 1 2 0.11589 25.3934 11.4908 8.12521
14 1 2 0.11589 11.1386 9.60096 6.7889
15 1 2 0.115888 11.1386 11.4908 8.12521
16 1 2 0.115888 25.3934 9.60096 6.7889
17 1 2 0.115889 15.5206 8.96083 0.969417
18 1 2 0.115889 21.0114 12.1309 13.9447
19 1 2 0.115888 22.648 13.0758 12.6084
20 1 2 0.115888 13.884 8.01592 2.30572
21 1 2 0.115889 21.0114 3.90092 8.12521
22 1 2 0.115889 15.5206 17.1908 6.7889
23 1 2 0.115887 13.884 16.2459 8.12521
24 1 2 0.115887 22.648 4.84583 6.7889
25 1 2 0.115889 22.648 16.2459 8.12521
26 1 2 0.115889 13.884 4.84583 6.7889
27 1 2 0.115887 15.5206 3.90092 8.12521
28 1 2 0.115887 21.0114 17.1908 6.7889
29 1 2 0.115889 21.0114 8.96083 0.969417
30 1 2 0.115889 15.5206 12.1309 13.9447
31 1 2 0.115887 13.884 13.0758 12.6084
32 1 2 0.115887 22.648 8.01592 2.30572
33 1 3 0.671939 27.399 18.7442 13.2542
34 1 3 0.671939 9.13299 2.34751 1.65994
35 1 3 0.671939 27.399 12.8934 9.117
36 1 3 0.671939 9.13299 8.19836 5.79712
37 1 3 0.67194 24.8655 14.3561 13.2542
38 1 3 0.67194 11.6665 6.73565 1.65994
39 1 3 0.67194 29.9325 17.2815 9.117
40 1 3 0.67194 6.5995 3.81022 5.79712
41 1 3 0.67194 24.8655 17.2815 9.117
42 1 3 0.67194 11.6665 3.81022 5.79712
43 1 3 0.67194 29.9325 14.3561 13.2542
44 1 3 0.67194 6.5995 6.73565 1.65994
45 1 3 -0.11508 27.399 19.957 14.1117
46 1 3 -0.11508 9.13299 1.13474 0.802379
47 1 3 -0.11508 27.399 11.6806 8.25944
48 1 3 -0.11508 9.13299 9.41113 6.65468
49 1 3 -0.11508 23.8152 13.7497 14.1117
50 1 3 -0.11508 12.7168 7.34203 0.802379
51 1 3 -0.11508 30.9828 17.8879 8.25944
52 1 3 -0.11508 5.54921 3.20384 6.65468
53 1 3 -0.11508 23.8152 17.8879 8.25944
54 1 3 -0.11508 12.7168 3.20384 6.65468
55 1 3 -0.11508 30.9828 13.7497 14.1117
56 1 3 -0.11508 5.54921 7.34203 0.802379
57 1 3 -0.0559 18.266 5.39949 13.5316
58 1 3 -0.0559 18.266 15.6923 1.38254
59 1 3 -0.055903 18.266 14.5575 0.580159
60 1 3 -0.055903 18.266 6.53422 14.334
61 1 3 -0.0559 26.1971 11.1132 7.85825
62 1 3 -0.0559 10.3349 9.9785 7.05587
63 1 3 -0.055903 10.3349 11.1132 7.85825
64 1 3 -0.055903 26.1971 9.9785 7.05587
65 1 3 -0.0559 14.7918 8.54005 0.580159
66 1 3 -0.0559 21.7402 12.5517 14.334
67 1 3 -0.055903 22.7229 13.1191 13.5316
68 1 3 -0.055903 13.8091 7.97268 1.38254
69 1 3 -0.0559 21.7402 3.39366 7.85825
70 1 3 -0.0559 14.7918 17.6981 7.05587
71 1 3 -0.055903 13.8091 17.1307 7.85825
72 1 3 -0.055903 22.7229 3.96103 7.05587
73 1 3 -0.055901 22.7229 17.1307 7.85825
74 1 3 -0.055901 13.8091 3.96103 7.05587
75 1 3 -0.055903 14.7918 3.39366 7.85825
76 1 3 -0.055903 21.7402 17.6981 7.05587
77 1 3 -0.0559 21.7402 8.54005 0.580159
78 1 3 -0.0559 14.7918 12.5517 14.334
79 1 3 -0.055903 13.8091 13.1191 13.5316
80 1 3 -0.055903 22.7229 7.97268 1.38254
81 1 4 -1.26215 27.399 15.8188 11.1856
82 1 4 -1.26215 9.13299 5.27293 3.72853
83 1 4 -0.60118 27.399 18.9383 11.9641
84 1 4 -0.60118 9.13299 2.15347 2.95001
85 1 4 -0.601179 27.399 17.5926 13.8671
86 1 4 -0.601179 9.13299 3.49912 1.04697
87 1 4 -0.601179 26.2336 13.3722 9.45555
88 1 4 -0.601179 10.2984 7.71958 5.45857
89 1 4 -0.60118 28.5643 13.3722 9.45555
90 1 4 -0.60118 7.96762 7.71958 5.45857
91 1 4 -0.60118 25.8628 14.9319 13.8671
92 1 4 -0.60118 10.6692 6.15984 1.04697
93 1 4 -0.601179 24.6974 14.2591 11.9641
94 1 4 -0.601179 11.8345 6.83267 2.95001
95 1 4 -0.60118 28.9351 18.0514 9.45555
96 1 4 -0.60118 7.59682 3.04037 5.45857
97 1 4 -0.601179 30.1005 16.0329 9.45555
98 1 4 -0.601179 6.43145 5.05885 5.45857
99 1 4 -0.601179 24.6974 16.0329 9.45555
100 1 4 -0.601179 11.8345 5.05885 5.45857
101 1 4 -0.60118 25.8628 18.0514 9.45555
102 1 4 -0.60118 10.6692 3.04037 5.45857
103 1 4 -0.60118 28.9351 14.9319 13.8671
104 1 4 -0.60118 7.59682 6.15984 1.04697
105 1 4 -0.60118 30.1005 14.2591 11.9641
106 1 4 -0.60118 6.43145 6.83267 2.95001
ITEM: TIMESTEP
18000
ITEM: NUMBER OF ATOMS
106
ITEM: BOX BOUNDS xy xz yz pp pp pp
0.0000000000000000e+00 3.6531964750000000e+01 9.1329911900000003e+00
0.0000000000000000e+00 2.1091739680000000e+01 9.1329911900000003e+00
0.0000000000000000e+00 1.4914112149999999e+01 5.2729349200000000e+00
ITEM: ATOMS id mol type q x y z
1 1 1 1.10383 27.399 17.6496 10.5383
2 1 1 1.10383 9.13299 3.44217 4.3758
3 1 1 1.10383 27.399 15.8188 13.1274
4 1 1 1.10383 9.13299 5.27293 1.78671
5 1 1 1.10383 25.8135 14.9034 10.5383
6 1 1 1.10383 10.7185 6.18832 4.3758
7 1 1 1.10383 28.9845 14.9034 10.5383
8 1 1 1.10383 7.5475 6.18832 4.3758
9 1 2 0.115889 18.266 5.48596 12.6084
10 1 2 0.115889 18.266 15.6058 2.30572
11 1 2 0.115888 18.266 13.716 0.969417
12 1 2 0.115888 18.266 7.37578 13.9447
13 1 2 0.11589 25.3934 11.4908 8.12521
14 1 2 0.11589 11.1386 9.60096 6.7889
15 1 2 0.115888 11.1386 11.4908 8.12521
16 1 2 0.115888 25.3934 9.60096 6.7889
17 1 2 0.115889 15.5206 8.96083 0.969417
18 1 2 0.115889 21.0114 12.1309 13.9447
19 1 2 0.115888 22.648 13.0758 12.6084
20 1 2 0.115888 13.884 8.01592 2.30572
21 1 2 0.115889 21.0114 3.90092 8.12521
22 1 2 0.115889 15.5206 17.1908 6.7889
23 1 2 0.115887 13.884 16.2459 8.12521
24 1 2 0.115887 22.648 4.84583 6.7889
25 1 2 0.115889 22.648 16.2459 8.12521
26 1 2 0.115889 13.884 4.84583 6.7889
27 1 2 0.115887 15.5206 3.90092 8.12521
28 1 2 0.115887 21.0114 17.1908 6.7889
29 1 2 0.115889 21.0114 8.96083 0.969417
30 1 2 0.115889 15.5206 12.1309 13.9447
31 1 2 0.115887 13.884 13.0758 12.6084
32 1 2 0.115887 22.648 8.01592 2.30572
33 1 3 0.671939 27.399 18.7442 13.2542
34 1 3 0.671939 9.13299 2.34751 1.65994
35 1 3 0.671939 27.399 12.8934 9.117
36 1 3 0.671939 9.13299 8.19836 5.79712
37 1 3 0.67194 24.8655 14.3561 13.2542
38 1 3 0.67194 11.6665 6.73565 1.65994
39 1 3 0.67194 29.9325 17.2815 9.117
40 1 3 0.67194 6.5995 3.81022 5.79712
41 1 3 0.67194 24.8655 17.2815 9.117
42 1 3 0.67194 11.6665 3.81022 5.79712
43 1 3 0.67194 29.9325 14.3561 13.2542
44 1 3 0.67194 6.5995 6.73565 1.65994
45 1 3 -0.11508 27.399 19.957 14.1117
46 1 3 -0.11508 9.13299 1.13474 0.802379
47 1 3 -0.11508 27.399 11.6806 8.25944
48 1 3 -0.11508 9.13299 9.41113 6.65468
49 1 3 -0.11508 23.8152 13.7497 14.1117
50 1 3 -0.11508 12.7168 7.34203 0.802379
51 1 3 -0.11508 30.9828 17.8879 8.25944
52 1 3 -0.11508 5.54921 3.20384 6.65468
53 1 3 -0.11508 23.8152 17.8879 8.25944
54 1 3 -0.11508 12.7168 3.20384 6.65468
55 1 3 -0.11508 30.9828 13.7497 14.1117
56 1 3 -0.11508 5.54921 7.34203 0.802379
57 1 3 -0.0559 18.266 5.39949 13.5316
58 1 3 -0.0559 18.266 15.6923 1.38254
59 1 3 -0.055903 18.266 14.5575 0.580159
60 1 3 -0.055903 18.266 6.53422 14.334
61 1 3 -0.0559 26.1971 11.1132 7.85825
62 1 3 -0.0559 10.3349 9.9785 7.05587
63 1 3 -0.055903 10.3349 11.1132 7.85825
64 1 3 -0.055903 26.1971 9.9785 7.05587
65 1 3 -0.0559 14.7918 8.54005 0.580159
66 1 3 -0.0559 21.7402 12.5517 14.334
67 1 3 -0.055903 22.7229 13.1191 13.5316
68 1 3 -0.055903 13.8091 7.97268 1.38254
69 1 3 -0.0559 21.7402 3.39366 7.85825
70 1 3 -0.0559 14.7918 17.6981 7.05587
71 1 3 -0.055903 13.8091 17.1307 7.85825
72 1 3 -0.055903 22.7229 3.96103 7.05587
73 1 3 -0.055901 22.7229 17.1307 7.85825
74 1 3 -0.055901 13.8091 3.96103 7.05587
75 1 3 -0.055903 14.7918 3.39366 7.85825
76 1 3 -0.055903 21.7402 17.6981 7.05587
77 1 3 -0.0559 21.7402 8.54005 0.580159
78 1 3 -0.0559 14.7918 12.5517 14.334
79 1 3 -0.055903 13.8091 13.1191 13.5316
80 1 3 -0.055903 22.7229 7.97268 1.38254
81 1 4 -1.26215 27.399 15.8188 11.1856
82 1 4 -1.26215 9.13299 5.27293 3.72853
83 1 4 -0.60118 27.399 18.9383 11.9641
84 1 4 -0.60118 9.13299 2.15347 2.95001
85 1 4 -0.601179 27.399 17.5926 13.8671
86 1 4 -0.601179 9.13299 3.49912 1.04697
87 1 4 -0.601179 26.2336 13.3722 9.45555
88 1 4 -0.601179 10.2984 7.71958 5.45857
89 1 4 -0.60118 28.5643 13.3722 9.45555
90 1 4 -0.60118 7.96762 7.71958 5.45857
91 1 4 -0.60118 25.8628 14.9319 13.8671
92 1 4 -0.60118 10.6692 6.15984 1.04697
93 1 4 -0.601179 24.6974 14.2591 11.9641
94 1 4 -0.601179 11.8345 6.83267 2.95001
95 1 4 -0.60118 28.9351 18.0514 9.45555
96 1 4 -0.60118 7.59682 3.04037 5.45857
97 1 4 -0.601179 30.1005 16.0329 9.45555
98 1 4 -0.601179 6.43145 5.05885 5.45857
99 1 4 -0.601179 24.6974 16.0329 9.45555
100 1 4 -0.601179 11.8345 5.05885 5.45857
101 1 4 -0.60118 25.8628 18.0514 9.45555
102 1 4 -0.60118 10.6692 3.04037 5.45857
103 1 4 -0.60118 28.9351 14.9319 13.8671
104 1 4 -0.60118 7.59682 6.15984 1.04697
105 1 4 -0.60118 30.1005 14.2591 11.9641
106 1 4 -0.60118 6.43145 6.83267 2.95001
ITEM: TIMESTEP
19000
ITEM: NUMBER OF ATOMS
118
ITEM: BOX BOUNDS xy xz yz pp pp pp
0.0000000000000000e+00 3.6531964750000000e+01 9.1329911900000003e+00
0.0000000000000000e+00 2.1091739680000000e+01 9.1329911900000003e+00
0.0000000000000000e+00 1.4914112149999999e+01 5.2729349200000000e+00
ITEM: ATOMS id mol type q x y z
1 1 1 1.10383 27.399 17.6496 10.5383
2 1 1 1.10383 9.13299 3.44217 4.3758
3 1 1 1.10383 27.399 15.8188 13.1274
4 1 1 1.10383 9.13299 5.27293 1.78671
5 1 1 1.10383 25.8135 14.9034 10.5383
6 1 1 1.10383 10.7185 6.18832 4.3758
7 1 1 1.10383 28.9845 14.9034 10.5383
8 1 1 1.10383 7.5475 6.18832 4.3758
9 1 2 0.115889 18.266 5.48596 12.6084
10 1 2 0.115889 18.266 15.6058 2.30572
11 1 2 0.115888 18.266 13.716 0.969417
12 1 2 0.115888 18.266 7.37578 13.9447
13 1 2 0.11589 25.3934 11.4908 8.12521
14 1 2 0.11589 11.1386 9.60096 6.7889
15 1 2 0.115888 11.1386 11.4908 8.12521
16 1 2 0.115888 25.3934 9.60096 6.7889
17 1 2 0.115889 15.5206 8.96083 0.969417
18 1 2 0.115889 21.0114 12.1309 13.9447
19 1 2 0.115888 22.648 13.0758 12.6084
20 1 2 0.115888 13.884 8.01592 2.30572
21 1 2 0.115889 21.0114 3.90092 8.12521
22 1 2 0.115889 15.5206 17.1908 6.7889
23 1 2 0.115887 13.884 16.2459 8.12521
24 1 2 0.115887 22.648 4.84583 6.7889
25 1 2 0.115889 22.648 16.2459 8.12521
26 1 2 0.115889 13.884 4.84583 6.7889
27 1 2 0.115887 15.5206 3.90092 8.12521
28 1 2 0.115887 21.0114 17.1908 6.7889
29 1 2 0.115889 21.0114 8.96083 0.969417
30 1 2 0.115889 15.5206 12.1309 13.9447
31 1 2 0.115887 13.884 13.0758 12.6084
32 1 2 0.115887 22.648 8.01592 2.30572
33 1 3 0.671939 27.399 18.7442 13.2542
34 1 3 0.671939 9.13299 2.34751 1.65994
35 1 3 0.671939 27.399 12.8934 9.117
36 1 3 0.671939 9.13299 8.19836 5.79712
37 1 3 0.67194 24.8655 14.3561 13.2542
38 1 3 0.67194 11.6665 6.73565 1.65994
39 1 3 0.67194 29.9325 17.2815 9.117
40 1 3 0.67194 6.5995 3.81022 5.79712
41 1 3 0.67194 24.8655 17.2815 9.117
42 1 3 0.67194 11.6665 3.81022 5.79712
43 1 3 0.67194 29.9325 14.3561 13.2542
44 1 3 0.67194 6.5995 6.73565 1.65994
45 1 3 -0.11508 27.399 19.957 14.1117
46 1 3 -0.11508 9.13299 1.13474 0.802379
47 1 3 -0.11508 27.399 11.6806 8.25944
48 1 3 -0.11508 9.13299 9.41113 6.65468
49 1 3 -0.11508 23.8152 13.7497 14.1117
50 1 3 -0.11508 12.7168 7.34203 0.802379
51 1 3 -0.11508 30.9828 17.8879 8.25944
52 1 3 -0.11508 5.54921 3.20384 6.65468
53 1 3 -0.11508 23.8152 17.8879 8.25944
54 1 3 -0.11508 12.7168 3.20384 6.65468
55 1 3 -0.11508 30.9828 13.7497 14.1117
56 1 3 -0.11508 5.54921 7.34203 0.802379
57 1 3 -0.0559 18.266 5.39949 13.5316
58 1 3 -0.0559 18.266 15.6923 1.38254
59 1 3 -0.055903 18.266 14.5575 0.580159
60 1 3 -0.055903 18.266 6.53422 14.334
61 1 3 -0.0559 26.1971 11.1132 7.85825
62 1 3 -0.0559 10.3349 9.9785 7.05587
63 1 3 -0.055903 10.3349 11.1132 7.85825
64 1 3 -0.055903 26.1971 9.9785 7.05587
65 1 3 -0.0559 14.7918 8.54005 0.580159
66 1 3 -0.0559 21.7402 12.5517 14.334
67 1 3 -0.055903 22.7229 13.1191 13.5316
68 1 3 -0.055903 13.8091 7.97268 1.38254
69 1 3 -0.0559 21.7402 3.39366 7.85825
70 1 3 -0.0559 14.7918 17.6981 7.05587
71 1 3 -0.055903 13.8091 17.1307 7.85825
72 1 3 -0.055903 22.7229 3.96103 7.05587
73 1 3 -0.055901 22.7229 17.1307 7.85825
74 1 3 -0.055901 13.8091 3.96103 7.05587
75 1 3 -0.055903 14.7918 3.39366 7.85825
76 1 3 -0.055903 21.7402 17.6981 7.05587
77 1 3 -0.0559 21.7402 8.54005 0.580159
78 1 3 -0.0559 14.7918 12.5517 14.334
79 1 3 -0.055903 13.8091 13.1191 13.5316
80 1 3 -0.055903 22.7229 7.97268 1.38254
81 1 4 -1.26215 27.399 15.8188 11.1856
82 1 4 -1.26215 9.13299 5.27293 3.72853
83 1 4 -0.60118 27.399 18.9383 11.9641
84 1 4 -0.60118 9.13299 2.15347 2.95001
85 1 4 -0.601179 27.399 17.5926 13.8671
86 1 4 -0.601179 9.13299 3.49912 1.04697
87 1 4 -0.601179 26.2336 13.3722 9.45555
88 1 4 -0.601179 10.2984 7.71958 5.45857
89 1 4 -0.60118 28.5643 13.3722 9.45555
90 1 4 -0.60118 7.96762 7.71958 5.45857
91 1 4 -0.60118 25.8628 14.9319 13.8671
92 1 4 -0.60118 10.6692 6.15984 1.04697
93 1 4 -0.601179 24.6974 14.2591 11.9641
94 1 4 -0.601179 11.8345 6.83267 2.95001
95 1 4 -0.60118 28.9351 18.0514 9.45555
96 1 4 -0.60118 7.59682 3.04037 5.45857
97 1 4 -0.601179 30.1005 16.0329 9.45555
98 1 4 -0.601179 6.43145 5.05885 5.45857
99 1 4 -0.601179 24.6974 16.0329 9.45555
100 1 4 -0.601179 11.8345 5.05885 5.45857
101 1 4 -0.60118 25.8628 18.0514 9.45555
102 1 4 -0.60118 10.6692 3.04037 5.45857
103 1 4 -0.60118 28.9351 14.9319 13.8671
104 1 4 -0.60118 7.59682 6.15984 1.04697
105 1 4 -0.60118 30.1005 14.2591 11.9641
106 1 4 -0.60118 6.43145 6.83267 2.95001
119 6 5 -0.35 24.4367 11.4861 10.8908
120 6 6 0.7 24.9922 11.3009 11.8922
121 6 5 -0.35 25.5476 11.1157 12.8935
122 7 5 -0.35 28.0601 12.1309 14.739
123 7 6 0.7 18.8658 5.78976 0.273004
124 7 5 -0.35 18.8044 4.72155 0.721073
125 8 5 -0.35 17.7391 16.7908 14.514
126 8 6 0.7 8.84526 10.8786 0.537822
127 8 5 -0.35 9.08437 10.2394 1.4758
128 9 5 -0.35 11.5794 15.1467 2.00888
129 9 6 0.7 12.0856 15.3921 0.99443
130 9 5 -0.35 21.7249 20.9104 14.8941
ITEM: TIMESTEP
20000
ITEM: NUMBER OF ATOMS
118
ITEM: BOX BOUNDS xy xz yz pp pp pp
0.0000000000000000e+00 3.6531964750000000e+01 9.1329911900000003e+00
0.0000000000000000e+00 2.1091739680000000e+01 9.1329911900000003e+00
0.0000000000000000e+00 1.4914112149999999e+01 5.2729349200000000e+00
ITEM: ATOMS id mol type q x y z
1 1 1 1.10383 27.399 17.6496 10.5383
2 1 1 1.10383 9.13299 3.44217 4.3758
3 1 1 1.10383 27.399 15.8188 13.1274
4 1 1 1.10383 9.13299 5.27293 1.78671
5 1 1 1.10383 25.8135 14.9034 10.5383
6 1 1 1.10383 10.7185 6.18832 4.3758
7 1 1 1.10383 28.9845 14.9034 10.5383
8 1 1 1.10383 7.5475 6.18832 4.3758
9 1 2 0.115889 18.266 5.48596 12.6084
10 1 2 0.115889 18.266 15.6058 2.30572
11 1 2 0.115888 18.266 13.716 0.969417
12 1 2 0.115888 18.266 7.37578 13.9447
13 1 2 0.11589 25.3934 11.4908 8.12521
14 1 2 0.11589 11.1386 9.60096 6.7889
15 1 2 0.115888 11.1386 11.4908 8.12521
16 1 2 0.115888 25.3934 9.60096 6.7889
17 1 2 0.115889 15.5206 8.96083 0.969417
18 1 2 0.115889 21.0114 12.1309 13.9447
19 1 2 0.115888 22.648 13.0758 12.6084
20 1 2 0.115888 13.884 8.01592 2.30572
21 1 2 0.115889 21.0114 3.90092 8.12521
22 1 2 0.115889 15.5206 17.1908 6.7889
23 1 2 0.115887 13.884 16.2459 8.12521
24 1 2 0.115887 22.648 4.84583 6.7889
25 1 2 0.115889 22.648 16.2459 8.12521
26 1 2 0.115889 13.884 4.84583 6.7889
27 1 2 0.115887 15.5206 3.90092 8.12521
28 1 2 0.115887 21.0114 17.1908 6.7889
29 1 2 0.115889 21.0114 8.96083 0.969417
30 1 2 0.115889 15.5206 12.1309 13.9447
31 1 2 0.115887 13.884 13.0758 12.6084
32 1 2 0.115887 22.648 8.01592 2.30572
33 1 3 0.671939 27.399 18.7442 13.2542
34 1 3 0.671939 9.13299 2.34751 1.65994
35 1 3 0.671939 27.399 12.8934 9.117
36 1 3 0.671939 9.13299 8.19836 5.79712
37 1 3 0.67194 24.8655 14.3561 13.2542
38 1 3 0.67194 11.6665 6.73565 1.65994
39 1 3 0.67194 29.9325 17.2815 9.117
40 1 3 0.67194 6.5995 3.81022 5.79712
41 1 3 0.67194 24.8655 17.2815 9.117
42 1 3 0.67194 11.6665 3.81022 5.79712
43 1 3 0.67194 29.9325 14.3561 13.2542
44 1 3 0.67194 6.5995 6.73565 1.65994
45 1 3 -0.11508 27.399 19.957 14.1117
46 1 3 -0.11508 9.13299 1.13474 0.802379
47 1 3 -0.11508 27.399 11.6806 8.25944
48 1 3 -0.11508 9.13299 9.41113 6.65468
49 1 3 -0.11508 23.8152 13.7497 14.1117
50 1 3 -0.11508 12.7168 7.34203 0.802379
51 1 3 -0.11508 30.9828 17.8879 8.25944
52 1 3 -0.11508 5.54921 3.20384 6.65468
53 1 3 -0.11508 23.8152 17.8879 8.25944
54 1 3 -0.11508 12.7168 3.20384 6.65468
55 1 3 -0.11508 30.9828 13.7497 14.1117
56 1 3 -0.11508 5.54921 7.34203 0.802379
57 1 3 -0.0559 18.266 5.39949 13.5316
58 1 3 -0.0559 18.266 15.6923 1.38254
59 1 3 -0.055903 18.266 14.5575 0.580159
60 1 3 -0.055903 18.266 6.53422 14.334
61 1 3 -0.0559 26.1971 11.1132 7.85825
62 1 3 -0.0559 10.3349 9.9785 7.05587
63 1 3 -0.055903 10.3349 11.1132 7.85825
64 1 3 -0.055903 26.1971 9.9785 7.05587
65 1 3 -0.0559 14.7918 8.54005 0.580159
66 1 3 -0.0559 21.7402 12.5517 14.334
67 1 3 -0.055903 22.7229 13.1191 13.5316
68 1 3 -0.055903 13.8091 7.97268 1.38254
69 1 3 -0.0559 21.7402 3.39366 7.85825
70 1 3 -0.0559 14.7918 17.6981 7.05587
71 1 3 -0.055903 13.8091 17.1307 7.85825
72 1 3 -0.055903 22.7229 3.96103 7.05587
73 1 3 -0.055901 22.7229 17.1307 7.85825
74 1 3 -0.055901 13.8091 3.96103 7.05587
75 1 3 -0.055903 14.7918 3.39366 7.85825
76 1 3 -0.055903 21.7402 17.6981 7.05587
77 1 3 -0.0559 21.7402 8.54005 0.580159
78 1 3 -0.0559 14.7918 12.5517 14.334
79 1 3 -0.055903 13.8091 13.1191 13.5316
80 1 3 -0.055903 22.7229 7.97268 1.38254
81 1 4 -1.26215 27.399 15.8188 11.1856
82 1 4 -1.26215 9.13299 5.27293 3.72853
83 1 4 -0.60118 27.399 18.9383 11.9641
84 1 4 -0.60118 9.13299 2.15347 2.95001
85 1 4 -0.601179 27.399 17.5926 13.8671
86 1 4 -0.601179 9.13299 3.49912 1.04697
87 1 4 -0.601179 26.2336 13.3722 9.45555
88 1 4 -0.601179 10.2984 7.71958 5.45857
89 1 4 -0.60118 28.5643 13.3722 9.45555
90 1 4 -0.60118 7.96762 7.71958 5.45857
91 1 4 -0.60118 25.8628 14.9319 13.8671
92 1 4 -0.60118 10.6692 6.15984 1.04697
93 1 4 -0.601179 24.6974 14.2591 11.9641
94 1 4 -0.601179 11.8345 6.83267 2.95001
95 1 4 -0.60118 28.9351 18.0514 9.45555
96 1 4 -0.60118 7.59682 3.04037 5.45857
97 1 4 -0.601179 30.1005 16.0329 9.45555
98 1 4 -0.601179 6.43145 5.05885 5.45857
99 1 4 -0.601179 24.6974 16.0329 9.45555
100 1 4 -0.601179 11.8345 5.05885 5.45857
101 1 4 -0.60118 25.8628 18.0514 9.45555
102 1 4 -0.60118 10.6692 3.04037 5.45857
103 1 4 -0.60118 28.9351 14.9319 13.8671
104 1 4 -0.60118 7.59682 6.15984 1.04697
105 1 4 -0.60118 30.1005 14.2591 11.9641
106 1 4 -0.60118 6.43145 6.83267 2.95001
107 2 5 -0.35 15.3971 12.259 0.962396
108 2 6 0.7 24.4785 17.6933 14.729
109 2 5 -0.35 24.4268 17.8547 13.5814
110 3 5 -0.35 25.9737 10.3699 14.2244
111 3 6 0.7 26.356 11.166 13.4722
112 3 5 -0.35 26.7383 11.962 12.7201
113 4 5 -0.35 15.1264 16.0021 2.62687
114 4 6 0.7 15.3269 15.4787 3.64247
115 4 5 -0.35 15.5275 14.9553 4.65807
116 5 5 -0.35 7.47606 10.747 2.22112
117 5 6 0.7 7.76589 10.3036 1.18909
118 5 5 -0.35 8.05572 9.86033 0.157073
ITEM: TIMESTEP
21000
ITEM: NUMBER OF ATOMS
106
ITEM: BOX BOUNDS xy xz yz pp pp pp
0.0000000000000000e+00 3.6531964750000000e+01 9.1329911900000003e+00
0.0000000000000000e+00 2.1091739680000000e+01 9.1329911900000003e+00
0.0000000000000000e+00 1.4914112149999999e+01 5.2729349200000000e+00
ITEM: ATOMS id mol type q x y z
1 1 1 1.10383 27.399 17.6496 10.5383
2 1 1 1.10383 9.13299 3.44217 4.3758
3 1 1 1.10383 27.399 15.8188 13.1274
4 1 1 1.10383 9.13299 5.27293 1.78671
5 1 1 1.10383 25.8135 14.9034 10.5383
6 1 1 1.10383 10.7185 6.18832 4.3758
7 1 1 1.10383 28.9845 14.9034 10.5383
8 1 1 1.10383 7.5475 6.18832 4.3758
9 1 2 0.115889 18.266 5.48596 12.6084
10 1 2 0.115889 18.266 15.6058 2.30572
11 1 2 0.115888 18.266 13.716 0.969417
12 1 2 0.115888 18.266 7.37578 13.9447
13 1 2 0.11589 25.3934 11.4908 8.12521
14 1 2 0.11589 11.1386 9.60096 6.7889
15 1 2 0.115888 11.1386 11.4908 8.12521
16 1 2 0.115888 25.3934 9.60096 6.7889
17 1 2 0.115889 15.5206 8.96083 0.969417
18 1 2 0.115889 21.0114 12.1309 13.9447
19 1 2 0.115888 22.648 13.0758 12.6084
20 1 2 0.115888 13.884 8.01592 2.30572
21 1 2 0.115889 21.0114 3.90092 8.12521
22 1 2 0.115889 15.5206 17.1908 6.7889
23 1 2 0.115887 13.884 16.2459 8.12521
24 1 2 0.115887 22.648 4.84583 6.7889
25 1 2 0.115889 22.648 16.2459 8.12521
26 1 2 0.115889 13.884 4.84583 6.7889
27 1 2 0.115887 15.5206 3.90092 8.12521
28 1 2 0.115887 21.0114 17.1908 6.7889
29 1 2 0.115889 21.0114 8.96083 0.969417
30 1 2 0.115889 15.5206 12.1309 13.9447
31 1 2 0.115887 13.884 13.0758 12.6084
32 1 2 0.115887 22.648 8.01592 2.30572
33 1 3 0.671939 27.399 18.7442 13.2542
34 1 3 0.671939 9.13299 2.34751 1.65994
35 1 3 0.671939 27.399 12.8934 9.117
36 1 3 0.671939 9.13299 8.19836 5.79712
37 1 3 0.67194 24.8655 14.3561 13.2542
38 1 3 0.67194 11.6665 6.73565 1.65994
39 1 3 0.67194 29.9325 17.2815 9.117
40 1 3 0.67194 6.5995 3.81022 5.79712
41 1 3 0.67194 24.8655 17.2815 9.117
42 1 3 0.67194 11.6665 3.81022 5.79712
43 1 3 0.67194 29.9325 14.3561 13.2542
44 1 3 0.67194 6.5995 6.73565 1.65994
45 1 3 -0.11508 27.399 19.957 14.1117
46 1 3 -0.11508 9.13299 1.13474 0.802379
47 1 3 -0.11508 27.399 11.6806 8.25944
48 1 3 -0.11508 9.13299 9.41113 6.65468
49 1 3 -0.11508 23.8152 13.7497 14.1117
50 1 3 -0.11508 12.7168 7.34203 0.802379
51 1 3 -0.11508 30.9828 17.8879 8.25944
52 1 3 -0.11508 5.54921 3.20384 6.65468
53 1 3 -0.11508 23.8152 17.8879 8.25944
54 1 3 -0.11508 12.7168 3.20384 6.65468
55 1 3 -0.11508 30.9828 13.7497 14.1117
56 1 3 -0.11508 5.54921 7.34203 0.802379
57 1 3 -0.0559 18.266 5.39949 13.5316
58 1 3 -0.0559 18.266 15.6923 1.38254
59 1 3 -0.055903 18.266 14.5575 0.580159
60 1 3 -0.055903 18.266 6.53422 14.334
61 1 3 -0.0559 26.1971 11.1132 7.85825
62 1 3 -0.0559 10.3349 9.9785 7.05587
63 1 3 -0.055903 10.3349 11.1132 7.85825
64 1 3 -0.055903 26.1971 9.9785 7.05587
65 1 3 -0.0559 14.7918 8.54005 0.580159
66 1 3 -0.0559 21.7402 12.5517 14.334
67 1 3 -0.055903 22.7229 13.1191 13.5316
68 1 3 -0.055903 13.8091 7.97268 1.38254
69 1 3 -0.0559 21.7402 3.39366 7.85825
70 1 3 -0.0559 14.7918 17.6981 7.05587
71 1 3 -0.055903 13.8091 17.1307 7.85825
72 1 3 -0.055903 22.7229 3.96103 7.05587
73 1 3 -0.055901 22.7229 17.1307 7.85825
74 1 3 -0.055901 13.8091 3.96103 7.05587
75 1 3 -0.055903 14.7918 3.39366 7.85825
76 1 3 -0.055903 21.7402 17.6981 7.05587
77 1 3 -0.0559 21.7402 8.54005 0.580159
78 1 3 -0.0559 14.7918 12.5517 14.334
79 1 3 -0.055903 13.8091 13.1191 13.5316
80 1 3 -0.055903 22.7229 7.97268 1.38254
81 1 4 -1.26215 27.399 15.8188 11.1856
82 1 4 -1.26215 9.13299 5.27293 3.72853
83 1 4 -0.60118 27.399 18.9383 11.9641
84 1 4 -0.60118 9.13299 2.15347 2.95001
85 1 4 -0.601179 27.399 17.5926 13.8671
86 1 4 -0.601179 9.13299 3.49912 1.04697
87 1 4 -0.601179 26.2336 13.3722 9.45555
88 1 4 -0.601179 10.2984 7.71958 5.45857
89 1 4 -0.60118 28.5643 13.3722 9.45555
90 1 4 -0.60118 7.96762 7.71958 5.45857
91 1 4 -0.60118 25.8628 14.9319 13.8671
92 1 4 -0.60118 10.6692 6.15984 1.04697
93 1 4 -0.601179 24.6974 14.2591 11.9641
94 1 4 -0.601179 11.8345 6.83267 2.95001
95 1 4 -0.60118 28.9351 18.0514 9.45555
96 1 4 -0.60118 7.59682 3.04037 5.45857
97 1 4 -0.601179 30.1005 16.0329 9.45555
98 1 4 -0.601179 6.43145 5.05885 5.45857
99 1 4 -0.601179 24.6974 16.0329 9.45555
100 1 4 -0.601179 11.8345 5.05885 5.45857
101 1 4 -0.60118 25.8628 18.0514 9.45555
102 1 4 -0.60118 10.6692 3.04037 5.45857
103 1 4 -0.60118 28.9351 14.9319 13.8671
104 1 4 -0.60118 7.59682 6.15984 1.04697
105 1 4 -0.60118 30.1005 14.2591 11.9641
106 1 4 -0.60118 6.43145 6.83267 2.95001
ITEM: TIMESTEP
22000
ITEM: NUMBER OF ATOMS
112
ITEM: BOX BOUNDS xy xz yz pp pp pp
0.0000000000000000e+00 3.6531964750000000e+01 9.1329911900000003e+00
0.0000000000000000e+00 2.1091739680000000e+01 9.1329911900000003e+00
0.0000000000000000e+00 1.4914112149999999e+01 5.2729349200000000e+00
ITEM: ATOMS id mol type q x y z
1 1 1 1.10383 27.399 17.6496 10.5383
2 1 1 1.10383 9.13299 3.44217 4.3758
3 1 1 1.10383 27.399 15.8188 13.1274
4 1 1 1.10383 9.13299 5.27293 1.78671
5 1 1 1.10383 25.8135 14.9034 10.5383
6 1 1 1.10383 10.7185 6.18832 4.3758
7 1 1 1.10383 28.9845 14.9034 10.5383
8 1 1 1.10383 7.5475 6.18832 4.3758
9 1 2 0.115889 18.266 5.48596 12.6084
10 1 2 0.115889 18.266 15.6058 2.30572
11 1 2 0.115888 18.266 13.716 0.969417
12 1 2 0.115888 18.266 7.37578 13.9447
13 1 2 0.11589 25.3934 11.4908 8.12521
14 1 2 0.11589 11.1386 9.60096 6.7889
15 1 2 0.115888 11.1386 11.4908 8.12521
16 1 2 0.115888 25.3934 9.60096 6.7889
17 1 2 0.115889 15.5206 8.96083 0.969417
18 1 2 0.115889 21.0114 12.1309 13.9447
19 1 2 0.115888 22.648 13.0758 12.6084
20 1 2 0.115888 13.884 8.01592 2.30572
21 1 2 0.115889 21.0114 3.90092 8.12521
22 1 2 0.115889 15.5206 17.1908 6.7889
23 1 2 0.115887 13.884 16.2459 8.12521
24 1 2 0.115887 22.648 4.84583 6.7889
25 1 2 0.115889 22.648 16.2459 8.12521
26 1 2 0.115889 13.884 4.84583 6.7889
27 1 2 0.115887 15.5206 3.90092 8.12521
28 1 2 0.115887 21.0114 17.1908 6.7889
29 1 2 0.115889 21.0114 8.96083 0.969417
30 1 2 0.115889 15.5206 12.1309 13.9447
31 1 2 0.115887 13.884 13.0758 12.6084
32 1 2 0.115887 22.648 8.01592 2.30572
33 1 3 0.671939 27.399 18.7442 13.2542
34 1 3 0.671939 9.13299 2.34751 1.65994
35 1 3 0.671939 27.399 12.8934 9.117
36 1 3 0.671939 9.13299 8.19836 5.79712
37 1 3 0.67194 24.8655 14.3561 13.2542
38 1 3 0.67194 11.6665 6.73565 1.65994
39 1 3 0.67194 29.9325 17.2815 9.117
40 1 3 0.67194 6.5995 3.81022 5.79712
41 1 3 0.67194 24.8655 17.2815 9.117
42 1 3 0.67194 11.6665 3.81022 5.79712
43 1 3 0.67194 29.9325 14.3561 13.2542
44 1 3 0.67194 6.5995 6.73565 1.65994
45 1 3 -0.11508 27.399 19.957 14.1117
46 1 3 -0.11508 9.13299 1.13474 0.802379
47 1 3 -0.11508 27.399 11.6806 8.25944
48 1 3 -0.11508 9.13299 9.41113 6.65468
49 1 3 -0.11508 23.8152 13.7497 14.1117
50 1 3 -0.11508 12.7168 7.34203 0.802379
51 1 3 -0.11508 30.9828 17.8879 8.25944
52 1 3 -0.11508 5.54921 3.20384 6.65468
53 1 3 -0.11508 23.8152 17.8879 8.25944
54 1 3 -0.11508 12.7168 3.20384 6.65468
55 1 3 -0.11508 30.9828 13.7497 14.1117
56 1 3 -0.11508 5.54921 7.34203 0.802379
57 1 3 -0.0559 18.266 5.39949 13.5316
58 1 3 -0.0559 18.266 15.6923 1.38254
59 1 3 -0.055903 18.266 14.5575 0.580159
60 1 3 -0.055903 18.266 6.53422 14.334
61 1 3 -0.0559 26.1971 11.1132 7.85825
62 1 3 -0.0559 10.3349 9.9785 7.05587
63 1 3 -0.055903 10.3349 11.1132 7.85825
64 1 3 -0.055903 26.1971 9.9785 7.05587
65 1 3 -0.0559 14.7918 8.54005 0.580159
66 1 3 -0.0559 21.7402 12.5517 14.334
67 1 3 -0.055903 22.7229 13.1191 13.5316
68 1 3 -0.055903 13.8091 7.97268 1.38254
69 1 3 -0.0559 21.7402 3.39366 7.85825
70 1 3 -0.0559 14.7918 17.6981 7.05587
71 1 3 -0.055903 13.8091 17.1307 7.85825
72 1 3 -0.055903 22.7229 3.96103 7.05587
73 1 3 -0.055901 22.7229 17.1307 7.85825
74 1 3 -0.055901 13.8091 3.96103 7.05587
75 1 3 -0.055903 14.7918 3.39366 7.85825
76 1 3 -0.055903 21.7402 17.6981 7.05587
77 1 3 -0.0559 21.7402 8.54005 0.580159
78 1 3 -0.0559 14.7918 12.5517 14.334
79 1 3 -0.055903 13.8091 13.1191 13.5316
80 1 3 -0.055903 22.7229 7.97268 1.38254
81 1 4 -1.26215 27.399 15.8188 11.1856
82 1 4 -1.26215 9.13299 5.27293 3.72853
83 1 4 -0.60118 27.399 18.9383 11.9641
84 1 4 -0.60118 9.13299 2.15347 2.95001
85 1 4 -0.601179 27.399 17.5926 13.8671
86 1 4 -0.601179 9.13299 3.49912 1.04697
87 1 4 -0.601179 26.2336 13.3722 9.45555
88 1 4 -0.601179 10.2984 7.71958 5.45857
89 1 4 -0.60118 28.5643 13.3722 9.45555
90 1 4 -0.60118 7.96762 7.71958 5.45857
91 1 4 -0.60118 25.8628 14.9319 13.8671
92 1 4 -0.60118 10.6692 6.15984 1.04697
93 1 4 -0.601179 24.6974 14.2591 11.9641
94 1 4 -0.601179 11.8345 6.83267 2.95001
95 1 4 -0.60118 28.9351 18.0514 9.45555
96 1 4 -0.60118 7.59682 3.04037 5.45857
97 1 4 -0.601179 30.1005 16.0329 9.45555
98 1 4 -0.601179 6.43145 5.05885 5.45857
99 1 4 -0.601179 24.6974 16.0329 9.45555
100 1 4 -0.601179 11.8345 5.05885 5.45857
101 1 4 -0.60118 25.8628 18.0514 9.45555
102 1 4 -0.60118 10.6692 3.04037 5.45857
103 1 4 -0.60118 28.9351 14.9319 13.8671
104 1 4 -0.60118 7.59682 6.15984 1.04697
105 1 4 -0.60118 30.1005 14.2591 11.9641
106 1 4 -0.60118 6.43145 6.83267 2.95001
110 3 5 -0.35 24.0058 15.2326 5.55423
111 3 6 0.7 24.9848 15.7743 5.24808
112 3 5 -0.35 25.9638 16.3161 4.94193
113 4 5 -0.35 27.6333 12.3947 13.1147
114 4 6 0.7 26.9138 11.4918 13.2276
115 4 5 -0.35 26.1943 10.589 13.3405
ITEM: TIMESTEP
23000
ITEM: NUMBER OF ATOMS
115
ITEM: BOX BOUNDS xy xz yz pp pp pp
0.0000000000000000e+00 3.6531964750000000e+01 9.1329911900000003e+00
0.0000000000000000e+00 2.1091739680000000e+01 9.1329911900000003e+00
0.0000000000000000e+00 1.4914112149999999e+01 5.2729349200000000e+00
ITEM: ATOMS id mol type q x y z
1 1 1 1.10383 27.399 17.6496 10.5383
2 1 1 1.10383 9.13299 3.44217 4.3758
3 1 1 1.10383 27.399 15.8188 13.1274
4 1 1 1.10383 9.13299 5.27293 1.78671
5 1 1 1.10383 25.8135 14.9034 10.5383
6 1 1 1.10383 10.7185 6.18832 4.3758
7 1 1 1.10383 28.9845 14.9034 10.5383
8 1 1 1.10383 7.5475 6.18832 4.3758
9 1 2 0.115889 18.266 5.48596 12.6084
10 1 2 0.115889 18.266 15.6058 2.30572
11 1 2 0.115888 18.266 13.716 0.969417
12 1 2 0.115888 18.266 7.37578 13.9447
13 1 2 0.11589 25.3934 11.4908 8.12521
14 1 2 0.11589 11.1386 9.60096 6.7889
15 1 2 0.115888 11.1386 11.4908 8.12521
16 1 2 0.115888 25.3934 9.60096 6.7889
17 1 2 0.115889 15.5206 8.96083 0.969417
18 1 2 0.115889 21.0114 12.1309 13.9447
19 1 2 0.115888 22.648 13.0758 12.6084
20 1 2 0.115888 13.884 8.01592 2.30572
21 1 2 0.115889 21.0114 3.90092 8.12521
22 1 2 0.115889 15.5206 17.1908 6.7889
23 1 2 0.115887 13.884 16.2459 8.12521
24 1 2 0.115887 22.648 4.84583 6.7889
25 1 2 0.115889 22.648 16.2459 8.12521
26 1 2 0.115889 13.884 4.84583 6.7889
27 1 2 0.115887 15.5206 3.90092 8.12521
28 1 2 0.115887 21.0114 17.1908 6.7889
29 1 2 0.115889 21.0114 8.96083 0.969417
30 1 2 0.115889 15.5206 12.1309 13.9447
31 1 2 0.115887 13.884 13.0758 12.6084
32 1 2 0.115887 22.648 8.01592 2.30572
33 1 3 0.671939 27.399 18.7442 13.2542
34 1 3 0.671939 9.13299 2.34751 1.65994
35 1 3 0.671939 27.399 12.8934 9.117
36 1 3 0.671939 9.13299 8.19836 5.79712
37 1 3 0.67194 24.8655 14.3561 13.2542
38 1 3 0.67194 11.6665 6.73565 1.65994
39 1 3 0.67194 29.9325 17.2815 9.117
40 1 3 0.67194 6.5995 3.81022 5.79712
41 1 3 0.67194 24.8655 17.2815 9.117
42 1 3 0.67194 11.6665 3.81022 5.79712
43 1 3 0.67194 29.9325 14.3561 13.2542
44 1 3 0.67194 6.5995 6.73565 1.65994
45 1 3 -0.11508 27.399 19.957 14.1117
46 1 3 -0.11508 9.13299 1.13474 0.802379
47 1 3 -0.11508 27.399 11.6806 8.25944
48 1 3 -0.11508 9.13299 9.41113 6.65468
49 1 3 -0.11508 23.8152 13.7497 14.1117
50 1 3 -0.11508 12.7168 7.34203 0.802379
51 1 3 -0.11508 30.9828 17.8879 8.25944
52 1 3 -0.11508 5.54921 3.20384 6.65468
53 1 3 -0.11508 23.8152 17.8879 8.25944
54 1 3 -0.11508 12.7168 3.20384 6.65468
55 1 3 -0.11508 30.9828 13.7497 14.1117
56 1 3 -0.11508 5.54921 7.34203 0.802379
57 1 3 -0.0559 18.266 5.39949 13.5316
58 1 3 -0.0559 18.266 15.6923 1.38254
59 1 3 -0.055903 18.266 14.5575 0.580159
60 1 3 -0.055903 18.266 6.53422 14.334
61 1 3 -0.0559 26.1971 11.1132 7.85825
62 1 3 -0.0559 10.3349 9.9785 7.05587
63 1 3 -0.055903 10.3349 11.1132 7.85825
64 1 3 -0.055903 26.1971 9.9785 7.05587
65 1 3 -0.0559 14.7918 8.54005 0.580159
66 1 3 -0.0559 21.7402 12.5517 14.334
67 1 3 -0.055903 22.7229 13.1191 13.5316
68 1 3 -0.055903 13.8091 7.97268 1.38254
69 1 3 -0.0559 21.7402 3.39366 7.85825
70 1 3 -0.0559 14.7918 17.6981 7.05587
71 1 3 -0.055903 13.8091 17.1307 7.85825
72 1 3 -0.055903 22.7229 3.96103 7.05587
73 1 3 -0.055901 22.7229 17.1307 7.85825
74 1 3 -0.055901 13.8091 3.96103 7.05587
75 1 3 -0.055903 14.7918 3.39366 7.85825
76 1 3 -0.055903 21.7402 17.6981 7.05587
77 1 3 -0.0559 21.7402 8.54005 0.580159
78 1 3 -0.0559 14.7918 12.5517 14.334
79 1 3 -0.055903 13.8091 13.1191 13.5316
80 1 3 -0.055903 22.7229 7.97268 1.38254
81 1 4 -1.26215 27.399 15.8188 11.1856
82 1 4 -1.26215 9.13299 5.27293 3.72853
83 1 4 -0.60118 27.399 18.9383 11.9641
84 1 4 -0.60118 9.13299 2.15347 2.95001
85 1 4 -0.601179 27.399 17.5926 13.8671
86 1 4 -0.601179 9.13299 3.49912 1.04697
87 1 4 -0.601179 26.2336 13.3722 9.45555
88 1 4 -0.601179 10.2984 7.71958 5.45857
89 1 4 -0.60118 28.5643 13.3722 9.45555
90 1 4 -0.60118 7.96762 7.71958 5.45857
91 1 4 -0.60118 25.8628 14.9319 13.8671
92 1 4 -0.60118 10.6692 6.15984 1.04697
93 1 4 -0.601179 24.6974 14.2591 11.9641
94 1 4 -0.601179 11.8345 6.83267 2.95001
95 1 4 -0.60118 28.9351 18.0514 9.45555
96 1 4 -0.60118 7.59682 3.04037 5.45857
97 1 4 -0.601179 30.1005 16.0329 9.45555
98 1 4 -0.601179 6.43145 5.05885 5.45857
99 1 4 -0.601179 24.6974 16.0329 9.45555
100 1 4 -0.601179 11.8345 5.05885 5.45857
101 1 4 -0.60118 25.8628 18.0514 9.45555
102 1 4 -0.60118 10.6692 3.04037 5.45857
103 1 4 -0.60118 28.9351 14.9319 13.8671
104 1 4 -0.60118 7.59682 6.15984 1.04697
105 1 4 -0.60118 30.1005 14.2591 11.9641
106 1 4 -0.60118 6.43145 6.83267 2.95001
107 2 5 -0.35 4.76053 2.03773 1.67488
108 2 6 0.7 5.51909 2.81024 2.09131
109 2 5 -0.35 6.27765 3.58275 2.50775
113 4 5 -0.35 21.4019 15.757 12.9591
114 4 6 0.7 20.9183 16.0623 11.9499
115 4 5 -0.35 20.4346 16.3675 10.9407
116 5 5 -0.35 22.8798 9.8869 4.18146
117 5 6 0.7 23.335 10.9147 4.46775
118 5 5 -0.35 23.7902 11.9426 4.75405
ITEM: TIMESTEP
24000
ITEM: NUMBER OF ATOMS
109
ITEM: BOX BOUNDS xy xz yz pp pp pp
0.0000000000000000e+00 3.6531964750000000e+01 9.1329911900000003e+00
0.0000000000000000e+00 2.1091739680000000e+01 9.1329911900000003e+00
0.0000000000000000e+00 1.4914112149999999e+01 5.2729349200000000e+00
ITEM: ATOMS id mol type q x y z
1 1 1 1.10383 27.399 17.6496 10.5383
2 1 1 1.10383 9.13299 3.44217 4.3758
3 1 1 1.10383 27.399 15.8188 13.1274
4 1 1 1.10383 9.13299 5.27293 1.78671
5 1 1 1.10383 25.8135 14.9034 10.5383
6 1 1 1.10383 10.7185 6.18832 4.3758
7 1 1 1.10383 28.9845 14.9034 10.5383
8 1 1 1.10383 7.5475 6.18832 4.3758
9 1 2 0.115889 18.266 5.48596 12.6084
10 1 2 0.115889 18.266 15.6058 2.30572
11 1 2 0.115888 18.266 13.716 0.969417
12 1 2 0.115888 18.266 7.37578 13.9447
13 1 2 0.11589 25.3934 11.4908 8.12521
14 1 2 0.11589 11.1386 9.60096 6.7889
15 1 2 0.115888 11.1386 11.4908 8.12521
16 1 2 0.115888 25.3934 9.60096 6.7889
17 1 2 0.115889 15.5206 8.96083 0.969417
18 1 2 0.115889 21.0114 12.1309 13.9447
19 1 2 0.115888 22.648 13.0758 12.6084
20 1 2 0.115888 13.884 8.01592 2.30572
21 1 2 0.115889 21.0114 3.90092 8.12521
22 1 2 0.115889 15.5206 17.1908 6.7889
23 1 2 0.115887 13.884 16.2459 8.12521
24 1 2 0.115887 22.648 4.84583 6.7889
25 1 2 0.115889 22.648 16.2459 8.12521
26 1 2 0.115889 13.884 4.84583 6.7889
27 1 2 0.115887 15.5206 3.90092 8.12521
28 1 2 0.115887 21.0114 17.1908 6.7889
29 1 2 0.115889 21.0114 8.96083 0.969417
30 1 2 0.115889 15.5206 12.1309 13.9447
31 1 2 0.115887 13.884 13.0758 12.6084
32 1 2 0.115887 22.648 8.01592 2.30572
33 1 3 0.671939 27.399 18.7442 13.2542
34 1 3 0.671939 9.13299 2.34751 1.65994
35 1 3 0.671939 27.399 12.8934 9.117
36 1 3 0.671939 9.13299 8.19836 5.79712
37 1 3 0.67194 24.8655 14.3561 13.2542
38 1 3 0.67194 11.6665 6.73565 1.65994
39 1 3 0.67194 29.9325 17.2815 9.117
40 1 3 0.67194 6.5995 3.81022 5.79712
41 1 3 0.67194 24.8655 17.2815 9.117
42 1 3 0.67194 11.6665 3.81022 5.79712
43 1 3 0.67194 29.9325 14.3561 13.2542
44 1 3 0.67194 6.5995 6.73565 1.65994
45 1 3 -0.11508 27.399 19.957 14.1117
46 1 3 -0.11508 9.13299 1.13474 0.802379
47 1 3 -0.11508 27.399 11.6806 8.25944
48 1 3 -0.11508 9.13299 9.41113 6.65468
49 1 3 -0.11508 23.8152 13.7497 14.1117
50 1 3 -0.11508 12.7168 7.34203 0.802379
51 1 3 -0.11508 30.9828 17.8879 8.25944
52 1 3 -0.11508 5.54921 3.20384 6.65468
53 1 3 -0.11508 23.8152 17.8879 8.25944
54 1 3 -0.11508 12.7168 3.20384 6.65468
55 1 3 -0.11508 30.9828 13.7497 14.1117
56 1 3 -0.11508 5.54921 7.34203 0.802379
57 1 3 -0.0559 18.266 5.39949 13.5316
58 1 3 -0.0559 18.266 15.6923 1.38254
59 1 3 -0.055903 18.266 14.5575 0.580159
60 1 3 -0.055903 18.266 6.53422 14.334
61 1 3 -0.0559 26.1971 11.1132 7.85825
62 1 3 -0.0559 10.3349 9.9785 7.05587
63 1 3 -0.055903 10.3349 11.1132 7.85825
64 1 3 -0.055903 26.1971 9.9785 7.05587
65 1 3 -0.0559 14.7918 8.54005 0.580159
66 1 3 -0.0559 21.7402 12.5517 14.334
67 1 3 -0.055903 22.7229 13.1191 13.5316
68 1 3 -0.055903 13.8091 7.97268 1.38254
69 1 3 -0.0559 21.7402 3.39366 7.85825
70 1 3 -0.0559 14.7918 17.6981 7.05587
71 1 3 -0.055903 13.8091 17.1307 7.85825
72 1 3 -0.055903 22.7229 3.96103 7.05587
73 1 3 -0.055901 22.7229 17.1307 7.85825
74 1 3 -0.055901 13.8091 3.96103 7.05587
75 1 3 -0.055903 14.7918 3.39366 7.85825
76 1 3 -0.055903 21.7402 17.6981 7.05587
77 1 3 -0.0559 21.7402 8.54005 0.580159
78 1 3 -0.0559 14.7918 12.5517 14.334
79 1 3 -0.055903 13.8091 13.1191 13.5316
80 1 3 -0.055903 22.7229 7.97268 1.38254
81 1 4 -1.26215 27.399 15.8188 11.1856
82 1 4 -1.26215 9.13299 5.27293 3.72853
83 1 4 -0.60118 27.399 18.9383 11.9641
84 1 4 -0.60118 9.13299 2.15347 2.95001
85 1 4 -0.601179 27.399 17.5926 13.8671
86 1 4 -0.601179 9.13299 3.49912 1.04697
87 1 4 -0.601179 26.2336 13.3722 9.45555
88 1 4 -0.601179 10.2984 7.71958 5.45857
89 1 4 -0.60118 28.5643 13.3722 9.45555
90 1 4 -0.60118 7.96762 7.71958 5.45857
91 1 4 -0.60118 25.8628 14.9319 13.8671
92 1 4 -0.60118 10.6692 6.15984 1.04697
93 1 4 -0.601179 24.6974 14.2591 11.9641
94 1 4 -0.601179 11.8345 6.83267 2.95001
95 1 4 -0.60118 28.9351 18.0514 9.45555
96 1 4 -0.60118 7.59682 3.04037 5.45857
97 1 4 -0.601179 30.1005 16.0329 9.45555
98 1 4 -0.601179 6.43145 5.05885 5.45857
99 1 4 -0.601179 24.6974 16.0329 9.45555
100 1 4 -0.601179 11.8345 5.05885 5.45857
101 1 4 -0.60118 25.8628 18.0514 9.45555
102 1 4 -0.60118 10.6692 3.04037 5.45857
103 1 4 -0.60118 28.9351 14.9319 13.8671
104 1 4 -0.60118 7.59682 6.15984 1.04697
105 1 4 -0.60118 30.1005 14.2591 11.9641
106 1 4 -0.60118 6.43145 6.83267 2.95001
113 4 5 -0.35 15.7098 5.8367 11.1824
114 4 6 0.7 16.3019 6.09405 10.2186
115 4 5 -0.35 16.894 6.3514 9.2549
ITEM: TIMESTEP
25000
ITEM: NUMBER OF ATOMS
109
ITEM: BOX BOUNDS xy xz yz pp pp pp
0.0000000000000000e+00 3.6531964750000000e+01 9.1329911900000003e+00
0.0000000000000000e+00 2.1091739680000000e+01 9.1329911900000003e+00
0.0000000000000000e+00 1.4914112149999999e+01 5.2729349200000000e+00
ITEM: ATOMS id mol type q x y z
1 1 1 1.10383 27.399 17.6496 10.5383
2 1 1 1.10383 9.13299 3.44217 4.3758
3 1 1 1.10383 27.399 15.8188 13.1274
4 1 1 1.10383 9.13299 5.27293 1.78671
5 1 1 1.10383 25.8135 14.9034 10.5383
6 1 1 1.10383 10.7185 6.18832 4.3758
7 1 1 1.10383 28.9845 14.9034 10.5383
8 1 1 1.10383 7.5475 6.18832 4.3758
9 1 2 0.115889 18.266 5.48596 12.6084
10 1 2 0.115889 18.266 15.6058 2.30572
11 1 2 0.115888 18.266 13.716 0.969417
12 1 2 0.115888 18.266 7.37578 13.9447
13 1 2 0.11589 25.3934 11.4908 8.12521
14 1 2 0.11589 11.1386 9.60096 6.7889
15 1 2 0.115888 11.1386 11.4908 8.12521
16 1 2 0.115888 25.3934 9.60096 6.7889
17 1 2 0.115889 15.5206 8.96083 0.969417
18 1 2 0.115889 21.0114 12.1309 13.9447
19 1 2 0.115888 22.648 13.0758 12.6084
20 1 2 0.115888 13.884 8.01592 2.30572
21 1 2 0.115889 21.0114 3.90092 8.12521
22 1 2 0.115889 15.5206 17.1908 6.7889
23 1 2 0.115887 13.884 16.2459 8.12521
24 1 2 0.115887 22.648 4.84583 6.7889
25 1 2 0.115889 22.648 16.2459 8.12521
26 1 2 0.115889 13.884 4.84583 6.7889
27 1 2 0.115887 15.5206 3.90092 8.12521
28 1 2 0.115887 21.0114 17.1908 6.7889
29 1 2 0.115889 21.0114 8.96083 0.969417
30 1 2 0.115889 15.5206 12.1309 13.9447
31 1 2 0.115887 13.884 13.0758 12.6084
32 1 2 0.115887 22.648 8.01592 2.30572
33 1 3 0.671939 27.399 18.7442 13.2542
34 1 3 0.671939 9.13299 2.34751 1.65994
35 1 3 0.671939 27.399 12.8934 9.117
36 1 3 0.671939 9.13299 8.19836 5.79712
37 1 3 0.67194 24.8655 14.3561 13.2542
38 1 3 0.67194 11.6665 6.73565 1.65994
39 1 3 0.67194 29.9325 17.2815 9.117
40 1 3 0.67194 6.5995 3.81022 5.79712
41 1 3 0.67194 24.8655 17.2815 9.117
42 1 3 0.67194 11.6665 3.81022 5.79712
43 1 3 0.67194 29.9325 14.3561 13.2542
44 1 3 0.67194 6.5995 6.73565 1.65994
45 1 3 -0.11508 27.399 19.957 14.1117
46 1 3 -0.11508 9.13299 1.13474 0.802379
47 1 3 -0.11508 27.399 11.6806 8.25944
48 1 3 -0.11508 9.13299 9.41113 6.65468
49 1 3 -0.11508 23.8152 13.7497 14.1117
50 1 3 -0.11508 12.7168 7.34203 0.802379
51 1 3 -0.11508 30.9828 17.8879 8.25944
52 1 3 -0.11508 5.54921 3.20384 6.65468
53 1 3 -0.11508 23.8152 17.8879 8.25944
54 1 3 -0.11508 12.7168 3.20384 6.65468
55 1 3 -0.11508 30.9828 13.7497 14.1117
56 1 3 -0.11508 5.54921 7.34203 0.802379
57 1 3 -0.0559 18.266 5.39949 13.5316
58 1 3 -0.0559 18.266 15.6923 1.38254
59 1 3 -0.055903 18.266 14.5575 0.580159
60 1 3 -0.055903 18.266 6.53422 14.334
61 1 3 -0.0559 26.1971 11.1132 7.85825
62 1 3 -0.0559 10.3349 9.9785 7.05587
63 1 3 -0.055903 10.3349 11.1132 7.85825
64 1 3 -0.055903 26.1971 9.9785 7.05587
65 1 3 -0.0559 14.7918 8.54005 0.580159
66 1 3 -0.0559 21.7402 12.5517 14.334
67 1 3 -0.055903 22.7229 13.1191 13.5316
68 1 3 -0.055903 13.8091 7.97268 1.38254
69 1 3 -0.0559 21.7402 3.39366 7.85825
70 1 3 -0.0559 14.7918 17.6981 7.05587
71 1 3 -0.055903 13.8091 17.1307 7.85825
72 1 3 -0.055903 22.7229 3.96103 7.05587
73 1 3 -0.055901 22.7229 17.1307 7.85825
74 1 3 -0.055901 13.8091 3.96103 7.05587
75 1 3 -0.055903 14.7918 3.39366 7.85825
76 1 3 -0.055903 21.7402 17.6981 7.05587
77 1 3 -0.0559 21.7402 8.54005 0.580159
78 1 3 -0.0559 14.7918 12.5517 14.334
79 1 3 -0.055903 13.8091 13.1191 13.5316
80 1 3 -0.055903 22.7229 7.97268 1.38254
81 1 4 -1.26215 27.399 15.8188 11.1856
82 1 4 -1.26215 9.13299 5.27293 3.72853
83 1 4 -0.60118 27.399 18.9383 11.9641
84 1 4 -0.60118 9.13299 2.15347 2.95001
85 1 4 -0.601179 27.399 17.5926 13.8671
86 1 4 -0.601179 9.13299 3.49912 1.04697
87 1 4 -0.601179 26.2336 13.3722 9.45555
88 1 4 -0.601179 10.2984 7.71958 5.45857
89 1 4 -0.60118 28.5643 13.3722 9.45555
90 1 4 -0.60118 7.96762 7.71958 5.45857
91 1 4 -0.60118 25.8628 14.9319 13.8671
92 1 4 -0.60118 10.6692 6.15984 1.04697
93 1 4 -0.601179 24.6974 14.2591 11.9641
94 1 4 -0.601179 11.8345 6.83267 2.95001
95 1 4 -0.60118 28.9351 18.0514 9.45555
96 1 4 -0.60118 7.59682 3.04037 5.45857
97 1 4 -0.601179 30.1005 16.0329 9.45555
98 1 4 -0.601179 6.43145 5.05885 5.45857
99 1 4 -0.601179 24.6974 16.0329 9.45555
100 1 4 -0.601179 11.8345 5.05885 5.45857
101 1 4 -0.60118 25.8628 18.0514 9.45555
102 1 4 -0.60118 10.6692 3.04037 5.45857
103 1 4 -0.60118 28.9351 14.9319 13.8671
104 1 4 -0.60118 7.59682 6.15984 1.04697
105 1 4 -0.60118 30.1005 14.2591 11.9641
106 1 4 -0.60118 6.43145 6.83267 2.95001
110 3 5 -0.35 17.3437 2.8723 3.65549
111 3 6 0.7 17.5973 2.6026 2.55614
112 3 5 -0.35 17.8509 2.33289 1.45679
ITEM: TIMESTEP
26000
ITEM: NUMBER OF ATOMS
106
ITEM: BOX BOUNDS xy xz yz pp pp pp
0.0000000000000000e+00 3.6531964750000000e+01 9.1329911900000003e+00
0.0000000000000000e+00 2.1091739680000000e+01 9.1329911900000003e+00
0.0000000000000000e+00 1.4914112149999999e+01 5.2729349200000000e+00
ITEM: ATOMS id mol type q x y z
1 1 1 1.10383 27.399 17.6496 10.5383
2 1 1 1.10383 9.13299 3.44217 4.3758
3 1 1 1.10383 27.399 15.8188 13.1274
4 1 1 1.10383 9.13299 5.27293 1.78671
5 1 1 1.10383 25.8135 14.9034 10.5383
6 1 1 1.10383 10.7185 6.18832 4.3758
7 1 1 1.10383 28.9845 14.9034 10.5383
8 1 1 1.10383 7.5475 6.18832 4.3758
9 1 2 0.115889 18.266 5.48596 12.6084
10 1 2 0.115889 18.266 15.6058 2.30572
11 1 2 0.115888 18.266 13.716 0.969417
12 1 2 0.115888 18.266 7.37578 13.9447
13 1 2 0.11589 25.3934 11.4908 8.12521
14 1 2 0.11589 11.1386 9.60096 6.7889
15 1 2 0.115888 11.1386 11.4908 8.12521
16 1 2 0.115888 25.3934 9.60096 6.7889
17 1 2 0.115889 15.5206 8.96083 0.969417
18 1 2 0.115889 21.0114 12.1309 13.9447
19 1 2 0.115888 22.648 13.0758 12.6084
20 1 2 0.115888 13.884 8.01592 2.30572
21 1 2 0.115889 21.0114 3.90092 8.12521
22 1 2 0.115889 15.5206 17.1908 6.7889
23 1 2 0.115887 13.884 16.2459 8.12521
24 1 2 0.115887 22.648 4.84583 6.7889
25 1 2 0.115889 22.648 16.2459 8.12521
26 1 2 0.115889 13.884 4.84583 6.7889
27 1 2 0.115887 15.5206 3.90092 8.12521
28 1 2 0.115887 21.0114 17.1908 6.7889
29 1 2 0.115889 21.0114 8.96083 0.969417
30 1 2 0.115889 15.5206 12.1309 13.9447
31 1 2 0.115887 13.884 13.0758 12.6084
32 1 2 0.115887 22.648 8.01592 2.30572
33 1 3 0.671939 27.399 18.7442 13.2542
34 1 3 0.671939 9.13299 2.34751 1.65994
35 1 3 0.671939 27.399 12.8934 9.117
36 1 3 0.671939 9.13299 8.19836 5.79712
37 1 3 0.67194 24.8655 14.3561 13.2542
38 1 3 0.67194 11.6665 6.73565 1.65994
39 1 3 0.67194 29.9325 17.2815 9.117
40 1 3 0.67194 6.5995 3.81022 5.79712
41 1 3 0.67194 24.8655 17.2815 9.117
42 1 3 0.67194 11.6665 3.81022 5.79712
43 1 3 0.67194 29.9325 14.3561 13.2542
44 1 3 0.67194 6.5995 6.73565 1.65994
45 1 3 -0.11508 27.399 19.957 14.1117
46 1 3 -0.11508 9.13299 1.13474 0.802379
47 1 3 -0.11508 27.399 11.6806 8.25944
48 1 3 -0.11508 9.13299 9.41113 6.65468
49 1 3 -0.11508 23.8152 13.7497 14.1117
50 1 3 -0.11508 12.7168 7.34203 0.802379
51 1 3 -0.11508 30.9828 17.8879 8.25944
52 1 3 -0.11508 5.54921 3.20384 6.65468
53 1 3 -0.11508 23.8152 17.8879 8.25944
54 1 3 -0.11508 12.7168 3.20384 6.65468
55 1 3 -0.11508 30.9828 13.7497 14.1117
56 1 3 -0.11508 5.54921 7.34203 0.802379
57 1 3 -0.0559 18.266 5.39949 13.5316
58 1 3 -0.0559 18.266 15.6923 1.38254
59 1 3 -0.055903 18.266 14.5575 0.580159
60 1 3 -0.055903 18.266 6.53422 14.334
61 1 3 -0.0559 26.1971 11.1132 7.85825
62 1 3 -0.0559 10.3349 9.9785 7.05587
63 1 3 -0.055903 10.3349 11.1132 7.85825
64 1 3 -0.055903 26.1971 9.9785 7.05587
65 1 3 -0.0559 14.7918 8.54005 0.580159
66 1 3 -0.0559 21.7402 12.5517 14.334
67 1 3 -0.055903 22.7229 13.1191 13.5316
68 1 3 -0.055903 13.8091 7.97268 1.38254
69 1 3 -0.0559 21.7402 3.39366 7.85825
70 1 3 -0.0559 14.7918 17.6981 7.05587
71 1 3 -0.055903 13.8091 17.1307 7.85825
72 1 3 -0.055903 22.7229 3.96103 7.05587
73 1 3 -0.055901 22.7229 17.1307 7.85825
74 1 3 -0.055901 13.8091 3.96103 7.05587
75 1 3 -0.055903 14.7918 3.39366 7.85825
76 1 3 -0.055903 21.7402 17.6981 7.05587
77 1 3 -0.0559 21.7402 8.54005 0.580159
78 1 3 -0.0559 14.7918 12.5517 14.334
79 1 3 -0.055903 13.8091 13.1191 13.5316
80 1 3 -0.055903 22.7229 7.97268 1.38254
81 1 4 -1.26215 27.399 15.8188 11.1856
82 1 4 -1.26215 9.13299 5.27293 3.72853
83 1 4 -0.60118 27.399 18.9383 11.9641
84 1 4 -0.60118 9.13299 2.15347 2.95001
85 1 4 -0.601179 27.399 17.5926 13.8671
86 1 4 -0.601179 9.13299 3.49912 1.04697
87 1 4 -0.601179 26.2336 13.3722 9.45555
88 1 4 -0.601179 10.2984 7.71958 5.45857
89 1 4 -0.60118 28.5643 13.3722 9.45555
90 1 4 -0.60118 7.96762 7.71958 5.45857
91 1 4 -0.60118 25.8628 14.9319 13.8671
92 1 4 -0.60118 10.6692 6.15984 1.04697
93 1 4 -0.601179 24.6974 14.2591 11.9641
94 1 4 -0.601179 11.8345 6.83267 2.95001
95 1 4 -0.60118 28.9351 18.0514 9.45555
96 1 4 -0.60118 7.59682 3.04037 5.45857
97 1 4 -0.601179 30.1005 16.0329 9.45555
98 1 4 -0.601179 6.43145 5.05885 5.45857
99 1 4 -0.601179 24.6974 16.0329 9.45555
100 1 4 -0.601179 11.8345 5.05885 5.45857
101 1 4 -0.60118 25.8628 18.0514 9.45555
102 1 4 -0.60118 10.6692 3.04037 5.45857
103 1 4 -0.60118 28.9351 14.9319 13.8671
104 1 4 -0.60118 7.59682 6.15984 1.04697
105 1 4 -0.60118 30.1005 14.2591 11.9641
106 1 4 -0.60118 6.43145 6.83267 2.95001
ITEM: TIMESTEP
27000
ITEM: NUMBER OF ATOMS
109
ITEM: BOX BOUNDS xy xz yz pp pp pp
0.0000000000000000e+00 3.6531964750000000e+01 9.1329911900000003e+00
0.0000000000000000e+00 2.1091739680000000e+01 9.1329911900000003e+00
0.0000000000000000e+00 1.4914112149999999e+01 5.2729349200000000e+00
ITEM: ATOMS id mol type q x y z
1 1 1 1.10383 27.399 17.6496 10.5383
2 1 1 1.10383 9.13299 3.44217 4.3758
3 1 1 1.10383 27.399 15.8188 13.1274
4 1 1 1.10383 9.13299 5.27293 1.78671
5 1 1 1.10383 25.8135 14.9034 10.5383
6 1 1 1.10383 10.7185 6.18832 4.3758
7 1 1 1.10383 28.9845 14.9034 10.5383
8 1 1 1.10383 7.5475 6.18832 4.3758
9 1 2 0.115889 18.266 5.48596 12.6084
10 1 2 0.115889 18.266 15.6058 2.30572
11 1 2 0.115888 18.266 13.716 0.969417
12 1 2 0.115888 18.266 7.37578 13.9447
13 1 2 0.11589 25.3934 11.4908 8.12521
14 1 2 0.11589 11.1386 9.60096 6.7889
15 1 2 0.115888 11.1386 11.4908 8.12521
16 1 2 0.115888 25.3934 9.60096 6.7889
17 1 2 0.115889 15.5206 8.96083 0.969417
18 1 2 0.115889 21.0114 12.1309 13.9447
19 1 2 0.115888 22.648 13.0758 12.6084
20 1 2 0.115888 13.884 8.01592 2.30572
21 1 2 0.115889 21.0114 3.90092 8.12521
22 1 2 0.115889 15.5206 17.1908 6.7889
23 1 2 0.115887 13.884 16.2459 8.12521
24 1 2 0.115887 22.648 4.84583 6.7889
25 1 2 0.115889 22.648 16.2459 8.12521
26 1 2 0.115889 13.884 4.84583 6.7889
27 1 2 0.115887 15.5206 3.90092 8.12521
28 1 2 0.115887 21.0114 17.1908 6.7889
29 1 2 0.115889 21.0114 8.96083 0.969417
30 1 2 0.115889 15.5206 12.1309 13.9447
31 1 2 0.115887 13.884 13.0758 12.6084
32 1 2 0.115887 22.648 8.01592 2.30572
33 1 3 0.671939 27.399 18.7442 13.2542
34 1 3 0.671939 9.13299 2.34751 1.65994
35 1 3 0.671939 27.399 12.8934 9.117
36 1 3 0.671939 9.13299 8.19836 5.79712
37 1 3 0.67194 24.8655 14.3561 13.2542
38 1 3 0.67194 11.6665 6.73565 1.65994
39 1 3 0.67194 29.9325 17.2815 9.117
40 1 3 0.67194 6.5995 3.81022 5.79712
41 1 3 0.67194 24.8655 17.2815 9.117
42 1 3 0.67194 11.6665 3.81022 5.79712
43 1 3 0.67194 29.9325 14.3561 13.2542
44 1 3 0.67194 6.5995 6.73565 1.65994
45 1 3 -0.11508 27.399 19.957 14.1117
46 1 3 -0.11508 9.13299 1.13474 0.802379
47 1 3 -0.11508 27.399 11.6806 8.25944
48 1 3 -0.11508 9.13299 9.41113 6.65468
49 1 3 -0.11508 23.8152 13.7497 14.1117
50 1 3 -0.11508 12.7168 7.34203 0.802379
51 1 3 -0.11508 30.9828 17.8879 8.25944
52 1 3 -0.11508 5.54921 3.20384 6.65468
53 1 3 -0.11508 23.8152 17.8879 8.25944
54 1 3 -0.11508 12.7168 3.20384 6.65468
55 1 3 -0.11508 30.9828 13.7497 14.1117
56 1 3 -0.11508 5.54921 7.34203 0.802379
57 1 3 -0.0559 18.266 5.39949 13.5316
58 1 3 -0.0559 18.266 15.6923 1.38254
59 1 3 -0.055903 18.266 14.5575 0.580159
60 1 3 -0.055903 18.266 6.53422 14.334
61 1 3 -0.0559 26.1971 11.1132 7.85825
62 1 3 -0.0559 10.3349 9.9785 7.05587
63 1 3 -0.055903 10.3349 11.1132 7.85825
64 1 3 -0.055903 26.1971 9.9785 7.05587
65 1 3 -0.0559 14.7918 8.54005 0.580159
66 1 3 -0.0559 21.7402 12.5517 14.334
67 1 3 -0.055903 22.7229 13.1191 13.5316
68 1 3 -0.055903 13.8091 7.97268 1.38254
69 1 3 -0.0559 21.7402 3.39366 7.85825
70 1 3 -0.0559 14.7918 17.6981 7.05587
71 1 3 -0.055903 13.8091 17.1307 7.85825
72 1 3 -0.055903 22.7229 3.96103 7.05587
73 1 3 -0.055901 22.7229 17.1307 7.85825
74 1 3 -0.055901 13.8091 3.96103 7.05587
75 1 3 -0.055903 14.7918 3.39366 7.85825
76 1 3 -0.055903 21.7402 17.6981 7.05587
77 1 3 -0.0559 21.7402 8.54005 0.580159
78 1 3 -0.0559 14.7918 12.5517 14.334
79 1 3 -0.055903 13.8091 13.1191 13.5316
80 1 3 -0.055903 22.7229 7.97268 1.38254
81 1 4 -1.26215 27.399 15.8188 11.1856
82 1 4 -1.26215 9.13299 5.27293 3.72853
83 1 4 -0.60118 27.399 18.9383 11.9641
84 1 4 -0.60118 9.13299 2.15347 2.95001
85 1 4 -0.601179 27.399 17.5926 13.8671
86 1 4 -0.601179 9.13299 3.49912 1.04697
87 1 4 -0.601179 26.2336 13.3722 9.45555
88 1 4 -0.601179 10.2984 7.71958 5.45857
89 1 4 -0.60118 28.5643 13.3722 9.45555
90 1 4 -0.60118 7.96762 7.71958 5.45857
91 1 4 -0.60118 25.8628 14.9319 13.8671
92 1 4 -0.60118 10.6692 6.15984 1.04697
93 1 4 -0.601179 24.6974 14.2591 11.9641
94 1 4 -0.601179 11.8345 6.83267 2.95001
95 1 4 -0.60118 28.9351 18.0514 9.45555
96 1 4 -0.60118 7.59682 3.04037 5.45857
97 1 4 -0.601179 30.1005 16.0329 9.45555
98 1 4 -0.601179 6.43145 5.05885 5.45857
99 1 4 -0.601179 24.6974 16.0329 9.45555
100 1 4 -0.601179 11.8345 5.05885 5.45857
101 1 4 -0.60118 25.8628 18.0514 9.45555
102 1 4 -0.60118 10.6692 3.04037 5.45857
103 1 4 -0.60118 28.9351 14.9319 13.8671
104 1 4 -0.60118 7.59682 6.15984 1.04697
105 1 4 -0.60118 30.1005 14.2591 11.9641
106 1 4 -0.60118 6.43145 6.83267 2.95001
116 5 5 -0.35 25.7642 11.097 13.3655
117 5 6 0.7 26.4669 11.7978 12.7648
118 5 5 -0.35 27.1696 12.4985 12.1642
ITEM: TIMESTEP
28000
ITEM: NUMBER OF ATOMS
109
ITEM: BOX BOUNDS xy xz yz pp pp pp
0.0000000000000000e+00 3.6531964750000000e+01 9.1329911900000003e+00
0.0000000000000000e+00 2.1091739680000000e+01 9.1329911900000003e+00
0.0000000000000000e+00 1.4914112149999999e+01 5.2729349200000000e+00
ITEM: ATOMS id mol type q x y z
1 1 1 1.10383 27.399 17.6496 10.5383
2 1 1 1.10383 9.13299 3.44217 4.3758
3 1 1 1.10383 27.399 15.8188 13.1274
4 1 1 1.10383 9.13299 5.27293 1.78671
5 1 1 1.10383 25.8135 14.9034 10.5383
6 1 1 1.10383 10.7185 6.18832 4.3758
7 1 1 1.10383 28.9845 14.9034 10.5383
8 1 1 1.10383 7.5475 6.18832 4.3758
9 1 2 0.115889 18.266 5.48596 12.6084
10 1 2 0.115889 18.266 15.6058 2.30572
11 1 2 0.115888 18.266 13.716 0.969417
12 1 2 0.115888 18.266 7.37578 13.9447
13 1 2 0.11589 25.3934 11.4908 8.12521
14 1 2 0.11589 11.1386 9.60096 6.7889
15 1 2 0.115888 11.1386 11.4908 8.12521
16 1 2 0.115888 25.3934 9.60096 6.7889
17 1 2 0.115889 15.5206 8.96083 0.969417
18 1 2 0.115889 21.0114 12.1309 13.9447
19 1 2 0.115888 22.648 13.0758 12.6084
20 1 2 0.115888 13.884 8.01592 2.30572
21 1 2 0.115889 21.0114 3.90092 8.12521
22 1 2 0.115889 15.5206 17.1908 6.7889
23 1 2 0.115887 13.884 16.2459 8.12521
24 1 2 0.115887 22.648 4.84583 6.7889
25 1 2 0.115889 22.648 16.2459 8.12521
26 1 2 0.115889 13.884 4.84583 6.7889
27 1 2 0.115887 15.5206 3.90092 8.12521
28 1 2 0.115887 21.0114 17.1908 6.7889
29 1 2 0.115889 21.0114 8.96083 0.969417
30 1 2 0.115889 15.5206 12.1309 13.9447
31 1 2 0.115887 13.884 13.0758 12.6084
32 1 2 0.115887 22.648 8.01592 2.30572
33 1 3 0.671939 27.399 18.7442 13.2542
34 1 3 0.671939 9.13299 2.34751 1.65994
35 1 3 0.671939 27.399 12.8934 9.117
36 1 3 0.671939 9.13299 8.19836 5.79712
37 1 3 0.67194 24.8655 14.3561 13.2542
38 1 3 0.67194 11.6665 6.73565 1.65994
39 1 3 0.67194 29.9325 17.2815 9.117
40 1 3 0.67194 6.5995 3.81022 5.79712
41 1 3 0.67194 24.8655 17.2815 9.117
42 1 3 0.67194 11.6665 3.81022 5.79712
43 1 3 0.67194 29.9325 14.3561 13.2542
44 1 3 0.67194 6.5995 6.73565 1.65994
45 1 3 -0.11508 27.399 19.957 14.1117
46 1 3 -0.11508 9.13299 1.13474 0.802379
47 1 3 -0.11508 27.399 11.6806 8.25944
48 1 3 -0.11508 9.13299 9.41113 6.65468
49 1 3 -0.11508 23.8152 13.7497 14.1117
50 1 3 -0.11508 12.7168 7.34203 0.802379
51 1 3 -0.11508 30.9828 17.8879 8.25944
52 1 3 -0.11508 5.54921 3.20384 6.65468
53 1 3 -0.11508 23.8152 17.8879 8.25944
54 1 3 -0.11508 12.7168 3.20384 6.65468
55 1 3 -0.11508 30.9828 13.7497 14.1117
56 1 3 -0.11508 5.54921 7.34203 0.802379
57 1 3 -0.0559 18.266 5.39949 13.5316
58 1 3 -0.0559 18.266 15.6923 1.38254
59 1 3 -0.055903 18.266 14.5575 0.580159
60 1 3 -0.055903 18.266 6.53422 14.334
61 1 3 -0.0559 26.1971 11.1132 7.85825
62 1 3 -0.0559 10.3349 9.9785 7.05587
63 1 3 -0.055903 10.3349 11.1132 7.85825
64 1 3 -0.055903 26.1971 9.9785 7.05587
65 1 3 -0.0559 14.7918 8.54005 0.580159
66 1 3 -0.0559 21.7402 12.5517 14.334
67 1 3 -0.055903 22.7229 13.1191 13.5316
68 1 3 -0.055903 13.8091 7.97268 1.38254
69 1 3 -0.0559 21.7402 3.39366 7.85825
70 1 3 -0.0559 14.7918 17.6981 7.05587
71 1 3 -0.055903 13.8091 17.1307 7.85825
72 1 3 -0.055903 22.7229 3.96103 7.05587
73 1 3 -0.055901 22.7229 17.1307 7.85825
74 1 3 -0.055901 13.8091 3.96103 7.05587
75 1 3 -0.055903 14.7918 3.39366 7.85825
76 1 3 -0.055903 21.7402 17.6981 7.05587
77 1 3 -0.0559 21.7402 8.54005 0.580159
78 1 3 -0.0559 14.7918 12.5517 14.334
79 1 3 -0.055903 13.8091 13.1191 13.5316
80 1 3 -0.055903 22.7229 7.97268 1.38254
81 1 4 -1.26215 27.399 15.8188 11.1856
82 1 4 -1.26215 9.13299 5.27293 3.72853
83 1 4 -0.60118 27.399 18.9383 11.9641
84 1 4 -0.60118 9.13299 2.15347 2.95001
85 1 4 -0.601179 27.399 17.5926 13.8671
86 1 4 -0.601179 9.13299 3.49912 1.04697
87 1 4 -0.601179 26.2336 13.3722 9.45555
88 1 4 -0.601179 10.2984 7.71958 5.45857
89 1 4 -0.60118 28.5643 13.3722 9.45555
90 1 4 -0.60118 7.96762 7.71958 5.45857
91 1 4 -0.60118 25.8628 14.9319 13.8671
92 1 4 -0.60118 10.6692 6.15984 1.04697
93 1 4 -0.601179 24.6974 14.2591 11.9641
94 1 4 -0.601179 11.8345 6.83267 2.95001
95 1 4 -0.60118 28.9351 18.0514 9.45555
96 1 4 -0.60118 7.59682 3.04037 5.45857
97 1 4 -0.601179 30.1005 16.0329 9.45555
98 1 4 -0.601179 6.43145 5.05885 5.45857
99 1 4 -0.601179 24.6974 16.0329 9.45555
100 1 4 -0.601179 11.8345 5.05885 5.45857
101 1 4 -0.60118 25.8628 18.0514 9.45555
102 1 4 -0.60118 10.6692 3.04037 5.45857
103 1 4 -0.60118 28.9351 14.9319 13.8671
104 1 4 -0.60118 7.59682 6.15984 1.04697
105 1 4 -0.60118 30.1005 14.2591 11.9641
106 1 4 -0.60118 6.43145 6.83267 2.95001
107 2 5 -0.35 9.31627 11.0668 1.14538
108 2 6 0.7 8.91481 10.1842 0.508729
109 2 5 -0.35 17.6463 14.5744 14.7862
ITEM: TIMESTEP
29000
ITEM: NUMBER OF ATOMS
109
ITEM: BOX BOUNDS xy xz yz pp pp pp
0.0000000000000000e+00 3.6531964750000000e+01 9.1329911900000003e+00
0.0000000000000000e+00 2.1091739680000000e+01 9.1329911900000003e+00
0.0000000000000000e+00 1.4914112149999999e+01 5.2729349200000000e+00
ITEM: ATOMS id mol type q x y z
1 1 1 1.10383 27.399 17.6496 10.5383
2 1 1 1.10383 9.13299 3.44217 4.3758
3 1 1 1.10383 27.399 15.8188 13.1274
4 1 1 1.10383 9.13299 5.27293 1.78671
5 1 1 1.10383 25.8135 14.9034 10.5383
6 1 1 1.10383 10.7185 6.18832 4.3758
7 1 1 1.10383 28.9845 14.9034 10.5383
8 1 1 1.10383 7.5475 6.18832 4.3758
9 1 2 0.115889 18.266 5.48596 12.6084
10 1 2 0.115889 18.266 15.6058 2.30572
11 1 2 0.115888 18.266 13.716 0.969417
12 1 2 0.115888 18.266 7.37578 13.9447
13 1 2 0.11589 25.3934 11.4908 8.12521
14 1 2 0.11589 11.1386 9.60096 6.7889
15 1 2 0.115888 11.1386 11.4908 8.12521
16 1 2 0.115888 25.3934 9.60096 6.7889
17 1 2 0.115889 15.5206 8.96083 0.969417
18 1 2 0.115889 21.0114 12.1309 13.9447
19 1 2 0.115888 22.648 13.0758 12.6084
20 1 2 0.115888 13.884 8.01592 2.30572
21 1 2 0.115889 21.0114 3.90092 8.12521
22 1 2 0.115889 15.5206 17.1908 6.7889
23 1 2 0.115887 13.884 16.2459 8.12521
24 1 2 0.115887 22.648 4.84583 6.7889
25 1 2 0.115889 22.648 16.2459 8.12521
26 1 2 0.115889 13.884 4.84583 6.7889
27 1 2 0.115887 15.5206 3.90092 8.12521
28 1 2 0.115887 21.0114 17.1908 6.7889
29 1 2 0.115889 21.0114 8.96083 0.969417
30 1 2 0.115889 15.5206 12.1309 13.9447
31 1 2 0.115887 13.884 13.0758 12.6084
32 1 2 0.115887 22.648 8.01592 2.30572
33 1 3 0.671939 27.399 18.7442 13.2542
34 1 3 0.671939 9.13299 2.34751 1.65994
35 1 3 0.671939 27.399 12.8934 9.117
36 1 3 0.671939 9.13299 8.19836 5.79712
37 1 3 0.67194 24.8655 14.3561 13.2542
38 1 3 0.67194 11.6665 6.73565 1.65994
39 1 3 0.67194 29.9325 17.2815 9.117
40 1 3 0.67194 6.5995 3.81022 5.79712
41 1 3 0.67194 24.8655 17.2815 9.117
42 1 3 0.67194 11.6665 3.81022 5.79712
43 1 3 0.67194 29.9325 14.3561 13.2542
44 1 3 0.67194 6.5995 6.73565 1.65994
45 1 3 -0.11508 27.399 19.957 14.1117
46 1 3 -0.11508 9.13299 1.13474 0.802379
47 1 3 -0.11508 27.399 11.6806 8.25944
48 1 3 -0.11508 9.13299 9.41113 6.65468
49 1 3 -0.11508 23.8152 13.7497 14.1117
50 1 3 -0.11508 12.7168 7.34203 0.802379
51 1 3 -0.11508 30.9828 17.8879 8.25944
52 1 3 -0.11508 5.54921 3.20384 6.65468
53 1 3 -0.11508 23.8152 17.8879 8.25944
54 1 3 -0.11508 12.7168 3.20384 6.65468
55 1 3 -0.11508 30.9828 13.7497 14.1117
56 1 3 -0.11508 5.54921 7.34203 0.802379
57 1 3 -0.0559 18.266 5.39949 13.5316
58 1 3 -0.0559 18.266 15.6923 1.38254
59 1 3 -0.055903 18.266 14.5575 0.580159
60 1 3 -0.055903 18.266 6.53422 14.334
61 1 3 -0.0559 26.1971 11.1132 7.85825
62 1 3 -0.0559 10.3349 9.9785 7.05587
63 1 3 -0.055903 10.3349 11.1132 7.85825
64 1 3 -0.055903 26.1971 9.9785 7.05587
65 1 3 -0.0559 14.7918 8.54005 0.580159
66 1 3 -0.0559 21.7402 12.5517 14.334
67 1 3 -0.055903 22.7229 13.1191 13.5316
68 1 3 -0.055903 13.8091 7.97268 1.38254
69 1 3 -0.0559 21.7402 3.39366 7.85825
70 1 3 -0.0559 14.7918 17.6981 7.05587
71 1 3 -0.055903 13.8091 17.1307 7.85825
72 1 3 -0.055903 22.7229 3.96103 7.05587
73 1 3 -0.055901 22.7229 17.1307 7.85825
74 1 3 -0.055901 13.8091 3.96103 7.05587
75 1 3 -0.055903 14.7918 3.39366 7.85825
76 1 3 -0.055903 21.7402 17.6981 7.05587
77 1 3 -0.0559 21.7402 8.54005 0.580159
78 1 3 -0.0559 14.7918 12.5517 14.334
79 1 3 -0.055903 13.8091 13.1191 13.5316
80 1 3 -0.055903 22.7229 7.97268 1.38254
81 1 4 -1.26215 27.399 15.8188 11.1856
82 1 4 -1.26215 9.13299 5.27293 3.72853
83 1 4 -0.60118 27.399 18.9383 11.9641
84 1 4 -0.60118 9.13299 2.15347 2.95001
85 1 4 -0.601179 27.399 17.5926 13.8671
86 1 4 -0.601179 9.13299 3.49912 1.04697
87 1 4 -0.601179 26.2336 13.3722 9.45555
88 1 4 -0.601179 10.2984 7.71958 5.45857
89 1 4 -0.60118 28.5643 13.3722 9.45555
90 1 4 -0.60118 7.96762 7.71958 5.45857
91 1 4 -0.60118 25.8628 14.9319 13.8671
92 1 4 -0.60118 10.6692 6.15984 1.04697
93 1 4 -0.601179 24.6974 14.2591 11.9641
94 1 4 -0.601179 11.8345 6.83267 2.95001
95 1 4 -0.60118 28.9351 18.0514 9.45555
96 1 4 -0.60118 7.59682 3.04037 5.45857
97 1 4 -0.601179 30.1005 16.0329 9.45555
98 1 4 -0.601179 6.43145 5.05885 5.45857
99 1 4 -0.601179 24.6974 16.0329 9.45555
100 1 4 -0.601179 11.8345 5.05885 5.45857
101 1 4 -0.60118 25.8628 18.0514 9.45555
102 1 4 -0.60118 10.6692 3.04037 5.45857
103 1 4 -0.60118 28.9351 14.9319 13.8671
104 1 4 -0.60118 7.59682 6.15984 1.04697
105 1 4 -0.60118 30.1005 14.2591 11.9641
106 1 4 -0.60118 6.43145 6.83267 2.95001
122 7 5 -0.35 25.5178 11.3172 3.44615
123 7 6 0.7 7.65754 10.4069 2.85243
124 7 5 -0.35 8.06322 9.49672 2.25872
ITEM: TIMESTEP
30000
ITEM: NUMBER OF ATOMS
109
ITEM: BOX BOUNDS xy xz yz pp pp pp
0.0000000000000000e+00 3.6531964750000000e+01 9.1329911900000003e+00
0.0000000000000000e+00 2.1091739680000000e+01 9.1329911900000003e+00
0.0000000000000000e+00 1.4914112149999999e+01 5.2729349200000000e+00
ITEM: ATOMS id mol type q x y z
1 1 1 1.10383 27.399 17.6496 10.5383
2 1 1 1.10383 9.13299 3.44217 4.3758
3 1 1 1.10383 27.399 15.8188 13.1274
4 1 1 1.10383 9.13299 5.27293 1.78671
5 1 1 1.10383 25.8135 14.9034 10.5383
6 1 1 1.10383 10.7185 6.18832 4.3758
7 1 1 1.10383 28.9845 14.9034 10.5383
8 1 1 1.10383 7.5475 6.18832 4.3758
9 1 2 0.115889 18.266 5.48596 12.6084
10 1 2 0.115889 18.266 15.6058 2.30572
11 1 2 0.115888 18.266 13.716 0.969417
12 1 2 0.115888 18.266 7.37578 13.9447
13 1 2 0.11589 25.3934 11.4908 8.12521
14 1 2 0.11589 11.1386 9.60096 6.7889
15 1 2 0.115888 11.1386 11.4908 8.12521
16 1 2 0.115888 25.3934 9.60096 6.7889
17 1 2 0.115889 15.5206 8.96083 0.969417
18 1 2 0.115889 21.0114 12.1309 13.9447
19 1 2 0.115888 22.648 13.0758 12.6084
20 1 2 0.115888 13.884 8.01592 2.30572
21 1 2 0.115889 21.0114 3.90092 8.12521
22 1 2 0.115889 15.5206 17.1908 6.7889
23 1 2 0.115887 13.884 16.2459 8.12521
24 1 2 0.115887 22.648 4.84583 6.7889
25 1 2 0.115889 22.648 16.2459 8.12521
26 1 2 0.115889 13.884 4.84583 6.7889
27 1 2 0.115887 15.5206 3.90092 8.12521
28 1 2 0.115887 21.0114 17.1908 6.7889
29 1 2 0.115889 21.0114 8.96083 0.969417
30 1 2 0.115889 15.5206 12.1309 13.9447
31 1 2 0.115887 13.884 13.0758 12.6084
32 1 2 0.115887 22.648 8.01592 2.30572
33 1 3 0.671939 27.399 18.7442 13.2542
34 1 3 0.671939 9.13299 2.34751 1.65994
35 1 3 0.671939 27.399 12.8934 9.117
36 1 3 0.671939 9.13299 8.19836 5.79712
37 1 3 0.67194 24.8655 14.3561 13.2542
38 1 3 0.67194 11.6665 6.73565 1.65994
39 1 3 0.67194 29.9325 17.2815 9.117
40 1 3 0.67194 6.5995 3.81022 5.79712
41 1 3 0.67194 24.8655 17.2815 9.117
42 1 3 0.67194 11.6665 3.81022 5.79712
43 1 3 0.67194 29.9325 14.3561 13.2542
44 1 3 0.67194 6.5995 6.73565 1.65994
45 1 3 -0.11508 27.399 19.957 14.1117
46 1 3 -0.11508 9.13299 1.13474 0.802379
47 1 3 -0.11508 27.399 11.6806 8.25944
48 1 3 -0.11508 9.13299 9.41113 6.65468
49 1 3 -0.11508 23.8152 13.7497 14.1117
50 1 3 -0.11508 12.7168 7.34203 0.802379
51 1 3 -0.11508 30.9828 17.8879 8.25944
52 1 3 -0.11508 5.54921 3.20384 6.65468
53 1 3 -0.11508 23.8152 17.8879 8.25944
54 1 3 -0.11508 12.7168 3.20384 6.65468
55 1 3 -0.11508 30.9828 13.7497 14.1117
56 1 3 -0.11508 5.54921 7.34203 0.802379
57 1 3 -0.0559 18.266 5.39949 13.5316
58 1 3 -0.0559 18.266 15.6923 1.38254
59 1 3 -0.055903 18.266 14.5575 0.580159
60 1 3 -0.055903 18.266 6.53422 14.334
61 1 3 -0.0559 26.1971 11.1132 7.85825
62 1 3 -0.0559 10.3349 9.9785 7.05587
63 1 3 -0.055903 10.3349 11.1132 7.85825
64 1 3 -0.055903 26.1971 9.9785 7.05587
65 1 3 -0.0559 14.7918 8.54005 0.580159
66 1 3 -0.0559 21.7402 12.5517 14.334
67 1 3 -0.055903 22.7229 13.1191 13.5316
68 1 3 -0.055903 13.8091 7.97268 1.38254
69 1 3 -0.0559 21.7402 3.39366 7.85825
70 1 3 -0.0559 14.7918 17.6981 7.05587
71 1 3 -0.055903 13.8091 17.1307 7.85825
72 1 3 -0.055903 22.7229 3.96103 7.05587
73 1 3 -0.055901 22.7229 17.1307 7.85825
74 1 3 -0.055901 13.8091 3.96103 7.05587
75 1 3 -0.055903 14.7918 3.39366 7.85825
76 1 3 -0.055903 21.7402 17.6981 7.05587
77 1 3 -0.0559 21.7402 8.54005 0.580159
78 1 3 -0.0559 14.7918 12.5517 14.334
79 1 3 -0.055903 13.8091 13.1191 13.5316
80 1 3 -0.055903 22.7229 7.97268 1.38254
81 1 4 -1.26215 27.399 15.8188 11.1856
82 1 4 -1.26215 9.13299 5.27293 3.72853
83 1 4 -0.60118 27.399 18.9383 11.9641
84 1 4 -0.60118 9.13299 2.15347 2.95001
85 1 4 -0.601179 27.399 17.5926 13.8671
86 1 4 -0.601179 9.13299 3.49912 1.04697
87 1 4 -0.601179 26.2336 13.3722 9.45555
88 1 4 -0.601179 10.2984 7.71958 5.45857
89 1 4 -0.60118 28.5643 13.3722 9.45555
90 1 4 -0.60118 7.96762 7.71958 5.45857
91 1 4 -0.60118 25.8628 14.9319 13.8671
92 1 4 -0.60118 10.6692 6.15984 1.04697
93 1 4 -0.601179 24.6974 14.2591 11.9641
94 1 4 -0.601179 11.8345 6.83267 2.95001
95 1 4 -0.60118 28.9351 18.0514 9.45555
96 1 4 -0.60118 7.59682 3.04037 5.45857
97 1 4 -0.601179 30.1005 16.0329 9.45555
98 1 4 -0.601179 6.43145 5.05885 5.45857
99 1 4 -0.601179 24.6974 16.0329 9.45555
100 1 4 -0.601179 11.8345 5.05885 5.45857
101 1 4 -0.60118 25.8628 18.0514 9.45555
102 1 4 -0.60118 10.6692 3.04037 5.45857
103 1 4 -0.60118 28.9351 14.9319 13.8671
104 1 4 -0.60118 7.59682 6.15984 1.04697
105 1 4 -0.60118 30.1005 14.2591 11.9641
106 1 4 -0.60118 6.43145 6.83267 2.95001
107 2 5 -0.35 9.26483 13.7693 0.435269
108 2 6 0.7 17.8791 19.6304 14.4947
109 2 5 -0.35 17.3605 20.2187 13.6399
ITEM: TIMESTEP
31000
ITEM: NUMBER OF ATOMS
115
ITEM: BOX BOUNDS xy xz yz pp pp pp
0.0000000000000000e+00 3.6531964750000000e+01 9.1329911900000003e+00
0.0000000000000000e+00 2.1091739680000000e+01 9.1329911900000003e+00
0.0000000000000000e+00 1.4914112149999999e+01 5.2729349200000000e+00
ITEM: ATOMS id mol type q x y z
1 1 1 1.10383 27.399 17.6496 10.5383
2 1 1 1.10383 9.13299 3.44217 4.3758
3 1 1 1.10383 27.399 15.8188 13.1274
4 1 1 1.10383 9.13299 5.27293 1.78671
5 1 1 1.10383 25.8135 14.9034 10.5383
6 1 1 1.10383 10.7185 6.18832 4.3758
7 1 1 1.10383 28.9845 14.9034 10.5383
8 1 1 1.10383 7.5475 6.18832 4.3758
9 1 2 0.115889 18.266 5.48596 12.6084
10 1 2 0.115889 18.266 15.6058 2.30572
11 1 2 0.115888 18.266 13.716 0.969417
12 1 2 0.115888 18.266 7.37578 13.9447
13 1 2 0.11589 25.3934 11.4908 8.12521
14 1 2 0.11589 11.1386 9.60096 6.7889
15 1 2 0.115888 11.1386 11.4908 8.12521
16 1 2 0.115888 25.3934 9.60096 6.7889
17 1 2 0.115889 15.5206 8.96083 0.969417
18 1 2 0.115889 21.0114 12.1309 13.9447
19 1 2 0.115888 22.648 13.0758 12.6084
20 1 2 0.115888 13.884 8.01592 2.30572
21 1 2 0.115889 21.0114 3.90092 8.12521
22 1 2 0.115889 15.5206 17.1908 6.7889
23 1 2 0.115887 13.884 16.2459 8.12521
24 1 2 0.115887 22.648 4.84583 6.7889
25 1 2 0.115889 22.648 16.2459 8.12521
26 1 2 0.115889 13.884 4.84583 6.7889
27 1 2 0.115887 15.5206 3.90092 8.12521
28 1 2 0.115887 21.0114 17.1908 6.7889
29 1 2 0.115889 21.0114 8.96083 0.969417
30 1 2 0.115889 15.5206 12.1309 13.9447
31 1 2 0.115887 13.884 13.0758 12.6084
32 1 2 0.115887 22.648 8.01592 2.30572
33 1 3 0.671939 27.399 18.7442 13.2542
34 1 3 0.671939 9.13299 2.34751 1.65994
35 1 3 0.671939 27.399 12.8934 9.117
36 1 3 0.671939 9.13299 8.19836 5.79712
37 1 3 0.67194 24.8655 14.3561 13.2542
38 1 3 0.67194 11.6665 6.73565 1.65994
39 1 3 0.67194 29.9325 17.2815 9.117
40 1 3 0.67194 6.5995 3.81022 5.79712
41 1 3 0.67194 24.8655 17.2815 9.117
42 1 3 0.67194 11.6665 3.81022 5.79712
43 1 3 0.67194 29.9325 14.3561 13.2542
44 1 3 0.67194 6.5995 6.73565 1.65994
45 1 3 -0.11508 27.399 19.957 14.1117
46 1 3 -0.11508 9.13299 1.13474 0.802379
47 1 3 -0.11508 27.399 11.6806 8.25944
48 1 3 -0.11508 9.13299 9.41113 6.65468
49 1 3 -0.11508 23.8152 13.7497 14.1117
50 1 3 -0.11508 12.7168 7.34203 0.802379
51 1 3 -0.11508 30.9828 17.8879 8.25944
52 1 3 -0.11508 5.54921 3.20384 6.65468
53 1 3 -0.11508 23.8152 17.8879 8.25944
54 1 3 -0.11508 12.7168 3.20384 6.65468
55 1 3 -0.11508 30.9828 13.7497 14.1117
56 1 3 -0.11508 5.54921 7.34203 0.802379
57 1 3 -0.0559 18.266 5.39949 13.5316
58 1 3 -0.0559 18.266 15.6923 1.38254
59 1 3 -0.055903 18.266 14.5575 0.580159
60 1 3 -0.055903 18.266 6.53422 14.334
61 1 3 -0.0559 26.1971 11.1132 7.85825
62 1 3 -0.0559 10.3349 9.9785 7.05587
63 1 3 -0.055903 10.3349 11.1132 7.85825
64 1 3 -0.055903 26.1971 9.9785 7.05587
65 1 3 -0.0559 14.7918 8.54005 0.580159
66 1 3 -0.0559 21.7402 12.5517 14.334
67 1 3 -0.055903 22.7229 13.1191 13.5316
68 1 3 -0.055903 13.8091 7.97268 1.38254
69 1 3 -0.0559 21.7402 3.39366 7.85825
70 1 3 -0.0559 14.7918 17.6981 7.05587
71 1 3 -0.055903 13.8091 17.1307 7.85825
72 1 3 -0.055903 22.7229 3.96103 7.05587
73 1 3 -0.055901 22.7229 17.1307 7.85825
74 1 3 -0.055901 13.8091 3.96103 7.05587
75 1 3 -0.055903 14.7918 3.39366 7.85825
76 1 3 -0.055903 21.7402 17.6981 7.05587
77 1 3 -0.0559 21.7402 8.54005 0.580159
78 1 3 -0.0559 14.7918 12.5517 14.334
79 1 3 -0.055903 13.8091 13.1191 13.5316
80 1 3 -0.055903 22.7229 7.97268 1.38254
81 1 4 -1.26215 27.399 15.8188 11.1856
82 1 4 -1.26215 9.13299 5.27293 3.72853
83 1 4 -0.60118 27.399 18.9383 11.9641
84 1 4 -0.60118 9.13299 2.15347 2.95001
85 1 4 -0.601179 27.399 17.5926 13.8671
86 1 4 -0.601179 9.13299 3.49912 1.04697
87 1 4 -0.601179 26.2336 13.3722 9.45555
88 1 4 -0.601179 10.2984 7.71958 5.45857
89 1 4 -0.60118 28.5643 13.3722 9.45555
90 1 4 -0.60118 7.96762 7.71958 5.45857
91 1 4 -0.60118 25.8628 14.9319 13.8671
92 1 4 -0.60118 10.6692 6.15984 1.04697
93 1 4 -0.601179 24.6974 14.2591 11.9641
94 1 4 -0.601179 11.8345 6.83267 2.95001
95 1 4 -0.60118 28.9351 18.0514 9.45555
96 1 4 -0.60118 7.59682 3.04037 5.45857
97 1 4 -0.601179 30.1005 16.0329 9.45555
98 1 4 -0.601179 6.43145 5.05885 5.45857
99 1 4 -0.601179 24.6974 16.0329 9.45555
100 1 4 -0.601179 11.8345 5.05885 5.45857
101 1 4 -0.60118 25.8628 18.0514 9.45555
102 1 4 -0.60118 10.6692 3.04037 5.45857
103 1 4 -0.60118 28.9351 14.9319 13.8671
104 1 4 -0.60118 7.59682 6.15984 1.04697
105 1 4 -0.60118 30.1005 14.2591 11.9641
106 1 4 -0.60118 6.43145 6.83267 2.95001
113 4 5 -0.35 30.5581 17.252 12.8275
114 4 6 0.7 30.6111 17.4426 13.9705
115 4 5 -0.35 21.5311 12.3602 0.19939
116 5 5 -0.35 14.6064 11.6899 1.79739
117 5 6 0.7 14.2653 11.5892 2.90152
118 5 5 -0.35 13.9242 11.4886 4.00566
119 6 5 -0.35 24.4604 13.5052 6.10416
120 6 6 0.7 24.3463 14.6026 5.74598
121 6 5 -0.35 24.2321 15.7 5.3878
ITEM: TIMESTEP
32000
ITEM: NUMBER OF ATOMS
109
ITEM: BOX BOUNDS xy xz yz pp pp pp
0.0000000000000000e+00 3.6531964750000000e+01 9.1329911900000003e+00
0.0000000000000000e+00 2.1091739680000000e+01 9.1329911900000003e+00
0.0000000000000000e+00 1.4914112149999999e+01 5.2729349200000000e+00
ITEM: ATOMS id mol type q x y z
1 1 1 1.10383 27.399 17.6496 10.5383
2 1 1 1.10383 9.13299 3.44217 4.3758
3 1 1 1.10383 27.399 15.8188 13.1274
4 1 1 1.10383 9.13299 5.27293 1.78671
5 1 1 1.10383 25.8135 14.9034 10.5383
6 1 1 1.10383 10.7185 6.18832 4.3758
7 1 1 1.10383 28.9845 14.9034 10.5383
8 1 1 1.10383 7.5475 6.18832 4.3758
9 1 2 0.115889 18.266 5.48596 12.6084
10 1 2 0.115889 18.266 15.6058 2.30572
11 1 2 0.115888 18.266 13.716 0.969417
12 1 2 0.115888 18.266 7.37578 13.9447
13 1 2 0.11589 25.3934 11.4908 8.12521
14 1 2 0.11589 11.1386 9.60096 6.7889
15 1 2 0.115888 11.1386 11.4908 8.12521
16 1 2 0.115888 25.3934 9.60096 6.7889
17 1 2 0.115889 15.5206 8.96083 0.969417
18 1 2 0.115889 21.0114 12.1309 13.9447
19 1 2 0.115888 22.648 13.0758 12.6084
20 1 2 0.115888 13.884 8.01592 2.30572
21 1 2 0.115889 21.0114 3.90092 8.12521
22 1 2 0.115889 15.5206 17.1908 6.7889
23 1 2 0.115887 13.884 16.2459 8.12521
24 1 2 0.115887 22.648 4.84583 6.7889
25 1 2 0.115889 22.648 16.2459 8.12521
26 1 2 0.115889 13.884 4.84583 6.7889
27 1 2 0.115887 15.5206 3.90092 8.12521
28 1 2 0.115887 21.0114 17.1908 6.7889
29 1 2 0.115889 21.0114 8.96083 0.969417
30 1 2 0.115889 15.5206 12.1309 13.9447
31 1 2 0.115887 13.884 13.0758 12.6084
32 1 2 0.115887 22.648 8.01592 2.30572
33 1 3 0.671939 27.399 18.7442 13.2542
34 1 3 0.671939 9.13299 2.34751 1.65994
35 1 3 0.671939 27.399 12.8934 9.117
36 1 3 0.671939 9.13299 8.19836 5.79712
37 1 3 0.67194 24.8655 14.3561 13.2542
38 1 3 0.67194 11.6665 6.73565 1.65994
39 1 3 0.67194 29.9325 17.2815 9.117
40 1 3 0.67194 6.5995 3.81022 5.79712
41 1 3 0.67194 24.8655 17.2815 9.117
42 1 3 0.67194 11.6665 3.81022 5.79712
43 1 3 0.67194 29.9325 14.3561 13.2542
44 1 3 0.67194 6.5995 6.73565 1.65994
45 1 3 -0.11508 27.399 19.957 14.1117
46 1 3 -0.11508 9.13299 1.13474 0.802379
47 1 3 -0.11508 27.399 11.6806 8.25944
48 1 3 -0.11508 9.13299 9.41113 6.65468
49 1 3 -0.11508 23.8152 13.7497 14.1117
50 1 3 -0.11508 12.7168 7.34203 0.802379
51 1 3 -0.11508 30.9828 17.8879 8.25944
52 1 3 -0.11508 5.54921 3.20384 6.65468
53 1 3 -0.11508 23.8152 17.8879 8.25944
54 1 3 -0.11508 12.7168 3.20384 6.65468
55 1 3 -0.11508 30.9828 13.7497 14.1117
56 1 3 -0.11508 5.54921 7.34203 0.802379
57 1 3 -0.0559 18.266 5.39949 13.5316
58 1 3 -0.0559 18.266 15.6923 1.38254
59 1 3 -0.055903 18.266 14.5575 0.580159
60 1 3 -0.055903 18.266 6.53422 14.334
61 1 3 -0.0559 26.1971 11.1132 7.85825
62 1 3 -0.0559 10.3349 9.9785 7.05587
63 1 3 -0.055903 10.3349 11.1132 7.85825
64 1 3 -0.055903 26.1971 9.9785 7.05587
65 1 3 -0.0559 14.7918 8.54005 0.580159
66 1 3 -0.0559 21.7402 12.5517 14.334
67 1 3 -0.055903 22.7229 13.1191 13.5316
68 1 3 -0.055903 13.8091 7.97268 1.38254
69 1 3 -0.0559 21.7402 3.39366 7.85825
70 1 3 -0.0559 14.7918 17.6981 7.05587
71 1 3 -0.055903 13.8091 17.1307 7.85825
72 1 3 -0.055903 22.7229 3.96103 7.05587
73 1 3 -0.055901 22.7229 17.1307 7.85825
74 1 3 -0.055901 13.8091 3.96103 7.05587
75 1 3 -0.055903 14.7918 3.39366 7.85825
76 1 3 -0.055903 21.7402 17.6981 7.05587
77 1 3 -0.0559 21.7402 8.54005 0.580159
78 1 3 -0.0559 14.7918 12.5517 14.334
79 1 3 -0.055903 13.8091 13.1191 13.5316
80 1 3 -0.055903 22.7229 7.97268 1.38254
81 1 4 -1.26215 27.399 15.8188 11.1856
82 1 4 -1.26215 9.13299 5.27293 3.72853
83 1 4 -0.60118 27.399 18.9383 11.9641
84 1 4 -0.60118 9.13299 2.15347 2.95001
85 1 4 -0.601179 27.399 17.5926 13.8671
86 1 4 -0.601179 9.13299 3.49912 1.04697
87 1 4 -0.601179 26.2336 13.3722 9.45555
88 1 4 -0.601179 10.2984 7.71958 5.45857
89 1 4 -0.60118 28.5643 13.3722 9.45555
90 1 4 -0.60118 7.96762 7.71958 5.45857
91 1 4 -0.60118 25.8628 14.9319 13.8671
92 1 4 -0.60118 10.6692 6.15984 1.04697
93 1 4 -0.601179 24.6974 14.2591 11.9641
94 1 4 -0.601179 11.8345 6.83267 2.95001
95 1 4 -0.60118 28.9351 18.0514 9.45555
96 1 4 -0.60118 7.59682 3.04037 5.45857
97 1 4 -0.601179 30.1005 16.0329 9.45555
98 1 4 -0.601179 6.43145 5.05885 5.45857
99 1 4 -0.601179 24.6974 16.0329 9.45555
100 1 4 -0.601179 11.8345 5.05885 5.45857
101 1 4 -0.60118 25.8628 18.0514 9.45555
102 1 4 -0.60118 10.6692 3.04037 5.45857
103 1 4 -0.60118 28.9351 14.9319 13.8671
104 1 4 -0.60118 7.59682 6.15984 1.04697
105 1 4 -0.60118 30.1005 14.2591 11.9641
106 1 4 -0.60118 6.43145 6.83267 2.95001
107 2 5 -0.35 13.828 3.18633 2.27443
108 2 6 0.7 14.5667 2.53696 1.65938
109 2 5 -0.35 15.3053 1.88759 1.04433
ITEM: TIMESTEP
33000
ITEM: NUMBER OF ATOMS
121
ITEM: BOX BOUNDS xy xz yz pp pp pp
0.0000000000000000e+00 3.6531964750000000e+01 9.1329911900000003e+00
0.0000000000000000e+00 2.1091739680000000e+01 9.1329911900000003e+00
0.0000000000000000e+00 1.4914112149999999e+01 5.2729349200000000e+00
ITEM: ATOMS id mol type q x y z
1 1 1 1.10383 27.399 17.6496 10.5383
2 1 1 1.10383 9.13299 3.44217 4.3758
3 1 1 1.10383 27.399 15.8188 13.1274
4 1 1 1.10383 9.13299 5.27293 1.78671
5 1 1 1.10383 25.8135 14.9034 10.5383
6 1 1 1.10383 10.7185 6.18832 4.3758
7 1 1 1.10383 28.9845 14.9034 10.5383
8 1 1 1.10383 7.5475 6.18832 4.3758
9 1 2 0.115889 18.266 5.48596 12.6084
10 1 2 0.115889 18.266 15.6058 2.30572
11 1 2 0.115888 18.266 13.716 0.969417
12 1 2 0.115888 18.266 7.37578 13.9447
13 1 2 0.11589 25.3934 11.4908 8.12521
14 1 2 0.11589 11.1386 9.60096 6.7889
15 1 2 0.115888 11.1386 11.4908 8.12521
16 1 2 0.115888 25.3934 9.60096 6.7889
17 1 2 0.115889 15.5206 8.96083 0.969417
18 1 2 0.115889 21.0114 12.1309 13.9447
19 1 2 0.115888 22.648 13.0758 12.6084
20 1 2 0.115888 13.884 8.01592 2.30572
21 1 2 0.115889 21.0114 3.90092 8.12521
22 1 2 0.115889 15.5206 17.1908 6.7889
23 1 2 0.115887 13.884 16.2459 8.12521
24 1 2 0.115887 22.648 4.84583 6.7889
25 1 2 0.115889 22.648 16.2459 8.12521
26 1 2 0.115889 13.884 4.84583 6.7889
27 1 2 0.115887 15.5206 3.90092 8.12521
28 1 2 0.115887 21.0114 17.1908 6.7889
29 1 2 0.115889 21.0114 8.96083 0.969417
30 1 2 0.115889 15.5206 12.1309 13.9447
31 1 2 0.115887 13.884 13.0758 12.6084
32 1 2 0.115887 22.648 8.01592 2.30572
33 1 3 0.671939 27.399 18.7442 13.2542
34 1 3 0.671939 9.13299 2.34751 1.65994
35 1 3 0.671939 27.399 12.8934 9.117
36 1 3 0.671939 9.13299 8.19836 5.79712
37 1 3 0.67194 24.8655 14.3561 13.2542
38 1 3 0.67194 11.6665 6.73565 1.65994
39 1 3 0.67194 29.9325 17.2815 9.117
40 1 3 0.67194 6.5995 3.81022 5.79712
41 1 3 0.67194 24.8655 17.2815 9.117
42 1 3 0.67194 11.6665 3.81022 5.79712
43 1 3 0.67194 29.9325 14.3561 13.2542
44 1 3 0.67194 6.5995 6.73565 1.65994
45 1 3 -0.11508 27.399 19.957 14.1117
46 1 3 -0.11508 9.13299 1.13474 0.802379
47 1 3 -0.11508 27.399 11.6806 8.25944
48 1 3 -0.11508 9.13299 9.41113 6.65468
49 1 3 -0.11508 23.8152 13.7497 14.1117
50 1 3 -0.11508 12.7168 7.34203 0.802379
51 1 3 -0.11508 30.9828 17.8879 8.25944
52 1 3 -0.11508 5.54921 3.20384 6.65468
53 1 3 -0.11508 23.8152 17.8879 8.25944
54 1 3 -0.11508 12.7168 3.20384 6.65468
55 1 3 -0.11508 30.9828 13.7497 14.1117
56 1 3 -0.11508 5.54921 7.34203 0.802379
57 1 3 -0.0559 18.266 5.39949 13.5316
58 1 3 -0.0559 18.266 15.6923 1.38254
59 1 3 -0.055903 18.266 14.5575 0.580159
60 1 3 -0.055903 18.266 6.53422 14.334
61 1 3 -0.0559 26.1971 11.1132 7.85825
62 1 3 -0.0559 10.3349 9.9785 7.05587
63 1 3 -0.055903 10.3349 11.1132 7.85825
64 1 3 -0.055903 26.1971 9.9785 7.05587
65 1 3 -0.0559 14.7918 8.54005 0.580159
66 1 3 -0.0559 21.7402 12.5517 14.334
67 1 3 -0.055903 22.7229 13.1191 13.5316
68 1 3 -0.055903 13.8091 7.97268 1.38254
69 1 3 -0.0559 21.7402 3.39366 7.85825
70 1 3 -0.0559 14.7918 17.6981 7.05587
71 1 3 -0.055903 13.8091 17.1307 7.85825
72 1 3 -0.055903 22.7229 3.96103 7.05587
73 1 3 -0.055901 22.7229 17.1307 7.85825
74 1 3 -0.055901 13.8091 3.96103 7.05587
75 1 3 -0.055903 14.7918 3.39366 7.85825
76 1 3 -0.055903 21.7402 17.6981 7.05587
77 1 3 -0.0559 21.7402 8.54005 0.580159
78 1 3 -0.0559 14.7918 12.5517 14.334
79 1 3 -0.055903 13.8091 13.1191 13.5316
80 1 3 -0.055903 22.7229 7.97268 1.38254
81 1 4 -1.26215 27.399 15.8188 11.1856
82 1 4 -1.26215 9.13299 5.27293 3.72853
83 1 4 -0.60118 27.399 18.9383 11.9641
84 1 4 -0.60118 9.13299 2.15347 2.95001
85 1 4 -0.601179 27.399 17.5926 13.8671
86 1 4 -0.601179 9.13299 3.49912 1.04697
87 1 4 -0.601179 26.2336 13.3722 9.45555
88 1 4 -0.601179 10.2984 7.71958 5.45857
89 1 4 -0.60118 28.5643 13.3722 9.45555
90 1 4 -0.60118 7.96762 7.71958 5.45857
91 1 4 -0.60118 25.8628 14.9319 13.8671
92 1 4 -0.60118 10.6692 6.15984 1.04697
93 1 4 -0.601179 24.6974 14.2591 11.9641
94 1 4 -0.601179 11.8345 6.83267 2.95001
95 1 4 -0.60118 28.9351 18.0514 9.45555
96 1 4 -0.60118 7.59682 3.04037 5.45857
97 1 4 -0.601179 30.1005 16.0329 9.45555
98 1 4 -0.601179 6.43145 5.05885 5.45857
99 1 4 -0.601179 24.6974 16.0329 9.45555
100 1 4 -0.601179 11.8345 5.05885 5.45857
101 1 4 -0.60118 25.8628 18.0514 9.45555
102 1 4 -0.60118 10.6692 3.04037 5.45857
103 1 4 -0.60118 28.9351 14.9319 13.8671
104 1 4 -0.60118 7.59682 6.15984 1.04697
105 1 4 -0.60118 30.1005 14.2591 11.9641
106 1 4 -0.60118 6.43145 6.83267 2.95001
107 2 5 -0.35 9.29589 9.0063 1.42374
108 2 6 0.7 9.31979 8.71069 0.302298
109 2 5 -0.35 18.4767 13.688 14.095
116 5 5 -0.35 17.5685 6.37646 1.61541
117 5 6 0.7 17.6991 6.54764 0.475564
118 5 5 -0.35 26.9626 11.9918 14.2498
119 6 5 -0.35 4.13119 1.88939 3.46848
120 6 6 0.7 3.96645 2.72804 2.68418
121 6 5 -0.35 3.80171 3.5667 1.89988
122 7 5 -0.35 21.4071 11.9869 0.568217
123 7 6 0.7 22.5512 12.0614 0.744795
124 7 5 -0.35 23.6953 12.1358 0.921373
125 8 5 -0.35 33.7814 19.909 13.9777
126 8 6 0.7 32.8454 20.2961 14.5432
127 8 5 -0.35 22.7765 15.4102 0.19454
ITEM: TIMESTEP
34000
ITEM: NUMBER OF ATOMS
109
ITEM: BOX BOUNDS xy xz yz pp pp pp
0.0000000000000000e+00 3.6531964750000000e+01 9.1329911900000003e+00
0.0000000000000000e+00 2.1091739680000000e+01 9.1329911900000003e+00
0.0000000000000000e+00 1.4914112149999999e+01 5.2729349200000000e+00
ITEM: ATOMS id mol type q x y z
1 1 1 1.10383 27.399 17.6496 10.5383
2 1 1 1.10383 9.13299 3.44217 4.3758
3 1 1 1.10383 27.399 15.8188 13.1274
4 1 1 1.10383 9.13299 5.27293 1.78671
5 1 1 1.10383 25.8135 14.9034 10.5383
6 1 1 1.10383 10.7185 6.18832 4.3758
7 1 1 1.10383 28.9845 14.9034 10.5383
8 1 1 1.10383 7.5475 6.18832 4.3758
9 1 2 0.115889 18.266 5.48596 12.6084
10 1 2 0.115889 18.266 15.6058 2.30572
11 1 2 0.115888 18.266 13.716 0.969417
12 1 2 0.115888 18.266 7.37578 13.9447
13 1 2 0.11589 25.3934 11.4908 8.12521
14 1 2 0.11589 11.1386 9.60096 6.7889
15 1 2 0.115888 11.1386 11.4908 8.12521
16 1 2 0.115888 25.3934 9.60096 6.7889
17 1 2 0.115889 15.5206 8.96083 0.969417
18 1 2 0.115889 21.0114 12.1309 13.9447
19 1 2 0.115888 22.648 13.0758 12.6084
20 1 2 0.115888 13.884 8.01592 2.30572
21 1 2 0.115889 21.0114 3.90092 8.12521
22 1 2 0.115889 15.5206 17.1908 6.7889
23 1 2 0.115887 13.884 16.2459 8.12521
24 1 2 0.115887 22.648 4.84583 6.7889
25 1 2 0.115889 22.648 16.2459 8.12521
26 1 2 0.115889 13.884 4.84583 6.7889
27 1 2 0.115887 15.5206 3.90092 8.12521
28 1 2 0.115887 21.0114 17.1908 6.7889
29 1 2 0.115889 21.0114 8.96083 0.969417
30 1 2 0.115889 15.5206 12.1309 13.9447
31 1 2 0.115887 13.884 13.0758 12.6084
32 1 2 0.115887 22.648 8.01592 2.30572
33 1 3 0.671939 27.399 18.7442 13.2542
34 1 3 0.671939 9.13299 2.34751 1.65994
35 1 3 0.671939 27.399 12.8934 9.117
36 1 3 0.671939 9.13299 8.19836 5.79712
37 1 3 0.67194 24.8655 14.3561 13.2542
38 1 3 0.67194 11.6665 6.73565 1.65994
39 1 3 0.67194 29.9325 17.2815 9.117
40 1 3 0.67194 6.5995 3.81022 5.79712
41 1 3 0.67194 24.8655 17.2815 9.117
42 1 3 0.67194 11.6665 3.81022 5.79712
43 1 3 0.67194 29.9325 14.3561 13.2542
44 1 3 0.67194 6.5995 6.73565 1.65994
45 1 3 -0.11508 27.399 19.957 14.1117
46 1 3 -0.11508 9.13299 1.13474 0.802379
47 1 3 -0.11508 27.399 11.6806 8.25944
48 1 3 -0.11508 9.13299 9.41113 6.65468
49 1 3 -0.11508 23.8152 13.7497 14.1117
50 1 3 -0.11508 12.7168 7.34203 0.802379
51 1 3 -0.11508 30.9828 17.8879 8.25944
52 1 3 -0.11508 5.54921 3.20384 6.65468
53 1 3 -0.11508 23.8152 17.8879 8.25944
54 1 3 -0.11508 12.7168 3.20384 6.65468
55 1 3 -0.11508 30.9828 13.7497 14.1117
56 1 3 -0.11508 5.54921 7.34203 0.802379
57 1 3 -0.0559 18.266 5.39949 13.5316
58 1 3 -0.0559 18.266 15.6923 1.38254
59 1 3 -0.055903 18.266 14.5575 0.580159
60 1 3 -0.055903 18.266 6.53422 14.334
61 1 3 -0.0559 26.1971 11.1132 7.85825
62 1 3 -0.0559 10.3349 9.9785 7.05587
63 1 3 -0.055903 10.3349 11.1132 7.85825
64 1 3 -0.055903 26.1971 9.9785 7.05587
65 1 3 -0.0559 14.7918 8.54005 0.580159
66 1 3 -0.0559 21.7402 12.5517 14.334
67 1 3 -0.055903 22.7229 13.1191 13.5316
68 1 3 -0.055903 13.8091 7.97268 1.38254
69 1 3 -0.0559 21.7402 3.39366 7.85825
70 1 3 -0.0559 14.7918 17.6981 7.05587
71 1 3 -0.055903 13.8091 17.1307 7.85825
72 1 3 -0.055903 22.7229 3.96103 7.05587
73 1 3 -0.055901 22.7229 17.1307 7.85825
74 1 3 -0.055901 13.8091 3.96103 7.05587
75 1 3 -0.055903 14.7918 3.39366 7.85825
76 1 3 -0.055903 21.7402 17.6981 7.05587
77 1 3 -0.0559 21.7402 8.54005 0.580159
78 1 3 -0.0559 14.7918 12.5517 14.334
79 1 3 -0.055903 13.8091 13.1191 13.5316
80 1 3 -0.055903 22.7229 7.97268 1.38254
81 1 4 -1.26215 27.399 15.8188 11.1856
82 1 4 -1.26215 9.13299 5.27293 3.72853
83 1 4 -0.60118 27.399 18.9383 11.9641
84 1 4 -0.60118 9.13299 2.15347 2.95001
85 1 4 -0.601179 27.399 17.5926 13.8671
86 1 4 -0.601179 9.13299 3.49912 1.04697
87 1 4 -0.601179 26.2336 13.3722 9.45555
88 1 4 -0.601179 10.2984 7.71958 5.45857
89 1 4 -0.60118 28.5643 13.3722 9.45555
90 1 4 -0.60118 7.96762 7.71958 5.45857
91 1 4 -0.60118 25.8628 14.9319 13.8671
92 1 4 -0.60118 10.6692 6.15984 1.04697
93 1 4 -0.601179 24.6974 14.2591 11.9641
94 1 4 -0.601179 11.8345 6.83267 2.95001
95 1 4 -0.60118 28.9351 18.0514 9.45555
96 1 4 -0.60118 7.59682 3.04037 5.45857
97 1 4 -0.601179 30.1005 16.0329 9.45555
98 1 4 -0.601179 6.43145 5.05885 5.45857
99 1 4 -0.601179 24.6974 16.0329 9.45555
100 1 4 -0.601179 11.8345 5.05885 5.45857
101 1 4 -0.60118 25.8628 18.0514 9.45555
102 1 4 -0.60118 10.6692 3.04037 5.45857
103 1 4 -0.60118 28.9351 14.9319 13.8671
104 1 4 -0.60118 7.59682 6.15984 1.04697
105 1 4 -0.60118 30.1005 14.2591 11.9641
106 1 4 -0.60118 6.43145 6.83267 2.95001
113 4 5 -0.35 12.9222 3.5105 2.80471
114 4 6 0.7 13.0111 3.52628 1.64822
115 4 5 -0.35 13.1 3.54207 0.491743
ITEM: TIMESTEP
35000
ITEM: NUMBER OF ATOMS
109
ITEM: BOX BOUNDS xy xz yz pp pp pp
0.0000000000000000e+00 3.6531964750000000e+01 9.1329911900000003e+00
0.0000000000000000e+00 2.1091739680000000e+01 9.1329911900000003e+00
0.0000000000000000e+00 1.4914112149999999e+01 5.2729349200000000e+00
ITEM: ATOMS id mol type q x y z
1 1 1 1.10383 27.399 17.6496 10.5383
2 1 1 1.10383 9.13299 3.44217 4.3758
3 1 1 1.10383 27.399 15.8188 13.1274
4 1 1 1.10383 9.13299 5.27293 1.78671
5 1 1 1.10383 25.8135 14.9034 10.5383
6 1 1 1.10383 10.7185 6.18832 4.3758
7 1 1 1.10383 28.9845 14.9034 10.5383
8 1 1 1.10383 7.5475 6.18832 4.3758
9 1 2 0.115889 18.266 5.48596 12.6084
10 1 2 0.115889 18.266 15.6058 2.30572
11 1 2 0.115888 18.266 13.716 0.969417
12 1 2 0.115888 18.266 7.37578 13.9447
13 1 2 0.11589 25.3934 11.4908 8.12521
14 1 2 0.11589 11.1386 9.60096 6.7889
15 1 2 0.115888 11.1386 11.4908 8.12521
16 1 2 0.115888 25.3934 9.60096 6.7889
17 1 2 0.115889 15.5206 8.96083 0.969417
18 1 2 0.115889 21.0114 12.1309 13.9447
19 1 2 0.115888 22.648 13.0758 12.6084
20 1 2 0.115888 13.884 8.01592 2.30572
21 1 2 0.115889 21.0114 3.90092 8.12521
22 1 2 0.115889 15.5206 17.1908 6.7889
23 1 2 0.115887 13.884 16.2459 8.12521
24 1 2 0.115887 22.648 4.84583 6.7889
25 1 2 0.115889 22.648 16.2459 8.12521
26 1 2 0.115889 13.884 4.84583 6.7889
27 1 2 0.115887 15.5206 3.90092 8.12521
28 1 2 0.115887 21.0114 17.1908 6.7889
29 1 2 0.115889 21.0114 8.96083 0.969417
30 1 2 0.115889 15.5206 12.1309 13.9447
31 1 2 0.115887 13.884 13.0758 12.6084
32 1 2 0.115887 22.648 8.01592 2.30572
33 1 3 0.671939 27.399 18.7442 13.2542
34 1 3 0.671939 9.13299 2.34751 1.65994
35 1 3 0.671939 27.399 12.8934 9.117
36 1 3 0.671939 9.13299 8.19836 5.79712
37 1 3 0.67194 24.8655 14.3561 13.2542
38 1 3 0.67194 11.6665 6.73565 1.65994
39 1 3 0.67194 29.9325 17.2815 9.117
40 1 3 0.67194 6.5995 3.81022 5.79712
41 1 3 0.67194 24.8655 17.2815 9.117
42 1 3 0.67194 11.6665 3.81022 5.79712
43 1 3 0.67194 29.9325 14.3561 13.2542
44 1 3 0.67194 6.5995 6.73565 1.65994
45 1 3 -0.11508 27.399 19.957 14.1117
46 1 3 -0.11508 9.13299 1.13474 0.802379
47 1 3 -0.11508 27.399 11.6806 8.25944
48 1 3 -0.11508 9.13299 9.41113 6.65468
49 1 3 -0.11508 23.8152 13.7497 14.1117
50 1 3 -0.11508 12.7168 7.34203 0.802379
51 1 3 -0.11508 30.9828 17.8879 8.25944
52 1 3 -0.11508 5.54921 3.20384 6.65468
53 1 3 -0.11508 23.8152 17.8879 8.25944
54 1 3 -0.11508 12.7168 3.20384 6.65468
55 1 3 -0.11508 30.9828 13.7497 14.1117
56 1 3 -0.11508 5.54921 7.34203 0.802379
57 1 3 -0.0559 18.266 5.39949 13.5316
58 1 3 -0.0559 18.266 15.6923 1.38254
59 1 3 -0.055903 18.266 14.5575 0.580159
60 1 3 -0.055903 18.266 6.53422 14.334
61 1 3 -0.0559 26.1971 11.1132 7.85825
62 1 3 -0.0559 10.3349 9.9785 7.05587
63 1 3 -0.055903 10.3349 11.1132 7.85825
64 1 3 -0.055903 26.1971 9.9785 7.05587
65 1 3 -0.0559 14.7918 8.54005 0.580159
66 1 3 -0.0559 21.7402 12.5517 14.334
67 1 3 -0.055903 22.7229 13.1191 13.5316
68 1 3 -0.055903 13.8091 7.97268 1.38254
69 1 3 -0.0559 21.7402 3.39366 7.85825
70 1 3 -0.0559 14.7918 17.6981 7.05587
71 1 3 -0.055903 13.8091 17.1307 7.85825
72 1 3 -0.055903 22.7229 3.96103 7.05587
73 1 3 -0.055901 22.7229 17.1307 7.85825
74 1 3 -0.055901 13.8091 3.96103 7.05587
75 1 3 -0.055903 14.7918 3.39366 7.85825
76 1 3 -0.055903 21.7402 17.6981 7.05587
77 1 3 -0.0559 21.7402 8.54005 0.580159
78 1 3 -0.0559 14.7918 12.5517 14.334
79 1 3 -0.055903 13.8091 13.1191 13.5316
80 1 3 -0.055903 22.7229 7.97268 1.38254
81 1 4 -1.26215 27.399 15.8188 11.1856
82 1 4 -1.26215 9.13299 5.27293 3.72853
83 1 4 -0.60118 27.399 18.9383 11.9641
84 1 4 -0.60118 9.13299 2.15347 2.95001
85 1 4 -0.601179 27.399 17.5926 13.8671
86 1 4 -0.601179 9.13299 3.49912 1.04697
87 1 4 -0.601179 26.2336 13.3722 9.45555
88 1 4 -0.601179 10.2984 7.71958 5.45857
89 1 4 -0.60118 28.5643 13.3722 9.45555
90 1 4 -0.60118 7.96762 7.71958 5.45857
91 1 4 -0.60118 25.8628 14.9319 13.8671
92 1 4 -0.60118 10.6692 6.15984 1.04697
93 1 4 -0.601179 24.6974 14.2591 11.9641
94 1 4 -0.601179 11.8345 6.83267 2.95001
95 1 4 -0.60118 28.9351 18.0514 9.45555
96 1 4 -0.60118 7.59682 3.04037 5.45857
97 1 4 -0.601179 30.1005 16.0329 9.45555
98 1 4 -0.601179 6.43145 5.05885 5.45857
99 1 4 -0.601179 24.6974 16.0329 9.45555
100 1 4 -0.601179 11.8345 5.05885 5.45857
101 1 4 -0.60118 25.8628 18.0514 9.45555
102 1 4 -0.60118 10.6692 3.04037 5.45857
103 1 4 -0.60118 28.9351 14.9319 13.8671
104 1 4 -0.60118 7.59682 6.15984 1.04697
105 1 4 -0.60118 30.1005 14.2591 11.9641
106 1 4 -0.60118 6.43145 6.83267 2.95001
107 2 5 -0.35 11.0216 4.56709 9.56404
108 2 6 0.7 10.1468 5.09842 9.01825
109 2 5 -0.35 9.27189 5.62975 8.47247
ITEM: TIMESTEP
36000
ITEM: NUMBER OF ATOMS
109
ITEM: BOX BOUNDS xy xz yz pp pp pp
0.0000000000000000e+00 3.6531964750000000e+01 9.1329911900000003e+00
0.0000000000000000e+00 2.1091739680000000e+01 9.1329911900000003e+00
0.0000000000000000e+00 1.4914112149999999e+01 5.2729349200000000e+00
ITEM: ATOMS id mol type q x y z
1 1 1 1.10383 27.399 17.6496 10.5383
2 1 1 1.10383 9.13299 3.44217 4.3758
3 1 1 1.10383 27.399 15.8188 13.1274
4 1 1 1.10383 9.13299 5.27293 1.78671
5 1 1 1.10383 25.8135 14.9034 10.5383
6 1 1 1.10383 10.7185 6.18832 4.3758
7 1 1 1.10383 28.9845 14.9034 10.5383
8 1 1 1.10383 7.5475 6.18832 4.3758
9 1 2 0.115889 18.266 5.48596 12.6084
10 1 2 0.115889 18.266 15.6058 2.30572
11 1 2 0.115888 18.266 13.716 0.969417
12 1 2 0.115888 18.266 7.37578 13.9447
13 1 2 0.11589 25.3934 11.4908 8.12521
14 1 2 0.11589 11.1386 9.60096 6.7889
15 1 2 0.115888 11.1386 11.4908 8.12521
16 1 2 0.115888 25.3934 9.60096 6.7889
17 1 2 0.115889 15.5206 8.96083 0.969417
18 1 2 0.115889 21.0114 12.1309 13.9447
19 1 2 0.115888 22.648 13.0758 12.6084
20 1 2 0.115888 13.884 8.01592 2.30572
21 1 2 0.115889 21.0114 3.90092 8.12521
22 1 2 0.115889 15.5206 17.1908 6.7889
23 1 2 0.115887 13.884 16.2459 8.12521
24 1 2 0.115887 22.648 4.84583 6.7889
25 1 2 0.115889 22.648 16.2459 8.12521
26 1 2 0.115889 13.884 4.84583 6.7889
27 1 2 0.115887 15.5206 3.90092 8.12521
28 1 2 0.115887 21.0114 17.1908 6.7889
29 1 2 0.115889 21.0114 8.96083 0.969417
30 1 2 0.115889 15.5206 12.1309 13.9447
31 1 2 0.115887 13.884 13.0758 12.6084
32 1 2 0.115887 22.648 8.01592 2.30572
33 1 3 0.671939 27.399 18.7442 13.2542
34 1 3 0.671939 9.13299 2.34751 1.65994
35 1 3 0.671939 27.399 12.8934 9.117
36 1 3 0.671939 9.13299 8.19836 5.79712
37 1 3 0.67194 24.8655 14.3561 13.2542
38 1 3 0.67194 11.6665 6.73565 1.65994
39 1 3 0.67194 29.9325 17.2815 9.117
40 1 3 0.67194 6.5995 3.81022 5.79712
41 1 3 0.67194 24.8655 17.2815 9.117
42 1 3 0.67194 11.6665 3.81022 5.79712
43 1 3 0.67194 29.9325 14.3561 13.2542
44 1 3 0.67194 6.5995 6.73565 1.65994
45 1 3 -0.11508 27.399 19.957 14.1117
46 1 3 -0.11508 9.13299 1.13474 0.802379
47 1 3 -0.11508 27.399 11.6806 8.25944
48 1 3 -0.11508 9.13299 9.41113 6.65468
49 1 3 -0.11508 23.8152 13.7497 14.1117
50 1 3 -0.11508 12.7168 7.34203 0.802379
51 1 3 -0.11508 30.9828 17.8879 8.25944
52 1 3 -0.11508 5.54921 3.20384 6.65468
53 1 3 -0.11508 23.8152 17.8879 8.25944
54 1 3 -0.11508 12.7168 3.20384 6.65468
55 1 3 -0.11508 30.9828 13.7497 14.1117
56 1 3 -0.11508 5.54921 7.34203 0.802379
57 1 3 -0.0559 18.266 5.39949 13.5316
58 1 3 -0.0559 18.266 15.6923 1.38254
59 1 3 -0.055903 18.266 14.5575 0.580159
60 1 3 -0.055903 18.266 6.53422 14.334
61 1 3 -0.0559 26.1971 11.1132 7.85825
62 1 3 -0.0559 10.3349 9.9785 7.05587
63 1 3 -0.055903 10.3349 11.1132 7.85825
64 1 3 -0.055903 26.1971 9.9785 7.05587
65 1 3 -0.0559 14.7918 8.54005 0.580159
66 1 3 -0.0559 21.7402 12.5517 14.334
67 1 3 -0.055903 22.7229 13.1191 13.5316
68 1 3 -0.055903 13.8091 7.97268 1.38254
69 1 3 -0.0559 21.7402 3.39366 7.85825
70 1 3 -0.0559 14.7918 17.6981 7.05587
71 1 3 -0.055903 13.8091 17.1307 7.85825
72 1 3 -0.055903 22.7229 3.96103 7.05587
73 1 3 -0.055901 22.7229 17.1307 7.85825
74 1 3 -0.055901 13.8091 3.96103 7.05587
75 1 3 -0.055903 14.7918 3.39366 7.85825
76 1 3 -0.055903 21.7402 17.6981 7.05587
77 1 3 -0.0559 21.7402 8.54005 0.580159
78 1 3 -0.0559 14.7918 12.5517 14.334
79 1 3 -0.055903 13.8091 13.1191 13.5316
80 1 3 -0.055903 22.7229 7.97268 1.38254
81 1 4 -1.26215 27.399 15.8188 11.1856
82 1 4 -1.26215 9.13299 5.27293 3.72853
83 1 4 -0.60118 27.399 18.9383 11.9641
84 1 4 -0.60118 9.13299 2.15347 2.95001
85 1 4 -0.601179 27.399 17.5926 13.8671
86 1 4 -0.601179 9.13299 3.49912 1.04697
87 1 4 -0.601179 26.2336 13.3722 9.45555
88 1 4 -0.601179 10.2984 7.71958 5.45857
89 1 4 -0.60118 28.5643 13.3722 9.45555
90 1 4 -0.60118 7.96762 7.71958 5.45857
91 1 4 -0.60118 25.8628 14.9319 13.8671
92 1 4 -0.60118 10.6692 6.15984 1.04697
93 1 4 -0.601179 24.6974 14.2591 11.9641
94 1 4 -0.601179 11.8345 6.83267 2.95001
95 1 4 -0.60118 28.9351 18.0514 9.45555
96 1 4 -0.60118 7.59682 3.04037 5.45857
97 1 4 -0.601179 30.1005 16.0329 9.45555
98 1 4 -0.601179 6.43145 5.05885 5.45857
99 1 4 -0.601179 24.6974 16.0329 9.45555
100 1 4 -0.601179 11.8345 5.05885 5.45857
101 1 4 -0.60118 25.8628 18.0514 9.45555
102 1 4 -0.60118 10.6692 3.04037 5.45857
103 1 4 -0.60118 28.9351 14.9319 13.8671
104 1 4 -0.60118 7.59682 6.15984 1.04697
105 1 4 -0.60118 30.1005 14.2591 11.9641
106 1 4 -0.60118 6.43145 6.83267 2.95001
107 2 5 -0.35 15.5582 16.1967 3.67427
108 2 6 0.7 6.07862 1.25009 2.99262
109 2 5 -0.35 5.73202 2.12233 2.31096
ITEM: TIMESTEP
37000
ITEM: NUMBER OF ATOMS
106
ITEM: BOX BOUNDS xy xz yz pp pp pp
0.0000000000000000e+00 3.6531964750000000e+01 9.1329911900000003e+00
0.0000000000000000e+00 2.1091739680000000e+01 9.1329911900000003e+00
0.0000000000000000e+00 1.4914112149999999e+01 5.2729349200000000e+00
ITEM: ATOMS id mol type q x y z
1 1 1 1.10383 27.399 17.6496 10.5383
2 1 1 1.10383 9.13299 3.44217 4.3758
3 1 1 1.10383 27.399 15.8188 13.1274
4 1 1 1.10383 9.13299 5.27293 1.78671
5 1 1 1.10383 25.8135 14.9034 10.5383
6 1 1 1.10383 10.7185 6.18832 4.3758
7 1 1 1.10383 28.9845 14.9034 10.5383
8 1 1 1.10383 7.5475 6.18832 4.3758
9 1 2 0.115889 18.266 5.48596 12.6084
10 1 2 0.115889 18.266 15.6058 2.30572
11 1 2 0.115888 18.266 13.716 0.969417
12 1 2 0.115888 18.266 7.37578 13.9447
13 1 2 0.11589 25.3934 11.4908 8.12521
14 1 2 0.11589 11.1386 9.60096 6.7889
15 1 2 0.115888 11.1386 11.4908 8.12521
16 1 2 0.115888 25.3934 9.60096 6.7889
17 1 2 0.115889 15.5206 8.96083 0.969417
18 1 2 0.115889 21.0114 12.1309 13.9447
19 1 2 0.115888 22.648 13.0758 12.6084
20 1 2 0.115888 13.884 8.01592 2.30572
21 1 2 0.115889 21.0114 3.90092 8.12521
22 1 2 0.115889 15.5206 17.1908 6.7889
23 1 2 0.115887 13.884 16.2459 8.12521
24 1 2 0.115887 22.648 4.84583 6.7889
25 1 2 0.115889 22.648 16.2459 8.12521
26 1 2 0.115889 13.884 4.84583 6.7889
27 1 2 0.115887 15.5206 3.90092 8.12521
28 1 2 0.115887 21.0114 17.1908 6.7889
29 1 2 0.115889 21.0114 8.96083 0.969417
30 1 2 0.115889 15.5206 12.1309 13.9447
31 1 2 0.115887 13.884 13.0758 12.6084
32 1 2 0.115887 22.648 8.01592 2.30572
33 1 3 0.671939 27.399 18.7442 13.2542
34 1 3 0.671939 9.13299 2.34751 1.65994
35 1 3 0.671939 27.399 12.8934 9.117
36 1 3 0.671939 9.13299 8.19836 5.79712
37 1 3 0.67194 24.8655 14.3561 13.2542
38 1 3 0.67194 11.6665 6.73565 1.65994
39 1 3 0.67194 29.9325 17.2815 9.117
40 1 3 0.67194 6.5995 3.81022 5.79712
41 1 3 0.67194 24.8655 17.2815 9.117
42 1 3 0.67194 11.6665 3.81022 5.79712
43 1 3 0.67194 29.9325 14.3561 13.2542
44 1 3 0.67194 6.5995 6.73565 1.65994
45 1 3 -0.11508 27.399 19.957 14.1117
46 1 3 -0.11508 9.13299 1.13474 0.802379
47 1 3 -0.11508 27.399 11.6806 8.25944
48 1 3 -0.11508 9.13299 9.41113 6.65468
49 1 3 -0.11508 23.8152 13.7497 14.1117
50 1 3 -0.11508 12.7168 7.34203 0.802379
51 1 3 -0.11508 30.9828 17.8879 8.25944
52 1 3 -0.11508 5.54921 3.20384 6.65468
53 1 3 -0.11508 23.8152 17.8879 8.25944
54 1 3 -0.11508 12.7168 3.20384 6.65468
55 1 3 -0.11508 30.9828 13.7497 14.1117
56 1 3 -0.11508 5.54921 7.34203 0.802379
57 1 3 -0.0559 18.266 5.39949 13.5316
58 1 3 -0.0559 18.266 15.6923 1.38254
59 1 3 -0.055903 18.266 14.5575 0.580159
60 1 3 -0.055903 18.266 6.53422 14.334
61 1 3 -0.0559 26.1971 11.1132 7.85825
62 1 3 -0.0559 10.3349 9.9785 7.05587
63 1 3 -0.055903 10.3349 11.1132 7.85825
64 1 3 -0.055903 26.1971 9.9785 7.05587
65 1 3 -0.0559 14.7918 8.54005 0.580159
66 1 3 -0.0559 21.7402 12.5517 14.334
67 1 3 -0.055903 22.7229 13.1191 13.5316
68 1 3 -0.055903 13.8091 7.97268 1.38254
69 1 3 -0.0559 21.7402 3.39366 7.85825
70 1 3 -0.0559 14.7918 17.6981 7.05587
71 1 3 -0.055903 13.8091 17.1307 7.85825
72 1 3 -0.055903 22.7229 3.96103 7.05587
73 1 3 -0.055901 22.7229 17.1307 7.85825
74 1 3 -0.055901 13.8091 3.96103 7.05587
75 1 3 -0.055903 14.7918 3.39366 7.85825
76 1 3 -0.055903 21.7402 17.6981 7.05587
77 1 3 -0.0559 21.7402 8.54005 0.580159
78 1 3 -0.0559 14.7918 12.5517 14.334
79 1 3 -0.055903 13.8091 13.1191 13.5316
80 1 3 -0.055903 22.7229 7.97268 1.38254
81 1 4 -1.26215 27.399 15.8188 11.1856
82 1 4 -1.26215 9.13299 5.27293 3.72853
83 1 4 -0.60118 27.399 18.9383 11.9641
84 1 4 -0.60118 9.13299 2.15347 2.95001
85 1 4 -0.601179 27.399 17.5926 13.8671
86 1 4 -0.601179 9.13299 3.49912 1.04697
87 1 4 -0.601179 26.2336 13.3722 9.45555
88 1 4 -0.601179 10.2984 7.71958 5.45857
89 1 4 -0.60118 28.5643 13.3722 9.45555
90 1 4 -0.60118 7.96762 7.71958 5.45857
91 1 4 -0.60118 25.8628 14.9319 13.8671
92 1 4 -0.60118 10.6692 6.15984 1.04697
93 1 4 -0.601179 24.6974 14.2591 11.9641
94 1 4 -0.601179 11.8345 6.83267 2.95001
95 1 4 -0.60118 28.9351 18.0514 9.45555
96 1 4 -0.60118 7.59682 3.04037 5.45857
97 1 4 -0.601179 30.1005 16.0329 9.45555
98 1 4 -0.601179 6.43145 5.05885 5.45857
99 1 4 -0.601179 24.6974 16.0329 9.45555
100 1 4 -0.601179 11.8345 5.05885 5.45857
101 1 4 -0.60118 25.8628 18.0514 9.45555
102 1 4 -0.60118 10.6692 3.04037 5.45857
103 1 4 -0.60118 28.9351 14.9319 13.8671
104 1 4 -0.60118 7.59682 6.15984 1.04697
105 1 4 -0.60118 30.1005 14.2591 11.9641
106 1 4 -0.60118 6.43145 6.83267 2.95001
ITEM: TIMESTEP
38000
ITEM: NUMBER OF ATOMS
109
ITEM: BOX BOUNDS xy xz yz pp pp pp
0.0000000000000000e+00 3.6531964750000000e+01 9.1329911900000003e+00
0.0000000000000000e+00 2.1091739680000000e+01 9.1329911900000003e+00
0.0000000000000000e+00 1.4914112149999999e+01 5.2729349200000000e+00
ITEM: ATOMS id mol type q x y z
1 1 1 1.10383 27.399 17.6496 10.5383
2 1 1 1.10383 9.13299 3.44217 4.3758
3 1 1 1.10383 27.399 15.8188 13.1274
4 1 1 1.10383 9.13299 5.27293 1.78671
5 1 1 1.10383 25.8135 14.9034 10.5383
6 1 1 1.10383 10.7185 6.18832 4.3758
7 1 1 1.10383 28.9845 14.9034 10.5383
8 1 1 1.10383 7.5475 6.18832 4.3758
9 1 2 0.115889 18.266 5.48596 12.6084
10 1 2 0.115889 18.266 15.6058 2.30572
11 1 2 0.115888 18.266 13.716 0.969417
12 1 2 0.115888 18.266 7.37578 13.9447
13 1 2 0.11589 25.3934 11.4908 8.12521
14 1 2 0.11589 11.1386 9.60096 6.7889
15 1 2 0.115888 11.1386 11.4908 8.12521
16 1 2 0.115888 25.3934 9.60096 6.7889
17 1 2 0.115889 15.5206 8.96083 0.969417
18 1 2 0.115889 21.0114 12.1309 13.9447
19 1 2 0.115888 22.648 13.0758 12.6084
20 1 2 0.115888 13.884 8.01592 2.30572
21 1 2 0.115889 21.0114 3.90092 8.12521
22 1 2 0.115889 15.5206 17.1908 6.7889
23 1 2 0.115887 13.884 16.2459 8.12521
24 1 2 0.115887 22.648 4.84583 6.7889
25 1 2 0.115889 22.648 16.2459 8.12521
26 1 2 0.115889 13.884 4.84583 6.7889
27 1 2 0.115887 15.5206 3.90092 8.12521
28 1 2 0.115887 21.0114 17.1908 6.7889
29 1 2 0.115889 21.0114 8.96083 0.969417
30 1 2 0.115889 15.5206 12.1309 13.9447
31 1 2 0.115887 13.884 13.0758 12.6084
32 1 2 0.115887 22.648 8.01592 2.30572
33 1 3 0.671939 27.399 18.7442 13.2542
34 1 3 0.671939 9.13299 2.34751 1.65994
35 1 3 0.671939 27.399 12.8934 9.117
36 1 3 0.671939 9.13299 8.19836 5.79712
37 1 3 0.67194 24.8655 14.3561 13.2542
38 1 3 0.67194 11.6665 6.73565 1.65994
39 1 3 0.67194 29.9325 17.2815 9.117
40 1 3 0.67194 6.5995 3.81022 5.79712
41 1 3 0.67194 24.8655 17.2815 9.117
42 1 3 0.67194 11.6665 3.81022 5.79712
43 1 3 0.67194 29.9325 14.3561 13.2542
44 1 3 0.67194 6.5995 6.73565 1.65994
45 1 3 -0.11508 27.399 19.957 14.1117
46 1 3 -0.11508 9.13299 1.13474 0.802379
47 1 3 -0.11508 27.399 11.6806 8.25944
48 1 3 -0.11508 9.13299 9.41113 6.65468
49 1 3 -0.11508 23.8152 13.7497 14.1117
50 1 3 -0.11508 12.7168 7.34203 0.802379
51 1 3 -0.11508 30.9828 17.8879 8.25944
52 1 3 -0.11508 5.54921 3.20384 6.65468
53 1 3 -0.11508 23.8152 17.8879 8.25944
54 1 3 -0.11508 12.7168 3.20384 6.65468
55 1 3 -0.11508 30.9828 13.7497 14.1117
56 1 3 -0.11508 5.54921 7.34203 0.802379
57 1 3 -0.0559 18.266 5.39949 13.5316
58 1 3 -0.0559 18.266 15.6923 1.38254
59 1 3 -0.055903 18.266 14.5575 0.580159
60 1 3 -0.055903 18.266 6.53422 14.334
61 1 3 -0.0559 26.1971 11.1132 7.85825
62 1 3 -0.0559 10.3349 9.9785 7.05587
63 1 3 -0.055903 10.3349 11.1132 7.85825
64 1 3 -0.055903 26.1971 9.9785 7.05587
65 1 3 -0.0559 14.7918 8.54005 0.580159
66 1 3 -0.0559 21.7402 12.5517 14.334
67 1 3 -0.055903 22.7229 13.1191 13.5316
68 1 3 -0.055903 13.8091 7.97268 1.38254
69 1 3 -0.0559 21.7402 3.39366 7.85825
70 1 3 -0.0559 14.7918 17.6981 7.05587
71 1 3 -0.055903 13.8091 17.1307 7.85825
72 1 3 -0.055903 22.7229 3.96103 7.05587
73 1 3 -0.055901 22.7229 17.1307 7.85825
74 1 3 -0.055901 13.8091 3.96103 7.05587
75 1 3 -0.055903 14.7918 3.39366 7.85825
76 1 3 -0.055903 21.7402 17.6981 7.05587
77 1 3 -0.0559 21.7402 8.54005 0.580159
78 1 3 -0.0559 14.7918 12.5517 14.334
79 1 3 -0.055903 13.8091 13.1191 13.5316
80 1 3 -0.055903 22.7229 7.97268 1.38254
81 1 4 -1.26215 27.399 15.8188 11.1856
82 1 4 -1.26215 9.13299 5.27293 3.72853
83 1 4 -0.60118 27.399 18.9383 11.9641
84 1 4 -0.60118 9.13299 2.15347 2.95001
85 1 4 -0.601179 27.399 17.5926 13.8671
86 1 4 -0.601179 9.13299 3.49912 1.04697
87 1 4 -0.601179 26.2336 13.3722 9.45555
88 1 4 -0.601179 10.2984 7.71958 5.45857
89 1 4 -0.60118 28.5643 13.3722 9.45555
90 1 4 -0.60118 7.96762 7.71958 5.45857
91 1 4 -0.60118 25.8628 14.9319 13.8671
92 1 4 -0.60118 10.6692 6.15984 1.04697
93 1 4 -0.601179 24.6974 14.2591 11.9641
94 1 4 -0.601179 11.8345 6.83267 2.95001
95 1 4 -0.60118 28.9351 18.0514 9.45555
96 1 4 -0.60118 7.59682 3.04037 5.45857
97 1 4 -0.601179 30.1005 16.0329 9.45555
98 1 4 -0.601179 6.43145 5.05885 5.45857
99 1 4 -0.601179 24.6974 16.0329 9.45555
100 1 4 -0.601179 11.8345 5.05885 5.45857
101 1 4 -0.60118 25.8628 18.0514 9.45555
102 1 4 -0.60118 10.6692 3.04037 5.45857
103 1 4 -0.60118 28.9351 14.9319 13.8671
104 1 4 -0.60118 7.59682 6.15984 1.04697
105 1 4 -0.60118 30.1005 14.2591 11.9641
106 1 4 -0.60118 6.43145 6.83267 2.95001
107 2 5 -0.35 26.3446 6.84797 11.9633
108 2 6 0.7 25.3137 7.05996 12.4512
109 2 5 -0.35 24.2829 7.27195 12.9391
ITEM: TIMESTEP
39000
ITEM: NUMBER OF ATOMS
106
ITEM: BOX BOUNDS xy xz yz pp pp pp
0.0000000000000000e+00 3.6531964750000000e+01 9.1329911900000003e+00
0.0000000000000000e+00 2.1091739680000000e+01 9.1329911900000003e+00
0.0000000000000000e+00 1.4914112149999999e+01 5.2729349200000000e+00
ITEM: ATOMS id mol type q x y z
1 1 1 1.10383 27.399 17.6496 10.5383
2 1 1 1.10383 9.13299 3.44217 4.3758
3 1 1 1.10383 27.399 15.8188 13.1274
4 1 1 1.10383 9.13299 5.27293 1.78671
5 1 1 1.10383 25.8135 14.9034 10.5383
6 1 1 1.10383 10.7185 6.18832 4.3758
7 1 1 1.10383 28.9845 14.9034 10.5383
8 1 1 1.10383 7.5475 6.18832 4.3758
9 1 2 0.115889 18.266 5.48596 12.6084
10 1 2 0.115889 18.266 15.6058 2.30572
11 1 2 0.115888 18.266 13.716 0.969417
12 1 2 0.115888 18.266 7.37578 13.9447
13 1 2 0.11589 25.3934 11.4908 8.12521
14 1 2 0.11589 11.1386 9.60096 6.7889
15 1 2 0.115888 11.1386 11.4908 8.12521
16 1 2 0.115888 25.3934 9.60096 6.7889
17 1 2 0.115889 15.5206 8.96083 0.969417
18 1 2 0.115889 21.0114 12.1309 13.9447
19 1 2 0.115888 22.648 13.0758 12.6084
20 1 2 0.115888 13.884 8.01592 2.30572
21 1 2 0.115889 21.0114 3.90092 8.12521
22 1 2 0.115889 15.5206 17.1908 6.7889
23 1 2 0.115887 13.884 16.2459 8.12521
24 1 2 0.115887 22.648 4.84583 6.7889
25 1 2 0.115889 22.648 16.2459 8.12521
26 1 2 0.115889 13.884 4.84583 6.7889
27 1 2 0.115887 15.5206 3.90092 8.12521
28 1 2 0.115887 21.0114 17.1908 6.7889
29 1 2 0.115889 21.0114 8.96083 0.969417
30 1 2 0.115889 15.5206 12.1309 13.9447
31 1 2 0.115887 13.884 13.0758 12.6084
32 1 2 0.115887 22.648 8.01592 2.30572
33 1 3 0.671939 27.399 18.7442 13.2542
34 1 3 0.671939 9.13299 2.34751 1.65994
35 1 3 0.671939 27.399 12.8934 9.117
36 1 3 0.671939 9.13299 8.19836 5.79712
37 1 3 0.67194 24.8655 14.3561 13.2542
38 1 3 0.67194 11.6665 6.73565 1.65994
39 1 3 0.67194 29.9325 17.2815 9.117
40 1 3 0.67194 6.5995 3.81022 5.79712
41 1 3 0.67194 24.8655 17.2815 9.117
42 1 3 0.67194 11.6665 3.81022 5.79712
43 1 3 0.67194 29.9325 14.3561 13.2542
44 1 3 0.67194 6.5995 6.73565 1.65994
45 1 3 -0.11508 27.399 19.957 14.1117
46 1 3 -0.11508 9.13299 1.13474 0.802379
47 1 3 -0.11508 27.399 11.6806 8.25944
48 1 3 -0.11508 9.13299 9.41113 6.65468
49 1 3 -0.11508 23.8152 13.7497 14.1117
50 1 3 -0.11508 12.7168 7.34203 0.802379
51 1 3 -0.11508 30.9828 17.8879 8.25944
52 1 3 -0.11508 5.54921 3.20384 6.65468
53 1 3 -0.11508 23.8152 17.8879 8.25944
54 1 3 -0.11508 12.7168 3.20384 6.65468
55 1 3 -0.11508 30.9828 13.7497 14.1117
56 1 3 -0.11508 5.54921 7.34203 0.802379
57 1 3 -0.0559 18.266 5.39949 13.5316
58 1 3 -0.0559 18.266 15.6923 1.38254
59 1 3 -0.055903 18.266 14.5575 0.580159
60 1 3 -0.055903 18.266 6.53422 14.334
61 1 3 -0.0559 26.1971 11.1132 7.85825
62 1 3 -0.0559 10.3349 9.9785 7.05587
63 1 3 -0.055903 10.3349 11.1132 7.85825
64 1 3 -0.055903 26.1971 9.9785 7.05587
65 1 3 -0.0559 14.7918 8.54005 0.580159
66 1 3 -0.0559 21.7402 12.5517 14.334
67 1 3 -0.055903 22.7229 13.1191 13.5316
68 1 3 -0.055903 13.8091 7.97268 1.38254
69 1 3 -0.0559 21.7402 3.39366 7.85825
70 1 3 -0.0559 14.7918 17.6981 7.05587
71 1 3 -0.055903 13.8091 17.1307 7.85825
72 1 3 -0.055903 22.7229 3.96103 7.05587
73 1 3 -0.055901 22.7229 17.1307 7.85825
74 1 3 -0.055901 13.8091 3.96103 7.05587
75 1 3 -0.055903 14.7918 3.39366 7.85825
76 1 3 -0.055903 21.7402 17.6981 7.05587
77 1 3 -0.0559 21.7402 8.54005 0.580159
78 1 3 -0.0559 14.7918 12.5517 14.334
79 1 3 -0.055903 13.8091 13.1191 13.5316
80 1 3 -0.055903 22.7229 7.97268 1.38254
81 1 4 -1.26215 27.399 15.8188 11.1856
82 1 4 -1.26215 9.13299 5.27293 3.72853
83 1 4 -0.60118 27.399 18.9383 11.9641
84 1 4 -0.60118 9.13299 2.15347 2.95001
85 1 4 -0.601179 27.399 17.5926 13.8671
86 1 4 -0.601179 9.13299 3.49912 1.04697
87 1 4 -0.601179 26.2336 13.3722 9.45555
88 1 4 -0.601179 10.2984 7.71958 5.45857
89 1 4 -0.60118 28.5643 13.3722 9.45555
90 1 4 -0.60118 7.96762 7.71958 5.45857
91 1 4 -0.60118 25.8628 14.9319 13.8671
92 1 4 -0.60118 10.6692 6.15984 1.04697
93 1 4 -0.601179 24.6974 14.2591 11.9641
94 1 4 -0.601179 11.8345 6.83267 2.95001
95 1 4 -0.60118 28.9351 18.0514 9.45555
96 1 4 -0.60118 7.59682 3.04037 5.45857
97 1 4 -0.601179 30.1005 16.0329 9.45555
98 1 4 -0.601179 6.43145 5.05885 5.45857
99 1 4 -0.601179 24.6974 16.0329 9.45555
100 1 4 -0.601179 11.8345 5.05885 5.45857
101 1 4 -0.60118 25.8628 18.0514 9.45555
102 1 4 -0.60118 10.6692 3.04037 5.45857
103 1 4 -0.60118 28.9351 14.9319 13.8671
104 1 4 -0.60118 7.59682 6.15984 1.04697
105 1 4 -0.60118 30.1005 14.2591 11.9641
106 1 4 -0.60118 6.43145 6.83267 2.95001
ITEM: TIMESTEP
40000
ITEM: NUMBER OF ATOMS
106
ITEM: BOX BOUNDS xy xz yz pp pp pp
0.0000000000000000e+00 3.6531964750000000e+01 9.1329911900000003e+00
0.0000000000000000e+00 2.1091739680000000e+01 9.1329911900000003e+00
0.0000000000000000e+00 1.4914112149999999e+01 5.2729349200000000e+00
ITEM: ATOMS id mol type q x y z
1 1 1 1.10383 27.399 17.6496 10.5383
2 1 1 1.10383 9.13299 3.44217 4.3758
3 1 1 1.10383 27.399 15.8188 13.1274
4 1 1 1.10383 9.13299 5.27293 1.78671
5 1 1 1.10383 25.8135 14.9034 10.5383
6 1 1 1.10383 10.7185 6.18832 4.3758
7 1 1 1.10383 28.9845 14.9034 10.5383
8 1 1 1.10383 7.5475 6.18832 4.3758
9 1 2 0.115889 18.266 5.48596 12.6084
10 1 2 0.115889 18.266 15.6058 2.30572
11 1 2 0.115888 18.266 13.716 0.969417
12 1 2 0.115888 18.266 7.37578 13.9447
13 1 2 0.11589 25.3934 11.4908 8.12521
14 1 2 0.11589 11.1386 9.60096 6.7889
15 1 2 0.115888 11.1386 11.4908 8.12521
16 1 2 0.115888 25.3934 9.60096 6.7889
17 1 2 0.115889 15.5206 8.96083 0.969417
18 1 2 0.115889 21.0114 12.1309 13.9447
19 1 2 0.115888 22.648 13.0758 12.6084
20 1 2 0.115888 13.884 8.01592 2.30572
21 1 2 0.115889 21.0114 3.90092 8.12521
22 1 2 0.115889 15.5206 17.1908 6.7889
23 1 2 0.115887 13.884 16.2459 8.12521
24 1 2 0.115887 22.648 4.84583 6.7889
25 1 2 0.115889 22.648 16.2459 8.12521
26 1 2 0.115889 13.884 4.84583 6.7889
27 1 2 0.115887 15.5206 3.90092 8.12521
28 1 2 0.115887 21.0114 17.1908 6.7889
29 1 2 0.115889 21.0114 8.96083 0.969417
30 1 2 0.115889 15.5206 12.1309 13.9447
31 1 2 0.115887 13.884 13.0758 12.6084
32 1 2 0.115887 22.648 8.01592 2.30572
33 1 3 0.671939 27.399 18.7442 13.2542
34 1 3 0.671939 9.13299 2.34751 1.65994
35 1 3 0.671939 27.399 12.8934 9.117
36 1 3 0.671939 9.13299 8.19836 5.79712
37 1 3 0.67194 24.8655 14.3561 13.2542
38 1 3 0.67194 11.6665 6.73565 1.65994
39 1 3 0.67194 29.9325 17.2815 9.117
40 1 3 0.67194 6.5995 3.81022 5.79712
41 1 3 0.67194 24.8655 17.2815 9.117
42 1 3 0.67194 11.6665 3.81022 5.79712
43 1 3 0.67194 29.9325 14.3561 13.2542
44 1 3 0.67194 6.5995 6.73565 1.65994
45 1 3 -0.11508 27.399 19.957 14.1117
46 1 3 -0.11508 9.13299 1.13474 0.802379
47 1 3 -0.11508 27.399 11.6806 8.25944
48 1 3 -0.11508 9.13299 9.41113 6.65468
49 1 3 -0.11508 23.8152 13.7497 14.1117
50 1 3 -0.11508 12.7168 7.34203 0.802379
51 1 3 -0.11508 30.9828 17.8879 8.25944
52 1 3 -0.11508 5.54921 3.20384 6.65468
53 1 3 -0.11508 23.8152 17.8879 8.25944
54 1 3 -0.11508 12.7168 3.20384 6.65468
55 1 3 -0.11508 30.9828 13.7497 14.1117
56 1 3 -0.11508 5.54921 7.34203 0.802379
57 1 3 -0.0559 18.266 5.39949 13.5316
58 1 3 -0.0559 18.266 15.6923 1.38254
59 1 3 -0.055903 18.266 14.5575 0.580159
60 1 3 -0.055903 18.266 6.53422 14.334
61 1 3 -0.0559 26.1971 11.1132 7.85825
62 1 3 -0.0559 10.3349 9.9785 7.05587
63 1 3 -0.055903 10.3349 11.1132 7.85825
64 1 3 -0.055903 26.1971 9.9785 7.05587
65 1 3 -0.0559 14.7918 8.54005 0.580159
66 1 3 -0.0559 21.7402 12.5517 14.334
67 1 3 -0.055903 22.7229 13.1191 13.5316
68 1 3 -0.055903 13.8091 7.97268 1.38254
69 1 3 -0.0559 21.7402 3.39366 7.85825
70 1 3 -0.0559 14.7918 17.6981 7.05587
71 1 3 -0.055903 13.8091 17.1307 7.85825
72 1 3 -0.055903 22.7229 3.96103 7.05587
73 1 3 -0.055901 22.7229 17.1307 7.85825
74 1 3 -0.055901 13.8091 3.96103 7.05587
75 1 3 -0.055903 14.7918 3.39366 7.85825
76 1 3 -0.055903 21.7402 17.6981 7.05587
77 1 3 -0.0559 21.7402 8.54005 0.580159
78 1 3 -0.0559 14.7918 12.5517 14.334
79 1 3 -0.055903 13.8091 13.1191 13.5316
80 1 3 -0.055903 22.7229 7.97268 1.38254
81 1 4 -1.26215 27.399 15.8188 11.1856
82 1 4 -1.26215 9.13299 5.27293 3.72853
83 1 4 -0.60118 27.399 18.9383 11.9641
84 1 4 -0.60118 9.13299 2.15347 2.95001
85 1 4 -0.601179 27.399 17.5926 13.8671
86 1 4 -0.601179 9.13299 3.49912 1.04697
87 1 4 -0.601179 26.2336 13.3722 9.45555
88 1 4 -0.601179 10.2984 7.71958 5.45857
89 1 4 -0.60118 28.5643 13.3722 9.45555
90 1 4 -0.60118 7.96762 7.71958 5.45857
91 1 4 -0.60118 25.8628 14.9319 13.8671
92 1 4 -0.60118 10.6692 6.15984 1.04697
93 1 4 -0.601179 24.6974 14.2591 11.9641
94 1 4 -0.601179 11.8345 6.83267 2.95001
95 1 4 -0.60118 28.9351 18.0514 9.45555
96 1 4 -0.60118 7.59682 3.04037 5.45857
97 1 4 -0.601179 30.1005 16.0329 9.45555
98 1 4 -0.601179 6.43145 5.05885 5.45857
99 1 4 -0.601179 24.6974 16.0329 9.45555
100 1 4 -0.601179 11.8345 5.05885 5.45857
101 1 4 -0.60118 25.8628 18.0514 9.45555
102 1 4 -0.60118 10.6692 3.04037 5.45857
103 1 4 -0.60118 28.9351 14.9319 13.8671
104 1 4 -0.60118 7.59682 6.15984 1.04697
105 1 4 -0.60118 30.1005 14.2591 11.9641
106 1 4 -0.60118 6.43145 6.83267 2.95001
ITEM: TIMESTEP
41000
ITEM: NUMBER OF ATOMS
115
ITEM: BOX BOUNDS xy xz yz pp pp pp
0.0000000000000000e+00 3.6531964750000000e+01 9.1329911900000003e+00
0.0000000000000000e+00 2.1091739680000000e+01 9.1329911900000003e+00
0.0000000000000000e+00 1.4914112149999999e+01 5.2729349200000000e+00
ITEM: ATOMS id mol type q x y z
1 1 1 1.10383 27.399 17.6496 10.5383
2 1 1 1.10383 9.13299 3.44217 4.3758
3 1 1 1.10383 27.399 15.8188 13.1274
4 1 1 1.10383 9.13299 5.27293 1.78671
5 1 1 1.10383 25.8135 14.9034 10.5383
6 1 1 1.10383 10.7185 6.18832 4.3758
7 1 1 1.10383 28.9845 14.9034 10.5383
8 1 1 1.10383 7.5475 6.18832 4.3758
9 1 2 0.115889 18.266 5.48596 12.6084
10 1 2 0.115889 18.266 15.6058 2.30572
11 1 2 0.115888 18.266 13.716 0.969417
12 1 2 0.115888 18.266 7.37578 13.9447
13 1 2 0.11589 25.3934 11.4908 8.12521
14 1 2 0.11589 11.1386 9.60096 6.7889
15 1 2 0.115888 11.1386 11.4908 8.12521
16 1 2 0.115888 25.3934 9.60096 6.7889
17 1 2 0.115889 15.5206 8.96083 0.969417
18 1 2 0.115889 21.0114 12.1309 13.9447
19 1 2 0.115888 22.648 13.0758 12.6084
20 1 2 0.115888 13.884 8.01592 2.30572
21 1 2 0.115889 21.0114 3.90092 8.12521
22 1 2 0.115889 15.5206 17.1908 6.7889
23 1 2 0.115887 13.884 16.2459 8.12521
24 1 2 0.115887 22.648 4.84583 6.7889
25 1 2 0.115889 22.648 16.2459 8.12521
26 1 2 0.115889 13.884 4.84583 6.7889
27 1 2 0.115887 15.5206 3.90092 8.12521
28 1 2 0.115887 21.0114 17.1908 6.7889
29 1 2 0.115889 21.0114 8.96083 0.969417
30 1 2 0.115889 15.5206 12.1309 13.9447
31 1 2 0.115887 13.884 13.0758 12.6084
32 1 2 0.115887 22.648 8.01592 2.30572
33 1 3 0.671939 27.399 18.7442 13.2542
34 1 3 0.671939 9.13299 2.34751 1.65994
35 1 3 0.671939 27.399 12.8934 9.117
36 1 3 0.671939 9.13299 8.19836 5.79712
37 1 3 0.67194 24.8655 14.3561 13.2542
38 1 3 0.67194 11.6665 6.73565 1.65994
39 1 3 0.67194 29.9325 17.2815 9.117
40 1 3 0.67194 6.5995 3.81022 5.79712
41 1 3 0.67194 24.8655 17.2815 9.117
42 1 3 0.67194 11.6665 3.81022 5.79712
43 1 3 0.67194 29.9325 14.3561 13.2542
44 1 3 0.67194 6.5995 6.73565 1.65994
45 1 3 -0.11508 27.399 19.957 14.1117
46 1 3 -0.11508 9.13299 1.13474 0.802379
47 1 3 -0.11508 27.399 11.6806 8.25944
48 1 3 -0.11508 9.13299 9.41113 6.65468
49 1 3 -0.11508 23.8152 13.7497 14.1117
50 1 3 -0.11508 12.7168 7.34203 0.802379
51 1 3 -0.11508 30.9828 17.8879 8.25944
52 1 3 -0.11508 5.54921 3.20384 6.65468
53 1 3 -0.11508 23.8152 17.8879 8.25944
54 1 3 -0.11508 12.7168 3.20384 6.65468
55 1 3 -0.11508 30.9828 13.7497 14.1117
56 1 3 -0.11508 5.54921 7.34203 0.802379
57 1 3 -0.0559 18.266 5.39949 13.5316
58 1 3 -0.0559 18.266 15.6923 1.38254
59 1 3 -0.055903 18.266 14.5575 0.580159
60 1 3 -0.055903 18.266 6.53422 14.334
61 1 3 -0.0559 26.1971 11.1132 7.85825
62 1 3 -0.0559 10.3349 9.9785 7.05587
63 1 3 -0.055903 10.3349 11.1132 7.85825
64 1 3 -0.055903 26.1971 9.9785 7.05587
65 1 3 -0.0559 14.7918 8.54005 0.580159
66 1 3 -0.0559 21.7402 12.5517 14.334
67 1 3 -0.055903 22.7229 13.1191 13.5316
68 1 3 -0.055903 13.8091 7.97268 1.38254
69 1 3 -0.0559 21.7402 3.39366 7.85825
70 1 3 -0.0559 14.7918 17.6981 7.05587
71 1 3 -0.055903 13.8091 17.1307 7.85825
72 1 3 -0.055903 22.7229 3.96103 7.05587
73 1 3 -0.055901 22.7229 17.1307 7.85825
74 1 3 -0.055901 13.8091 3.96103 7.05587
75 1 3 -0.055903 14.7918 3.39366 7.85825
76 1 3 -0.055903 21.7402 17.6981 7.05587
77 1 3 -0.0559 21.7402 8.54005 0.580159
78 1 3 -0.0559 14.7918 12.5517 14.334
79 1 3 -0.055903 13.8091 13.1191 13.5316
80 1 3 -0.055903 22.7229 7.97268 1.38254
81 1 4 -1.26215 27.399 15.8188 11.1856
82 1 4 -1.26215 9.13299 5.27293 3.72853
83 1 4 -0.60118 27.399 18.9383 11.9641
84 1 4 -0.60118 9.13299 2.15347 2.95001
85 1 4 -0.601179 27.399 17.5926 13.8671
86 1 4 -0.601179 9.13299 3.49912 1.04697
87 1 4 -0.601179 26.2336 13.3722 9.45555
88 1 4 -0.601179 10.2984 7.71958 5.45857
89 1 4 -0.60118 28.5643 13.3722 9.45555
90 1 4 -0.60118 7.96762 7.71958 5.45857
91 1 4 -0.60118 25.8628 14.9319 13.8671
92 1 4 -0.60118 10.6692 6.15984 1.04697
93 1 4 -0.601179 24.6974 14.2591 11.9641
94 1 4 -0.601179 11.8345 6.83267 2.95001
95 1 4 -0.60118 28.9351 18.0514 9.45555
96 1 4 -0.60118 7.59682 3.04037 5.45857
97 1 4 -0.601179 30.1005 16.0329 9.45555
98 1 4 -0.601179 6.43145 5.05885 5.45857
99 1 4 -0.601179 24.6974 16.0329 9.45555
100 1 4 -0.601179 11.8345 5.05885 5.45857
101 1 4 -0.60118 25.8628 18.0514 9.45555
102 1 4 -0.60118 10.6692 3.04037 5.45857
103 1 4 -0.60118 28.9351 14.9319 13.8671
104 1 4 -0.60118 7.59682 6.15984 1.04697
105 1 4 -0.60118 30.1005 14.2591 11.9641
106 1 4 -0.60118 6.43145 6.83267 2.95001
116 5 5 -0.35 26.7238 15.4448 6.82178
117 5 6 0.7 26.995 16.5333 6.5265
118 5 5 -0.35 27.2662 17.6218 6.23121
119 6 5 -0.35 12.665 11.1877 0.526545
120 6 6 0.7 21.5033 16.1893 14.352
121 6 5 -0.35 21.2085 15.918 13.2634
128 9 5 -0.35 10.2237 10.6557 2.92899
129 9 6 0.7 10.1445 9.92518 2.03138
130 9 5 -0.35 10.0653 9.19469 1.13377
ITEM: TIMESTEP
42000
ITEM: NUMBER OF ATOMS
118
ITEM: BOX BOUNDS xy xz yz pp pp pp
0.0000000000000000e+00 3.6531964750000000e+01 9.1329911900000003e+00
0.0000000000000000e+00 2.1091739680000000e+01 9.1329911900000003e+00
0.0000000000000000e+00 1.4914112149999999e+01 5.2729349200000000e+00
ITEM: ATOMS id mol type q x y z
1 1 1 1.10383 27.399 17.6496 10.5383
2 1 1 1.10383 9.13299 3.44217 4.3758
3 1 1 1.10383 27.399 15.8188 13.1274
4 1 1 1.10383 9.13299 5.27293 1.78671
5 1 1 1.10383 25.8135 14.9034 10.5383
6 1 1 1.10383 10.7185 6.18832 4.3758
7 1 1 1.10383 28.9845 14.9034 10.5383
8 1 1 1.10383 7.5475 6.18832 4.3758
9 1 2 0.115889 18.266 5.48596 12.6084
10 1 2 0.115889 18.266 15.6058 2.30572
11 1 2 0.115888 18.266 13.716 0.969417
12 1 2 0.115888 18.266 7.37578 13.9447
13 1 2 0.11589 25.3934 11.4908 8.12521
14 1 2 0.11589 11.1386 9.60096 6.7889
15 1 2 0.115888 11.1386 11.4908 8.12521
16 1 2 0.115888 25.3934 9.60096 6.7889
17 1 2 0.115889 15.5206 8.96083 0.969417
18 1 2 0.115889 21.0114 12.1309 13.9447
19 1 2 0.115888 22.648 13.0758 12.6084
20 1 2 0.115888 13.884 8.01592 2.30572
21 1 2 0.115889 21.0114 3.90092 8.12521
22 1 2 0.115889 15.5206 17.1908 6.7889
23 1 2 0.115887 13.884 16.2459 8.12521
24 1 2 0.115887 22.648 4.84583 6.7889
25 1 2 0.115889 22.648 16.2459 8.12521
26 1 2 0.115889 13.884 4.84583 6.7889
27 1 2 0.115887 15.5206 3.90092 8.12521
28 1 2 0.115887 21.0114 17.1908 6.7889
29 1 2 0.115889 21.0114 8.96083 0.969417
30 1 2 0.115889 15.5206 12.1309 13.9447
31 1 2 0.115887 13.884 13.0758 12.6084
32 1 2 0.115887 22.648 8.01592 2.30572
33 1 3 0.671939 27.399 18.7442 13.2542
34 1 3 0.671939 9.13299 2.34751 1.65994
35 1 3 0.671939 27.399 12.8934 9.117
36 1 3 0.671939 9.13299 8.19836 5.79712
37 1 3 0.67194 24.8655 14.3561 13.2542
38 1 3 0.67194 11.6665 6.73565 1.65994
39 1 3 0.67194 29.9325 17.2815 9.117
40 1 3 0.67194 6.5995 3.81022 5.79712
41 1 3 0.67194 24.8655 17.2815 9.117
42 1 3 0.67194 11.6665 3.81022 5.79712
43 1 3 0.67194 29.9325 14.3561 13.2542
44 1 3 0.67194 6.5995 6.73565 1.65994
45 1 3 -0.11508 27.399 19.957 14.1117
46 1 3 -0.11508 9.13299 1.13474 0.802379
47 1 3 -0.11508 27.399 11.6806 8.25944
48 1 3 -0.11508 9.13299 9.41113 6.65468
49 1 3 -0.11508 23.8152 13.7497 14.1117
50 1 3 -0.11508 12.7168 7.34203 0.802379
51 1 3 -0.11508 30.9828 17.8879 8.25944
52 1 3 -0.11508 5.54921 3.20384 6.65468
53 1 3 -0.11508 23.8152 17.8879 8.25944
54 1 3 -0.11508 12.7168 3.20384 6.65468
55 1 3 -0.11508 30.9828 13.7497 14.1117
56 1 3 -0.11508 5.54921 7.34203 0.802379
57 1 3 -0.0559 18.266 5.39949 13.5316
58 1 3 -0.0559 18.266 15.6923 1.38254
59 1 3 -0.055903 18.266 14.5575 0.580159
60 1 3 -0.055903 18.266 6.53422 14.334
61 1 3 -0.0559 26.1971 11.1132 7.85825
62 1 3 -0.0559 10.3349 9.9785 7.05587
63 1 3 -0.055903 10.3349 11.1132 7.85825
64 1 3 -0.055903 26.1971 9.9785 7.05587
65 1 3 -0.0559 14.7918 8.54005 0.580159
66 1 3 -0.0559 21.7402 12.5517 14.334
67 1 3 -0.055903 22.7229 13.1191 13.5316
68 1 3 -0.055903 13.8091 7.97268 1.38254
69 1 3 -0.0559 21.7402 3.39366 7.85825
70 1 3 -0.0559 14.7918 17.6981 7.05587
71 1 3 -0.055903 13.8091 17.1307 7.85825
72 1 3 -0.055903 22.7229 3.96103 7.05587
73 1 3 -0.055901 22.7229 17.1307 7.85825
74 1 3 -0.055901 13.8091 3.96103 7.05587
75 1 3 -0.055903 14.7918 3.39366 7.85825
76 1 3 -0.055903 21.7402 17.6981 7.05587
77 1 3 -0.0559 21.7402 8.54005 0.580159
78 1 3 -0.0559 14.7918 12.5517 14.334
79 1 3 -0.055903 13.8091 13.1191 13.5316
80 1 3 -0.055903 22.7229 7.97268 1.38254
81 1 4 -1.26215 27.399 15.8188 11.1856
82 1 4 -1.26215 9.13299 5.27293 3.72853
83 1 4 -0.60118 27.399 18.9383 11.9641
84 1 4 -0.60118 9.13299 2.15347 2.95001
85 1 4 -0.601179 27.399 17.5926 13.8671
86 1 4 -0.601179 9.13299 3.49912 1.04697
87 1 4 -0.601179 26.2336 13.3722 9.45555
88 1 4 -0.601179 10.2984 7.71958 5.45857
89 1 4 -0.60118 28.5643 13.3722 9.45555
90 1 4 -0.60118 7.96762 7.71958 5.45857
91 1 4 -0.60118 25.8628 14.9319 13.8671
92 1 4 -0.60118 10.6692 6.15984 1.04697
93 1 4 -0.601179 24.6974 14.2591 11.9641
94 1 4 -0.601179 11.8345 6.83267 2.95001
95 1 4 -0.60118 28.9351 18.0514 9.45555
96 1 4 -0.60118 7.59682 3.04037 5.45857
97 1 4 -0.601179 30.1005 16.0329 9.45555
98 1 4 -0.601179 6.43145 5.05885 5.45857
99 1 4 -0.601179 24.6974 16.0329 9.45555
100 1 4 -0.601179 11.8345 5.05885 5.45857
101 1 4 -0.60118 25.8628 18.0514 9.45555
102 1 4 -0.60118 10.6692 3.04037 5.45857
103 1 4 -0.60118 28.9351 14.9319 13.8671
104 1 4 -0.60118 7.59682 6.15984 1.04697
105 1 4 -0.60118 30.1005 14.2591 11.9641
106 1 4 -0.60118 6.43145 6.83267 2.95001
110 3 5 -0.35 26.9647 12.2381 14.5411
111 3 6 0.7 27.4999 11.5486 13.777
112 3 5 -0.35 28.0352 10.8592 13.013
113 4 5 -0.35 25.7523 13.7767 4.15721
114 4 6 0.7 24.924 14.176 3.45003
115 4 5 -0.35 24.0957 14.5753 2.74284
119 6 5 -0.35 19.7527 6.96694 5.44147
120 6 6 0.7 19.4951 7.70647 4.58572
121 6 5 -0.35 19.2374 8.44599 3.72997
122 7 5 -0.35 16.1814 5.87611 5.84208
123 7 6 0.7 16.5245 6.98229 5.90745
124 7 5 -0.35 16.8676 8.08847 5.97283
ITEM: TIMESTEP
43000
ITEM: NUMBER OF ATOMS
109
ITEM: BOX BOUNDS xy xz yz pp pp pp
0.0000000000000000e+00 3.6531964750000000e+01 9.1329911900000003e+00
0.0000000000000000e+00 2.1091739680000000e+01 9.1329911900000003e+00
0.0000000000000000e+00 1.4914112149999999e+01 5.2729349200000000e+00
ITEM: ATOMS id mol type q x y z
1 1 1 1.10383 27.399 17.6496 10.5383
2 1 1 1.10383 9.13299 3.44217 4.3758
3 1 1 1.10383 27.399 15.8188 13.1274
4 1 1 1.10383 9.13299 5.27293 1.78671
5 1 1 1.10383 25.8135 14.9034 10.5383
6 1 1 1.10383 10.7185 6.18832 4.3758
7 1 1 1.10383 28.9845 14.9034 10.5383
8 1 1 1.10383 7.5475 6.18832 4.3758
9 1 2 0.115889 18.266 5.48596 12.6084
10 1 2 0.115889 18.266 15.6058 2.30572
11 1 2 0.115888 18.266 13.716 0.969417
12 1 2 0.115888 18.266 7.37578 13.9447
13 1 2 0.11589 25.3934 11.4908 8.12521
14 1 2 0.11589 11.1386 9.60096 6.7889
15 1 2 0.115888 11.1386 11.4908 8.12521
16 1 2 0.115888 25.3934 9.60096 6.7889
17 1 2 0.115889 15.5206 8.96083 0.969417
18 1 2 0.115889 21.0114 12.1309 13.9447
19 1 2 0.115888 22.648 13.0758 12.6084
20 1 2 0.115888 13.884 8.01592 2.30572
21 1 2 0.115889 21.0114 3.90092 8.12521
22 1 2 0.115889 15.5206 17.1908 6.7889
23 1 2 0.115887 13.884 16.2459 8.12521
24 1 2 0.115887 22.648 4.84583 6.7889
25 1 2 0.115889 22.648 16.2459 8.12521
26 1 2 0.115889 13.884 4.84583 6.7889
27 1 2 0.115887 15.5206 3.90092 8.12521
28 1 2 0.115887 21.0114 17.1908 6.7889
29 1 2 0.115889 21.0114 8.96083 0.969417
30 1 2 0.115889 15.5206 12.1309 13.9447
31 1 2 0.115887 13.884 13.0758 12.6084
32 1 2 0.115887 22.648 8.01592 2.30572
33 1 3 0.671939 27.399 18.7442 13.2542
34 1 3 0.671939 9.13299 2.34751 1.65994
35 1 3 0.671939 27.399 12.8934 9.117
36 1 3 0.671939 9.13299 8.19836 5.79712
37 1 3 0.67194 24.8655 14.3561 13.2542
38 1 3 0.67194 11.6665 6.73565 1.65994
39 1 3 0.67194 29.9325 17.2815 9.117
40 1 3 0.67194 6.5995 3.81022 5.79712
41 1 3 0.67194 24.8655 17.2815 9.117
42 1 3 0.67194 11.6665 3.81022 5.79712
43 1 3 0.67194 29.9325 14.3561 13.2542
44 1 3 0.67194 6.5995 6.73565 1.65994
45 1 3 -0.11508 27.399 19.957 14.1117
46 1 3 -0.11508 9.13299 1.13474 0.802379
47 1 3 -0.11508 27.399 11.6806 8.25944
48 1 3 -0.11508 9.13299 9.41113 6.65468
49 1 3 -0.11508 23.8152 13.7497 14.1117
50 1 3 -0.11508 12.7168 7.34203 0.802379
51 1 3 -0.11508 30.9828 17.8879 8.25944
52 1 3 -0.11508 5.54921 3.20384 6.65468
53 1 3 -0.11508 23.8152 17.8879 8.25944
54 1 3 -0.11508 12.7168 3.20384 6.65468
55 1 3 -0.11508 30.9828 13.7497 14.1117
56 1 3 -0.11508 5.54921 7.34203 0.802379
57 1 3 -0.0559 18.266 5.39949 13.5316
58 1 3 -0.0559 18.266 15.6923 1.38254
59 1 3 -0.055903 18.266 14.5575 0.580159
60 1 3 -0.055903 18.266 6.53422 14.334
61 1 3 -0.0559 26.1971 11.1132 7.85825
62 1 3 -0.0559 10.3349 9.9785 7.05587
63 1 3 -0.055903 10.3349 11.1132 7.85825
64 1 3 -0.055903 26.1971 9.9785 7.05587
65 1 3 -0.0559 14.7918 8.54005 0.580159
66 1 3 -0.0559 21.7402 12.5517 14.334
67 1 3 -0.055903 22.7229 13.1191 13.5316
68 1 3 -0.055903 13.8091 7.97268 1.38254
69 1 3 -0.0559 21.7402 3.39366 7.85825
70 1 3 -0.0559 14.7918 17.6981 7.05587
71 1 3 -0.055903 13.8091 17.1307 7.85825
72 1 3 -0.055903 22.7229 3.96103 7.05587
73 1 3 -0.055901 22.7229 17.1307 7.85825
74 1 3 -0.055901 13.8091 3.96103 7.05587
75 1 3 -0.055903 14.7918 3.39366 7.85825
76 1 3 -0.055903 21.7402 17.6981 7.05587
77 1 3 -0.0559 21.7402 8.54005 0.580159
78 1 3 -0.0559 14.7918 12.5517 14.334
79 1 3 -0.055903 13.8091 13.1191 13.5316
80 1 3 -0.055903 22.7229 7.97268 1.38254
81 1 4 -1.26215 27.399 15.8188 11.1856
82 1 4 -1.26215 9.13299 5.27293 3.72853
83 1 4 -0.60118 27.399 18.9383 11.9641
84 1 4 -0.60118 9.13299 2.15347 2.95001
85 1 4 -0.601179 27.399 17.5926 13.8671
86 1 4 -0.601179 9.13299 3.49912 1.04697
87 1 4 -0.601179 26.2336 13.3722 9.45555
88 1 4 -0.601179 10.2984 7.71958 5.45857
89 1 4 -0.60118 28.5643 13.3722 9.45555
90 1 4 -0.60118 7.96762 7.71958 5.45857
91 1 4 -0.60118 25.8628 14.9319 13.8671
92 1 4 -0.60118 10.6692 6.15984 1.04697
93 1 4 -0.601179 24.6974 14.2591 11.9641
94 1 4 -0.601179 11.8345 6.83267 2.95001
95 1 4 -0.60118 28.9351 18.0514 9.45555
96 1 4 -0.60118 7.59682 3.04037 5.45857
97 1 4 -0.601179 30.1005 16.0329 9.45555
98 1 4 -0.601179 6.43145 5.05885 5.45857
99 1 4 -0.601179 24.6974 16.0329 9.45555
100 1 4 -0.601179 11.8345 5.05885 5.45857
101 1 4 -0.60118 25.8628 18.0514 9.45555
102 1 4 -0.60118 10.6692 3.04037 5.45857
103 1 4 -0.60118 28.9351 14.9319 13.8671
104 1 4 -0.60118 7.59682 6.15984 1.04697
105 1 4 -0.60118 30.1005 14.2591 11.9641
106 1 4 -0.60118 6.43145 6.83267 2.95001
110 3 5 -0.35 12.5151 10.0724 13.3268
111 3 6 0.7 13.5863 9.76999 13.0004
112 3 5 -0.35 14.6576 9.4676 12.6739
ITEM: TIMESTEP
44000
ITEM: NUMBER OF ATOMS
124
ITEM: BOX BOUNDS xy xz yz pp pp pp
0.0000000000000000e+00 3.6531964750000000e+01 9.1329911900000003e+00
0.0000000000000000e+00 2.1091739680000000e+01 9.1329911900000003e+00
0.0000000000000000e+00 1.4914112149999999e+01 5.2729349200000000e+00
ITEM: ATOMS id mol type q x y z
1 1 1 1.10383 27.399 17.6496 10.5383
2 1 1 1.10383 9.13299 3.44217 4.3758
3 1 1 1.10383 27.399 15.8188 13.1274
4 1 1 1.10383 9.13299 5.27293 1.78671
5 1 1 1.10383 25.8135 14.9034 10.5383
6 1 1 1.10383 10.7185 6.18832 4.3758
7 1 1 1.10383 28.9845 14.9034 10.5383
8 1 1 1.10383 7.5475 6.18832 4.3758
9 1 2 0.115889 18.266 5.48596 12.6084
10 1 2 0.115889 18.266 15.6058 2.30572
11 1 2 0.115888 18.266 13.716 0.969417
12 1 2 0.115888 18.266 7.37578 13.9447
13 1 2 0.11589 25.3934 11.4908 8.12521
14 1 2 0.11589 11.1386 9.60096 6.7889
15 1 2 0.115888 11.1386 11.4908 8.12521
16 1 2 0.115888 25.3934 9.60096 6.7889
17 1 2 0.115889 15.5206 8.96083 0.969417
18 1 2 0.115889 21.0114 12.1309 13.9447
19 1 2 0.115888 22.648 13.0758 12.6084
20 1 2 0.115888 13.884 8.01592 2.30572
21 1 2 0.115889 21.0114 3.90092 8.12521
22 1 2 0.115889 15.5206 17.1908 6.7889
23 1 2 0.115887 13.884 16.2459 8.12521
24 1 2 0.115887 22.648 4.84583 6.7889
25 1 2 0.115889 22.648 16.2459 8.12521
26 1 2 0.115889 13.884 4.84583 6.7889
27 1 2 0.115887 15.5206 3.90092 8.12521
28 1 2 0.115887 21.0114 17.1908 6.7889
29 1 2 0.115889 21.0114 8.96083 0.969417
30 1 2 0.115889 15.5206 12.1309 13.9447
31 1 2 0.115887 13.884 13.0758 12.6084
32 1 2 0.115887 22.648 8.01592 2.30572
33 1 3 0.671939 27.399 18.7442 13.2542
34 1 3 0.671939 9.13299 2.34751 1.65994
35 1 3 0.671939 27.399 12.8934 9.117
36 1 3 0.671939 9.13299 8.19836 5.79712
37 1 3 0.67194 24.8655 14.3561 13.2542
38 1 3 0.67194 11.6665 6.73565 1.65994
39 1 3 0.67194 29.9325 17.2815 9.117
40 1 3 0.67194 6.5995 3.81022 5.79712
41 1 3 0.67194 24.8655 17.2815 9.117
42 1 3 0.67194 11.6665 3.81022 5.79712
43 1 3 0.67194 29.9325 14.3561 13.2542
44 1 3 0.67194 6.5995 6.73565 1.65994
45 1 3 -0.11508 27.399 19.957 14.1117
46 1 3 -0.11508 9.13299 1.13474 0.802379
47 1 3 -0.11508 27.399 11.6806 8.25944
48 1 3 -0.11508 9.13299 9.41113 6.65468
49 1 3 -0.11508 23.8152 13.7497 14.1117
50 1 3 -0.11508 12.7168 7.34203 0.802379
51 1 3 -0.11508 30.9828 17.8879 8.25944
52 1 3 -0.11508 5.54921 3.20384 6.65468
53 1 3 -0.11508 23.8152 17.8879 8.25944
54 1 3 -0.11508 12.7168 3.20384 6.65468
55 1 3 -0.11508 30.9828 13.7497 14.1117
56 1 3 -0.11508 5.54921 7.34203 0.802379
57 1 3 -0.0559 18.266 5.39949 13.5316
58 1 3 -0.0559 18.266 15.6923 1.38254
59 1 3 -0.055903 18.266 14.5575 0.580159
60 1 3 -0.055903 18.266 6.53422 14.334
61 1 3 -0.0559 26.1971 11.1132 7.85825
62 1 3 -0.0559 10.3349 9.9785 7.05587
63 1 3 -0.055903 10.3349 11.1132 7.85825
64 1 3 -0.055903 26.1971 9.9785 7.05587
65 1 3 -0.0559 14.7918 8.54005 0.580159
66 1 3 -0.0559 21.7402 12.5517 14.334
67 1 3 -0.055903 22.7229 13.1191 13.5316
68 1 3 -0.055903 13.8091 7.97268 1.38254
69 1 3 -0.0559 21.7402 3.39366 7.85825
70 1 3 -0.0559 14.7918 17.6981 7.05587
71 1 3 -0.055903 13.8091 17.1307 7.85825
72 1 3 -0.055903 22.7229 3.96103 7.05587
73 1 3 -0.055901 22.7229 17.1307 7.85825
74 1 3 -0.055901 13.8091 3.96103 7.05587
75 1 3 -0.055903 14.7918 3.39366 7.85825
76 1 3 -0.055903 21.7402 17.6981 7.05587
77 1 3 -0.0559 21.7402 8.54005 0.580159
78 1 3 -0.0559 14.7918 12.5517 14.334
79 1 3 -0.055903 13.8091 13.1191 13.5316
80 1 3 -0.055903 22.7229 7.97268 1.38254
81 1 4 -1.26215 27.399 15.8188 11.1856
82 1 4 -1.26215 9.13299 5.27293 3.72853
83 1 4 -0.60118 27.399 18.9383 11.9641
84 1 4 -0.60118 9.13299 2.15347 2.95001
85 1 4 -0.601179 27.399 17.5926 13.8671
86 1 4 -0.601179 9.13299 3.49912 1.04697
87 1 4 -0.601179 26.2336 13.3722 9.45555
88 1 4 -0.601179 10.2984 7.71958 5.45857
89 1 4 -0.60118 28.5643 13.3722 9.45555
90 1 4 -0.60118 7.96762 7.71958 5.45857
91 1 4 -0.60118 25.8628 14.9319 13.8671
92 1 4 -0.60118 10.6692 6.15984 1.04697
93 1 4 -0.601179 24.6974 14.2591 11.9641
94 1 4 -0.601179 11.8345 6.83267 2.95001
95 1 4 -0.60118 28.9351 18.0514 9.45555
96 1 4 -0.60118 7.59682 3.04037 5.45857
97 1 4 -0.601179 30.1005 16.0329 9.45555
98 1 4 -0.601179 6.43145 5.05885 5.45857
99 1 4 -0.601179 24.6974 16.0329 9.45555
100 1 4 -0.601179 11.8345 5.05885 5.45857
101 1 4 -0.60118 25.8628 18.0514 9.45555
102 1 4 -0.60118 10.6692 3.04037 5.45857
103 1 4 -0.60118 28.9351 14.9319 13.8671
104 1 4 -0.60118 7.59682 6.15984 1.04697
105 1 4 -0.60118 30.1005 14.2591 11.9641
106 1 4 -0.60118 6.43145 6.83267 2.95001
122 7 5 -0.35 17.5698 7.19024 1.632
123 7 6 0.7 17.566 6.88846 0.511952
124 7 5 -0.35 26.6951 11.8596 14.306
125 8 5 -0.35 12.6194 10.0729 4.36821
126 8 6 0.7 11.7564 10.2444 3.61225
127 8 5 -0.35 10.8935 10.416 2.85628
128 9 5 -0.35 15.2312 4.62364 4.00587
129 9 6 0.7 14.8866 4.68783 2.90011
130 9 5 -0.35 14.542 4.75202 1.79435
143 14 5 -0.35 17.6955 8.74625 4.40493
144 14 6 0.7 18.5061 9.12297 3.66556
145 14 5 -0.35 19.3167 9.49969 2.9262
149 16 5 -0.35 15.1457 11.1121 6.90501
150 16 6 0.7 15.2723 11.0933 5.7521
151 16 5 -0.35 15.399 11.0745 4.59919
152 17 5 -0.35 18.5675 4.24319 4.12973
153 17 6 0.7 18.3767 5.11197 4.87431
154 17 5 -0.35 18.1859 5.98075 5.6189
ITEM: TIMESTEP
45000
ITEM: NUMBER OF ATOMS
109
ITEM: BOX BOUNDS xy xz yz pp pp pp
0.0000000000000000e+00 3.6531964750000000e+01 9.1329911900000003e+00
0.0000000000000000e+00 2.1091739680000000e+01 9.1329911900000003e+00
0.0000000000000000e+00 1.4914112149999999e+01 5.2729349200000000e+00
ITEM: ATOMS id mol type q x y z
1 1 1 1.10383 27.399 17.6496 10.5383
2 1 1 1.10383 9.13299 3.44217 4.3758
3 1 1 1.10383 27.399 15.8188 13.1274
4 1 1 1.10383 9.13299 5.27293 1.78671
5 1 1 1.10383 25.8135 14.9034 10.5383
6 1 1 1.10383 10.7185 6.18832 4.3758
7 1 1 1.10383 28.9845 14.9034 10.5383
8 1 1 1.10383 7.5475 6.18832 4.3758
9 1 2 0.115889 18.266 5.48596 12.6084
10 1 2 0.115889 18.266 15.6058 2.30572
11 1 2 0.115888 18.266 13.716 0.969417
12 1 2 0.115888 18.266 7.37578 13.9447
13 1 2 0.11589 25.3934 11.4908 8.12521
14 1 2 0.11589 11.1386 9.60096 6.7889
15 1 2 0.115888 11.1386 11.4908 8.12521
16 1 2 0.115888 25.3934 9.60096 6.7889
17 1 2 0.115889 15.5206 8.96083 0.969417
18 1 2 0.115889 21.0114 12.1309 13.9447
19 1 2 0.115888 22.648 13.0758 12.6084
20 1 2 0.115888 13.884 8.01592 2.30572
21 1 2 0.115889 21.0114 3.90092 8.12521
22 1 2 0.115889 15.5206 17.1908 6.7889
23 1 2 0.115887 13.884 16.2459 8.12521
24 1 2 0.115887 22.648 4.84583 6.7889
25 1 2 0.115889 22.648 16.2459 8.12521
26 1 2 0.115889 13.884 4.84583 6.7889
27 1 2 0.115887 15.5206 3.90092 8.12521
28 1 2 0.115887 21.0114 17.1908 6.7889
29 1 2 0.115889 21.0114 8.96083 0.969417
30 1 2 0.115889 15.5206 12.1309 13.9447
31 1 2 0.115887 13.884 13.0758 12.6084
32 1 2 0.115887 22.648 8.01592 2.30572
33 1 3 0.671939 27.399 18.7442 13.2542
34 1 3 0.671939 9.13299 2.34751 1.65994
35 1 3 0.671939 27.399 12.8934 9.117
36 1 3 0.671939 9.13299 8.19836 5.79712
37 1 3 0.67194 24.8655 14.3561 13.2542
38 1 3 0.67194 11.6665 6.73565 1.65994
39 1 3 0.67194 29.9325 17.2815 9.117
40 1 3 0.67194 6.5995 3.81022 5.79712
41 1 3 0.67194 24.8655 17.2815 9.117
42 1 3 0.67194 11.6665 3.81022 5.79712
43 1 3 0.67194 29.9325 14.3561 13.2542
44 1 3 0.67194 6.5995 6.73565 1.65994
45 1 3 -0.11508 27.399 19.957 14.1117
46 1 3 -0.11508 9.13299 1.13474 0.802379
47 1 3 -0.11508 27.399 11.6806 8.25944
48 1 3 -0.11508 9.13299 9.41113 6.65468
49 1 3 -0.11508 23.8152 13.7497 14.1117
50 1 3 -0.11508 12.7168 7.34203 0.802379
51 1 3 -0.11508 30.9828 17.8879 8.25944
52 1 3 -0.11508 5.54921 3.20384 6.65468
53 1 3 -0.11508 23.8152 17.8879 8.25944
54 1 3 -0.11508 12.7168 3.20384 6.65468
55 1 3 -0.11508 30.9828 13.7497 14.1117
56 1 3 -0.11508 5.54921 7.34203 0.802379
57 1 3 -0.0559 18.266 5.39949 13.5316
58 1 3 -0.0559 18.266 15.6923 1.38254
59 1 3 -0.055903 18.266 14.5575 0.580159
60 1 3 -0.055903 18.266 6.53422 14.334
61 1 3 -0.0559 26.1971 11.1132 7.85825
62 1 3 -0.0559 10.3349 9.9785 7.05587
63 1 3 -0.055903 10.3349 11.1132 7.85825
64 1 3 -0.055903 26.1971 9.9785 7.05587
65 1 3 -0.0559 14.7918 8.54005 0.580159
66 1 3 -0.0559 21.7402 12.5517 14.334
67 1 3 -0.055903 22.7229 13.1191 13.5316
68 1 3 -0.055903 13.8091 7.97268 1.38254
69 1 3 -0.0559 21.7402 3.39366 7.85825
70 1 3 -0.0559 14.7918 17.6981 7.05587
71 1 3 -0.055903 13.8091 17.1307 7.85825
72 1 3 -0.055903 22.7229 3.96103 7.05587
73 1 3 -0.055901 22.7229 17.1307 7.85825
74 1 3 -0.055901 13.8091 3.96103 7.05587
75 1 3 -0.055903 14.7918 3.39366 7.85825
76 1 3 -0.055903 21.7402 17.6981 7.05587
77 1 3 -0.0559 21.7402 8.54005 0.580159
78 1 3 -0.0559 14.7918 12.5517 14.334
79 1 3 -0.055903 13.8091 13.1191 13.5316
80 1 3 -0.055903 22.7229 7.97268 1.38254
81 1 4 -1.26215 27.399 15.8188 11.1856
82 1 4 -1.26215 9.13299 5.27293 3.72853
83 1 4 -0.60118 27.399 18.9383 11.9641
84 1 4 -0.60118 9.13299 2.15347 2.95001
85 1 4 -0.601179 27.399 17.5926 13.8671
86 1 4 -0.601179 9.13299 3.49912 1.04697
87 1 4 -0.601179 26.2336 13.3722 9.45555
88 1 4 -0.601179 10.2984 7.71958 5.45857
89 1 4 -0.60118 28.5643 13.3722 9.45555
90 1 4 -0.60118 7.96762 7.71958 5.45857
91 1 4 -0.60118 25.8628 14.9319 13.8671
92 1 4 -0.60118 10.6692 6.15984 1.04697
93 1 4 -0.601179 24.6974 14.2591 11.9641
94 1 4 -0.601179 11.8345 6.83267 2.95001
95 1 4 -0.60118 28.9351 18.0514 9.45555
96 1 4 -0.60118 7.59682 3.04037 5.45857
97 1 4 -0.601179 30.1005 16.0329 9.45555
98 1 4 -0.601179 6.43145 5.05885 5.45857
99 1 4 -0.601179 24.6974 16.0329 9.45555
100 1 4 -0.601179 11.8345 5.05885 5.45857
101 1 4 -0.60118 25.8628 18.0514 9.45555
102 1 4 -0.60118 10.6692 3.04037 5.45857
103 1 4 -0.60118 28.9351 14.9319 13.8671
104 1 4 -0.60118 7.59682 6.15984 1.04697
105 1 4 -0.60118 30.1005 14.2591 11.9641
106 1 4 -0.60118 6.43145 6.83267 2.95001
107 2 5 -0.35 13.3683 12.8047 0.768214
108 2 6 0.7 23.2784 17.9135 14.8369
109 2 5 -0.35 24.0555 17.7494 13.9915
ITEM: TIMESTEP
46000
ITEM: NUMBER OF ATOMS
115
ITEM: BOX BOUNDS xy xz yz pp pp pp
0.0000000000000000e+00 3.6531964750000000e+01 9.1329911900000003e+00
0.0000000000000000e+00 2.1091739680000000e+01 9.1329911900000003e+00
0.0000000000000000e+00 1.4914112149999999e+01 5.2729349200000000e+00
ITEM: ATOMS id mol type q x y z
1 1 1 1.10383 27.399 17.6496 10.5383
2 1 1 1.10383 9.13299 3.44217 4.3758
3 1 1 1.10383 27.399 15.8188 13.1274
4 1 1 1.10383 9.13299 5.27293 1.78671
5 1 1 1.10383 25.8135 14.9034 10.5383
6 1 1 1.10383 10.7185 6.18832 4.3758
7 1 1 1.10383 28.9845 14.9034 10.5383
8 1 1 1.10383 7.5475 6.18832 4.3758
9 1 2 0.115889 18.266 5.48596 12.6084
10 1 2 0.115889 18.266 15.6058 2.30572
11 1 2 0.115888 18.266 13.716 0.969417
12 1 2 0.115888 18.266 7.37578 13.9447
13 1 2 0.11589 25.3934 11.4908 8.12521
14 1 2 0.11589 11.1386 9.60096 6.7889
15 1 2 0.115888 11.1386 11.4908 8.12521
16 1 2 0.115888 25.3934 9.60096 6.7889
17 1 2 0.115889 15.5206 8.96083 0.969417
18 1 2 0.115889 21.0114 12.1309 13.9447
19 1 2 0.115888 22.648 13.0758 12.6084
20 1 2 0.115888 13.884 8.01592 2.30572
21 1 2 0.115889 21.0114 3.90092 8.12521
22 1 2 0.115889 15.5206 17.1908 6.7889
23 1 2 0.115887 13.884 16.2459 8.12521
24 1 2 0.115887 22.648 4.84583 6.7889
25 1 2 0.115889 22.648 16.2459 8.12521
26 1 2 0.115889 13.884 4.84583 6.7889
27 1 2 0.115887 15.5206 3.90092 8.12521
28 1 2 0.115887 21.0114 17.1908 6.7889
29 1 2 0.115889 21.0114 8.96083 0.969417
30 1 2 0.115889 15.5206 12.1309 13.9447
31 1 2 0.115887 13.884 13.0758 12.6084
32 1 2 0.115887 22.648 8.01592 2.30572
33 1 3 0.671939 27.399 18.7442 13.2542
34 1 3 0.671939 9.13299 2.34751 1.65994
35 1 3 0.671939 27.399 12.8934 9.117
36 1 3 0.671939 9.13299 8.19836 5.79712
37 1 3 0.67194 24.8655 14.3561 13.2542
38 1 3 0.67194 11.6665 6.73565 1.65994
39 1 3 0.67194 29.9325 17.2815 9.117
40 1 3 0.67194 6.5995 3.81022 5.79712
41 1 3 0.67194 24.8655 17.2815 9.117
42 1 3 0.67194 11.6665 3.81022 5.79712
43 1 3 0.67194 29.9325 14.3561 13.2542
44 1 3 0.67194 6.5995 6.73565 1.65994
45 1 3 -0.11508 27.399 19.957 14.1117
46 1 3 -0.11508 9.13299 1.13474 0.802379
47 1 3 -0.11508 27.399 11.6806 8.25944
48 1 3 -0.11508 9.13299 9.41113 6.65468
49 1 3 -0.11508 23.8152 13.7497 14.1117
50 1 3 -0.11508 12.7168 7.34203 0.802379
51 1 3 -0.11508 30.9828 17.8879 8.25944
52 1 3 -0.11508 5.54921 3.20384 6.65468
53 1 3 -0.11508 23.8152 17.8879 8.25944
54 1 3 -0.11508 12.7168 3.20384 6.65468
55 1 3 -0.11508 30.9828 13.7497 14.1117
56 1 3 -0.11508 5.54921 7.34203 0.802379
57 1 3 -0.0559 18.266 5.39949 13.5316
58 1 3 -0.0559 18.266 15.6923 1.38254
59 1 3 -0.055903 18.266 14.5575 0.580159
60 1 3 -0.055903 18.266 6.53422 14.334
61 1 3 -0.0559 26.1971 11.1132 7.85825
62 1 3 -0.0559 10.3349 9.9785 7.05587
63 1 3 -0.055903 10.3349 11.1132 7.85825
64 1 3 -0.055903 26.1971 9.9785 7.05587
65 1 3 -0.0559 14.7918 8.54005 0.580159
66 1 3 -0.0559 21.7402 12.5517 14.334
67 1 3 -0.055903 22.7229 13.1191 13.5316
68 1 3 -0.055903 13.8091 7.97268 1.38254
69 1 3 -0.0559 21.7402 3.39366 7.85825
70 1 3 -0.0559 14.7918 17.6981 7.05587
71 1 3 -0.055903 13.8091 17.1307 7.85825
72 1 3 -0.055903 22.7229 3.96103 7.05587
73 1 3 -0.055901 22.7229 17.1307 7.85825
74 1 3 -0.055901 13.8091 3.96103 7.05587
75 1 3 -0.055903 14.7918 3.39366 7.85825
76 1 3 -0.055903 21.7402 17.6981 7.05587
77 1 3 -0.0559 21.7402 8.54005 0.580159
78 1 3 -0.0559 14.7918 12.5517 14.334
79 1 3 -0.055903 13.8091 13.1191 13.5316
80 1 3 -0.055903 22.7229 7.97268 1.38254
81 1 4 -1.26215 27.399 15.8188 11.1856
82 1 4 -1.26215 9.13299 5.27293 3.72853
83 1 4 -0.60118 27.399 18.9383 11.9641
84 1 4 -0.60118 9.13299 2.15347 2.95001
85 1 4 -0.601179 27.399 17.5926 13.8671
86 1 4 -0.601179 9.13299 3.49912 1.04697
87 1 4 -0.601179 26.2336 13.3722 9.45555
88 1 4 -0.601179 10.2984 7.71958 5.45857
89 1 4 -0.60118 28.5643 13.3722 9.45555
90 1 4 -0.60118 7.96762 7.71958 5.45857
91 1 4 -0.60118 25.8628 14.9319 13.8671
92 1 4 -0.60118 10.6692 6.15984 1.04697
93 1 4 -0.601179 24.6974 14.2591 11.9641
94 1 4 -0.601179 11.8345 6.83267 2.95001
95 1 4 -0.60118 28.9351 18.0514 9.45555
96 1 4 -0.60118 7.59682 3.04037 5.45857
97 1 4 -0.601179 30.1005 16.0329 9.45555
98 1 4 -0.601179 6.43145 5.05885 5.45857
99 1 4 -0.601179 24.6974 16.0329 9.45555
100 1 4 -0.601179 11.8345 5.05885 5.45857
101 1 4 -0.60118 25.8628 18.0514 9.45555
102 1 4 -0.60118 10.6692 3.04037 5.45857
103 1 4 -0.60118 28.9351 14.9319 13.8671
104 1 4 -0.60118 7.59682 6.15984 1.04697
105 1 4 -0.60118 30.1005 14.2591 11.9641
106 1 4 -0.60118 6.43145 6.83267 2.95001
107 2 5 -0.35 26.0377 14.4424 6.15228
108 2 6 0.7 26.9157 15.0962 6.53605
109 2 5 -0.35 27.7937 15.75 6.91981
110 3 5 -0.35 13.0326 11.2429 9.90025
111 3 6 0.7 13.2986 12.0536 9.11438
112 3 5 -0.35 13.5645 12.8643 8.32851
113 4 5 -0.35 23.0398 13.3807 0.624099
114 4 6 0.7 31.5562 18.994 14.6165
115 4 5 -0.35 30.9396 19.3343 13.6948
ITEM: TIMESTEP
47000
ITEM: NUMBER OF ATOMS
112
ITEM: BOX BOUNDS xy xz yz pp pp pp
0.0000000000000000e+00 3.6531964750000000e+01 9.1329911900000003e+00
0.0000000000000000e+00 2.1091739680000000e+01 9.1329911900000003e+00
0.0000000000000000e+00 1.4914112149999999e+01 5.2729349200000000e+00
ITEM: ATOMS id mol type q x y z
1 1 1 1.10383 27.399 17.6496 10.5383
2 1 1 1.10383 9.13299 3.44217 4.3758
3 1 1 1.10383 27.399 15.8188 13.1274
4 1 1 1.10383 9.13299 5.27293 1.78671
5 1 1 1.10383 25.8135 14.9034 10.5383
6 1 1 1.10383 10.7185 6.18832 4.3758
7 1 1 1.10383 28.9845 14.9034 10.5383
8 1 1 1.10383 7.5475 6.18832 4.3758
9 1 2 0.115889 18.266 5.48596 12.6084
10 1 2 0.115889 18.266 15.6058 2.30572
11 1 2 0.115888 18.266 13.716 0.969417
12 1 2 0.115888 18.266 7.37578 13.9447
13 1 2 0.11589 25.3934 11.4908 8.12521
14 1 2 0.11589 11.1386 9.60096 6.7889
15 1 2 0.115888 11.1386 11.4908 8.12521
16 1 2 0.115888 25.3934 9.60096 6.7889
17 1 2 0.115889 15.5206 8.96083 0.969417
18 1 2 0.115889 21.0114 12.1309 13.9447
19 1 2 0.115888 22.648 13.0758 12.6084
20 1 2 0.115888 13.884 8.01592 2.30572
21 1 2 0.115889 21.0114 3.90092 8.12521
22 1 2 0.115889 15.5206 17.1908 6.7889
23 1 2 0.115887 13.884 16.2459 8.12521
24 1 2 0.115887 22.648 4.84583 6.7889
25 1 2 0.115889 22.648 16.2459 8.12521
26 1 2 0.115889 13.884 4.84583 6.7889
27 1 2 0.115887 15.5206 3.90092 8.12521
28 1 2 0.115887 21.0114 17.1908 6.7889
29 1 2 0.115889 21.0114 8.96083 0.969417
30 1 2 0.115889 15.5206 12.1309 13.9447
31 1 2 0.115887 13.884 13.0758 12.6084
32 1 2 0.115887 22.648 8.01592 2.30572
33 1 3 0.671939 27.399 18.7442 13.2542
34 1 3 0.671939 9.13299 2.34751 1.65994
35 1 3 0.671939 27.399 12.8934 9.117
36 1 3 0.671939 9.13299 8.19836 5.79712
37 1 3 0.67194 24.8655 14.3561 13.2542
38 1 3 0.67194 11.6665 6.73565 1.65994
39 1 3 0.67194 29.9325 17.2815 9.117
40 1 3 0.67194 6.5995 3.81022 5.79712
41 1 3 0.67194 24.8655 17.2815 9.117
42 1 3 0.67194 11.6665 3.81022 5.79712
43 1 3 0.67194 29.9325 14.3561 13.2542
44 1 3 0.67194 6.5995 6.73565 1.65994
45 1 3 -0.11508 27.399 19.957 14.1117
46 1 3 -0.11508 9.13299 1.13474 0.802379
47 1 3 -0.11508 27.399 11.6806 8.25944
48 1 3 -0.11508 9.13299 9.41113 6.65468
49 1 3 -0.11508 23.8152 13.7497 14.1117
50 1 3 -0.11508 12.7168 7.34203 0.802379
51 1 3 -0.11508 30.9828 17.8879 8.25944
52 1 3 -0.11508 5.54921 3.20384 6.65468
53 1 3 -0.11508 23.8152 17.8879 8.25944
54 1 3 -0.11508 12.7168 3.20384 6.65468
55 1 3 -0.11508 30.9828 13.7497 14.1117
56 1 3 -0.11508 5.54921 7.34203 0.802379
57 1 3 -0.0559 18.266 5.39949 13.5316
58 1 3 -0.0559 18.266 15.6923 1.38254
59 1 3 -0.055903 18.266 14.5575 0.580159
60 1 3 -0.055903 18.266 6.53422 14.334
61 1 3 -0.0559 26.1971 11.1132 7.85825
62 1 3 -0.0559 10.3349 9.9785 7.05587
63 1 3 -0.055903 10.3349 11.1132 7.85825
64 1 3 -0.055903 26.1971 9.9785 7.05587
65 1 3 -0.0559 14.7918 8.54005 0.580159
66 1 3 -0.0559 21.7402 12.5517 14.334
67 1 3 -0.055903 22.7229 13.1191 13.5316
68 1 3 -0.055903 13.8091 7.97268 1.38254
69 1 3 -0.0559 21.7402 3.39366 7.85825
70 1 3 -0.0559 14.7918 17.6981 7.05587
71 1 3 -0.055903 13.8091 17.1307 7.85825
72 1 3 -0.055903 22.7229 3.96103 7.05587
73 1 3 -0.055901 22.7229 17.1307 7.85825
74 1 3 -0.055901 13.8091 3.96103 7.05587
75 1 3 -0.055903 14.7918 3.39366 7.85825
76 1 3 -0.055903 21.7402 17.6981 7.05587
77 1 3 -0.0559 21.7402 8.54005 0.580159
78 1 3 -0.0559 14.7918 12.5517 14.334
79 1 3 -0.055903 13.8091 13.1191 13.5316
80 1 3 -0.055903 22.7229 7.97268 1.38254
81 1 4 -1.26215 27.399 15.8188 11.1856
82 1 4 -1.26215 9.13299 5.27293 3.72853
83 1 4 -0.60118 27.399 18.9383 11.9641
84 1 4 -0.60118 9.13299 2.15347 2.95001
85 1 4 -0.601179 27.399 17.5926 13.8671
86 1 4 -0.601179 9.13299 3.49912 1.04697
87 1 4 -0.601179 26.2336 13.3722 9.45555
88 1 4 -0.601179 10.2984 7.71958 5.45857
89 1 4 -0.60118 28.5643 13.3722 9.45555
90 1 4 -0.60118 7.96762 7.71958 5.45857
91 1 4 -0.60118 25.8628 14.9319 13.8671
92 1 4 -0.60118 10.6692 6.15984 1.04697
93 1 4 -0.601179 24.6974 14.2591 11.9641
94 1 4 -0.601179 11.8345 6.83267 2.95001
95 1 4 -0.60118 28.9351 18.0514 9.45555
96 1 4 -0.60118 7.59682 3.04037 5.45857
97 1 4 -0.601179 30.1005 16.0329 9.45555
98 1 4 -0.601179 6.43145 5.05885 5.45857
99 1 4 -0.601179 24.6974 16.0329 9.45555
100 1 4 -0.601179 11.8345 5.05885 5.45857
101 1 4 -0.60118 25.8628 18.0514 9.45555
102 1 4 -0.60118 10.6692 3.04037 5.45857
103 1 4 -0.60118 28.9351 14.9319 13.8671
104 1 4 -0.60118 7.59682 6.15984 1.04697
105 1 4 -0.60118 30.1005 14.2591 11.9641
106 1 4 -0.60118 6.43145 6.83267 2.95001
119 6 5 -0.35 27.2545 15.2427 6.78739
120 6 6 0.7 26.4717 14.5144 6.3376
121 6 5 -0.35 25.6888 13.7861 5.88782
122 7 5 -0.35 31.2441 18.263 13.6794
123 7 6 0.7 31.2435 18.2637 12.5194
124 7 5 -0.35 31.243 18.2645 11.3594
ITEM: TIMESTEP
48000
ITEM: NUMBER OF ATOMS
109
ITEM: BOX BOUNDS xy xz yz pp pp pp
0.0000000000000000e+00 3.6531964750000000e+01 9.1329911900000003e+00
0.0000000000000000e+00 2.1091739680000000e+01 9.1329911900000003e+00
0.0000000000000000e+00 1.4914112149999999e+01 5.2729349200000000e+00
ITEM: ATOMS id mol type q x y z
1 1 1 1.10383 27.399 17.6496 10.5383
2 1 1 1.10383 9.13299 3.44217 4.3758
3 1 1 1.10383 27.399 15.8188 13.1274
4 1 1 1.10383 9.13299 5.27293 1.78671
5 1 1 1.10383 25.8135 14.9034 10.5383
6 1 1 1.10383 10.7185 6.18832 4.3758
7 1 1 1.10383 28.9845 14.9034 10.5383
8 1 1 1.10383 7.5475 6.18832 4.3758
9 1 2 0.115889 18.266 5.48596 12.6084
10 1 2 0.115889 18.266 15.6058 2.30572
11 1 2 0.115888 18.266 13.716 0.969417
12 1 2 0.115888 18.266 7.37578 13.9447
13 1 2 0.11589 25.3934 11.4908 8.12521
14 1 2 0.11589 11.1386 9.60096 6.7889
15 1 2 0.115888 11.1386 11.4908 8.12521
16 1 2 0.115888 25.3934 9.60096 6.7889
17 1 2 0.115889 15.5206 8.96083 0.969417
18 1 2 0.115889 21.0114 12.1309 13.9447
19 1 2 0.115888 22.648 13.0758 12.6084
20 1 2 0.115888 13.884 8.01592 2.30572
21 1 2 0.115889 21.0114 3.90092 8.12521
22 1 2 0.115889 15.5206 17.1908 6.7889
23 1 2 0.115887 13.884 16.2459 8.12521
24 1 2 0.115887 22.648 4.84583 6.7889
25 1 2 0.115889 22.648 16.2459 8.12521
26 1 2 0.115889 13.884 4.84583 6.7889
27 1 2 0.115887 15.5206 3.90092 8.12521
28 1 2 0.115887 21.0114 17.1908 6.7889
29 1 2 0.115889 21.0114 8.96083 0.969417
30 1 2 0.115889 15.5206 12.1309 13.9447
31 1 2 0.115887 13.884 13.0758 12.6084
32 1 2 0.115887 22.648 8.01592 2.30572
33 1 3 0.671939 27.399 18.7442 13.2542
34 1 3 0.671939 9.13299 2.34751 1.65994
35 1 3 0.671939 27.399 12.8934 9.117
36 1 3 0.671939 9.13299 8.19836 5.79712
37 1 3 0.67194 24.8655 14.3561 13.2542
38 1 3 0.67194 11.6665 6.73565 1.65994
39 1 3 0.67194 29.9325 17.2815 9.117
40 1 3 0.67194 6.5995 3.81022 5.79712
41 1 3 0.67194 24.8655 17.2815 9.117
42 1 3 0.67194 11.6665 3.81022 5.79712
43 1 3 0.67194 29.9325 14.3561 13.2542
44 1 3 0.67194 6.5995 6.73565 1.65994
45 1 3 -0.11508 27.399 19.957 14.1117
46 1 3 -0.11508 9.13299 1.13474 0.802379
47 1 3 -0.11508 27.399 11.6806 8.25944
48 1 3 -0.11508 9.13299 9.41113 6.65468
49 1 3 -0.11508 23.8152 13.7497 14.1117
50 1 3 -0.11508 12.7168 7.34203 0.802379
51 1 3 -0.11508 30.9828 17.8879 8.25944
52 1 3 -0.11508 5.54921 3.20384 6.65468
53 1 3 -0.11508 23.8152 17.8879 8.25944
54 1 3 -0.11508 12.7168 3.20384 6.65468
55 1 3 -0.11508 30.9828 13.7497 14.1117
56 1 3 -0.11508 5.54921 7.34203 0.802379
57 1 3 -0.0559 18.266 5.39949 13.5316
58 1 3 -0.0559 18.266 15.6923 1.38254
59 1 3 -0.055903 18.266 14.5575 0.580159
60 1 3 -0.055903 18.266 6.53422 14.334
61 1 3 -0.0559 26.1971 11.1132 7.85825
62 1 3 -0.0559 10.3349 9.9785 7.05587
63 1 3 -0.055903 10.3349 11.1132 7.85825
64 1 3 -0.055903 26.1971 9.9785 7.05587
65 1 3 -0.0559 14.7918 8.54005 0.580159
66 1 3 -0.0559 21.7402 12.5517 14.334
67 1 3 -0.055903 22.7229 13.1191 13.5316
68 1 3 -0.055903 13.8091 7.97268 1.38254
69 1 3 -0.0559 21.7402 3.39366 7.85825
70 1 3 -0.0559 14.7918 17.6981 7.05587
71 1 3 -0.055903 13.8091 17.1307 7.85825
72 1 3 -0.055903 22.7229 3.96103 7.05587
73 1 3 -0.055901 22.7229 17.1307 7.85825
74 1 3 -0.055901 13.8091 3.96103 7.05587
75 1 3 -0.055903 14.7918 3.39366 7.85825
76 1 3 -0.055903 21.7402 17.6981 7.05587
77 1 3 -0.0559 21.7402 8.54005 0.580159
78 1 3 -0.0559 14.7918 12.5517 14.334
79 1 3 -0.055903 13.8091 13.1191 13.5316
80 1 3 -0.055903 22.7229 7.97268 1.38254
81 1 4 -1.26215 27.399 15.8188 11.1856
82 1 4 -1.26215 9.13299 5.27293 3.72853
83 1 4 -0.60118 27.399 18.9383 11.9641
84 1 4 -0.60118 9.13299 2.15347 2.95001
85 1 4 -0.601179 27.399 17.5926 13.8671
86 1 4 -0.601179 9.13299 3.49912 1.04697
87 1 4 -0.601179 26.2336 13.3722 9.45555
88 1 4 -0.601179 10.2984 7.71958 5.45857
89 1 4 -0.60118 28.5643 13.3722 9.45555
90 1 4 -0.60118 7.96762 7.71958 5.45857
91 1 4 -0.60118 25.8628 14.9319 13.8671
92 1 4 -0.60118 10.6692 6.15984 1.04697
93 1 4 -0.601179 24.6974 14.2591 11.9641
94 1 4 -0.601179 11.8345 6.83267 2.95001
95 1 4 -0.60118 28.9351 18.0514 9.45555
96 1 4 -0.60118 7.59682 3.04037 5.45857
97 1 4 -0.601179 30.1005 16.0329 9.45555
98 1 4 -0.601179 6.43145 5.05885 5.45857
99 1 4 -0.601179 24.6974 16.0329 9.45555
100 1 4 -0.601179 11.8345 5.05885 5.45857
101 1 4 -0.60118 25.8628 18.0514 9.45555
102 1 4 -0.60118 10.6692 3.04037 5.45857
103 1 4 -0.60118 28.9351 14.9319 13.8671
104 1 4 -0.60118 7.59682 6.15984 1.04697
105 1 4 -0.60118 30.1005 14.2591 11.9641
106 1 4 -0.60118 6.43145 6.83267 2.95001
107 2 5 -0.35 15.1041 5.63784 13.6427
108 2 6 0.7 15.118 5.59219 12.4836
109 2 5 -0.35 15.132 5.54654 11.3246
ITEM: TIMESTEP
49000
ITEM: NUMBER OF ATOMS
118
ITEM: BOX BOUNDS xy xz yz pp pp pp
0.0000000000000000e+00 3.6531964750000000e+01 9.1329911900000003e+00
0.0000000000000000e+00 2.1091739680000000e+01 9.1329911900000003e+00
0.0000000000000000e+00 1.4914112149999999e+01 5.2729349200000000e+00
ITEM: ATOMS id mol type q x y z
1 1 1 1.10383 27.399 17.6496 10.5383
2 1 1 1.10383 9.13299 3.44217 4.3758
3 1 1 1.10383 27.399 15.8188 13.1274
4 1 1 1.10383 9.13299 5.27293 1.78671
5 1 1 1.10383 25.8135 14.9034 10.5383
6 1 1 1.10383 10.7185 6.18832 4.3758
7 1 1 1.10383 28.9845 14.9034 10.5383
8 1 1 1.10383 7.5475 6.18832 4.3758
9 1 2 0.115889 18.266 5.48596 12.6084
10 1 2 0.115889 18.266 15.6058 2.30572
11 1 2 0.115888 18.266 13.716 0.969417
12 1 2 0.115888 18.266 7.37578 13.9447
13 1 2 0.11589 25.3934 11.4908 8.12521
14 1 2 0.11589 11.1386 9.60096 6.7889
15 1 2 0.115888 11.1386 11.4908 8.12521
16 1 2 0.115888 25.3934 9.60096 6.7889
17 1 2 0.115889 15.5206 8.96083 0.969417
18 1 2 0.115889 21.0114 12.1309 13.9447
19 1 2 0.115888 22.648 13.0758 12.6084
20 1 2 0.115888 13.884 8.01592 2.30572
21 1 2 0.115889 21.0114 3.90092 8.12521
22 1 2 0.115889 15.5206 17.1908 6.7889
23 1 2 0.115887 13.884 16.2459 8.12521
24 1 2 0.115887 22.648 4.84583 6.7889
25 1 2 0.115889 22.648 16.2459 8.12521
26 1 2 0.115889 13.884 4.84583 6.7889
27 1 2 0.115887 15.5206 3.90092 8.12521
28 1 2 0.115887 21.0114 17.1908 6.7889
29 1 2 0.115889 21.0114 8.96083 0.969417
30 1 2 0.115889 15.5206 12.1309 13.9447
31 1 2 0.115887 13.884 13.0758 12.6084
32 1 2 0.115887 22.648 8.01592 2.30572
33 1 3 0.671939 27.399 18.7442 13.2542
34 1 3 0.671939 9.13299 2.34751 1.65994
35 1 3 0.671939 27.399 12.8934 9.117
36 1 3 0.671939 9.13299 8.19836 5.79712
37 1 3 0.67194 24.8655 14.3561 13.2542
38 1 3 0.67194 11.6665 6.73565 1.65994
39 1 3 0.67194 29.9325 17.2815 9.117
40 1 3 0.67194 6.5995 3.81022 5.79712
41 1 3 0.67194 24.8655 17.2815 9.117
42 1 3 0.67194 11.6665 3.81022 5.79712
43 1 3 0.67194 29.9325 14.3561 13.2542
44 1 3 0.67194 6.5995 6.73565 1.65994
45 1 3 -0.11508 27.399 19.957 14.1117
46 1 3 -0.11508 9.13299 1.13474 0.802379
47 1 3 -0.11508 27.399 11.6806 8.25944
48 1 3 -0.11508 9.13299 9.41113 6.65468
49 1 3 -0.11508 23.8152 13.7497 14.1117
50 1 3 -0.11508 12.7168 7.34203 0.802379
51 1 3 -0.11508 30.9828 17.8879 8.25944
52 1 3 -0.11508 5.54921 3.20384 6.65468
53 1 3 -0.11508 23.8152 17.8879 8.25944
54 1 3 -0.11508 12.7168 3.20384 6.65468
55 1 3 -0.11508 30.9828 13.7497 14.1117
56 1 3 -0.11508 5.54921 7.34203 0.802379
57 1 3 -0.0559 18.266 5.39949 13.5316
58 1 3 -0.0559 18.266 15.6923 1.38254
59 1 3 -0.055903 18.266 14.5575 0.580159
60 1 3 -0.055903 18.266 6.53422 14.334
61 1 3 -0.0559 26.1971 11.1132 7.85825
62 1 3 -0.0559 10.3349 9.9785 7.05587
63 1 3 -0.055903 10.3349 11.1132 7.85825
64 1 3 -0.055903 26.1971 9.9785 7.05587
65 1 3 -0.0559 14.7918 8.54005 0.580159
66 1 3 -0.0559 21.7402 12.5517 14.334
67 1 3 -0.055903 22.7229 13.1191 13.5316
68 1 3 -0.055903 13.8091 7.97268 1.38254
69 1 3 -0.0559 21.7402 3.39366 7.85825
70 1 3 -0.0559 14.7918 17.6981 7.05587
71 1 3 -0.055903 13.8091 17.1307 7.85825
72 1 3 -0.055903 22.7229 3.96103 7.05587
73 1 3 -0.055901 22.7229 17.1307 7.85825
74 1 3 -0.055901 13.8091 3.96103 7.05587
75 1 3 -0.055903 14.7918 3.39366 7.85825
76 1 3 -0.055903 21.7402 17.6981 7.05587
77 1 3 -0.0559 21.7402 8.54005 0.580159
78 1 3 -0.0559 14.7918 12.5517 14.334
79 1 3 -0.055903 13.8091 13.1191 13.5316
80 1 3 -0.055903 22.7229 7.97268 1.38254
81 1 4 -1.26215 27.399 15.8188 11.1856
82 1 4 -1.26215 9.13299 5.27293 3.72853
83 1 4 -0.60118 27.399 18.9383 11.9641
84 1 4 -0.60118 9.13299 2.15347 2.95001
85 1 4 -0.601179 27.399 17.5926 13.8671
86 1 4 -0.601179 9.13299 3.49912 1.04697
87 1 4 -0.601179 26.2336 13.3722 9.45555
88 1 4 -0.601179 10.2984 7.71958 5.45857
89 1 4 -0.60118 28.5643 13.3722 9.45555
90 1 4 -0.60118 7.96762 7.71958 5.45857
91 1 4 -0.60118 25.8628 14.9319 13.8671
92 1 4 -0.60118 10.6692 6.15984 1.04697
93 1 4 -0.601179 24.6974 14.2591 11.9641
94 1 4 -0.601179 11.8345 6.83267 2.95001
95 1 4 -0.60118 28.9351 18.0514 9.45555
96 1 4 -0.60118 7.59682 3.04037 5.45857
97 1 4 -0.601179 30.1005 16.0329 9.45555
98 1 4 -0.601179 6.43145 5.05885 5.45857
99 1 4 -0.601179 24.6974 16.0329 9.45555
100 1 4 -0.601179 11.8345 5.05885 5.45857
101 1 4 -0.60118 25.8628 18.0514 9.45555
102 1 4 -0.60118 10.6692 3.04037 5.45857
103 1 4 -0.60118 28.9351 14.9319 13.8671
104 1 4 -0.60118 7.59682 6.15984 1.04697
105 1 4 -0.60118 30.1005 14.2591 11.9641
106 1 4 -0.60118 6.43145 6.83267 2.95001
107 2 5 -0.35 15.574 12.1421 2.07087
108 2 6 0.7 15.5053 12.4061 0.943394
109 2 5 -0.35 24.5696 17.943 14.73
110 3 5 -0.35 15.3308 16.1539 2.77518
111 3 6 0.7 15.1435 16.3365 1.64506
112 3 5 -0.35 5.82328 0.700315 0.514932
113 4 5 -0.35 20.3482 16.9235 10.2891
114 4 6 0.7 19.5256 16.1246 10.114
115 4 5 -0.35 18.7029 15.3257 9.9389
116 5 5 -0.35 23.0451 7.83712 7.00043
117 5 6 0.7 22.7636 7.77709 5.8767
118 5 5 -0.35 22.4821 7.71705 4.75298
ITEM: TIMESTEP
50000
ITEM: NUMBER OF ATOMS
112
ITEM: BOX BOUNDS xy xz yz pp pp pp
0.0000000000000000e+00 3.6531964750000000e+01 9.1329911900000003e+00
0.0000000000000000e+00 2.1091739680000000e+01 9.1329911900000003e+00
0.0000000000000000e+00 1.4914112149999999e+01 5.2729349200000000e+00
ITEM: ATOMS id mol type q x y z
1 1 1 1.10383 27.399 17.6496 10.5383
2 1 1 1.10383 9.13299 3.44217 4.3758
3 1 1 1.10383 27.399 15.8188 13.1274
4 1 1 1.10383 9.13299 5.27293 1.78671
5 1 1 1.10383 25.8135 14.9034 10.5383
6 1 1 1.10383 10.7185 6.18832 4.3758
7 1 1 1.10383 28.9845 14.9034 10.5383
8 1 1 1.10383 7.5475 6.18832 4.3758
9 1 2 0.115889 18.266 5.48596 12.6084
10 1 2 0.115889 18.266 15.6058 2.30572
11 1 2 0.115888 18.266 13.716 0.969417
12 1 2 0.115888 18.266 7.37578 13.9447
13 1 2 0.11589 25.3934 11.4908 8.12521
14 1 2 0.11589 11.1386 9.60096 6.7889
15 1 2 0.115888 11.1386 11.4908 8.12521
16 1 2 0.115888 25.3934 9.60096 6.7889
17 1 2 0.115889 15.5206 8.96083 0.969417
18 1 2 0.115889 21.0114 12.1309 13.9447
19 1 2 0.115888 22.648 13.0758 12.6084
20 1 2 0.115888 13.884 8.01592 2.30572
21 1 2 0.115889 21.0114 3.90092 8.12521
22 1 2 0.115889 15.5206 17.1908 6.7889
23 1 2 0.115887 13.884 16.2459 8.12521
24 1 2 0.115887 22.648 4.84583 6.7889
25 1 2 0.115889 22.648 16.2459 8.12521
26 1 2 0.115889 13.884 4.84583 6.7889
27 1 2 0.115887 15.5206 3.90092 8.12521
28 1 2 0.115887 21.0114 17.1908 6.7889
29 1 2 0.115889 21.0114 8.96083 0.969417
30 1 2 0.115889 15.5206 12.1309 13.9447
31 1 2 0.115887 13.884 13.0758 12.6084
32 1 2 0.115887 22.648 8.01592 2.30572
33 1 3 0.671939 27.399 18.7442 13.2542
34 1 3 0.671939 9.13299 2.34751 1.65994
35 1 3 0.671939 27.399 12.8934 9.117
36 1 3 0.671939 9.13299 8.19836 5.79712
37 1 3 0.67194 24.8655 14.3561 13.2542
38 1 3 0.67194 11.6665 6.73565 1.65994
39 1 3 0.67194 29.9325 17.2815 9.117
40 1 3 0.67194 6.5995 3.81022 5.79712
41 1 3 0.67194 24.8655 17.2815 9.117
42 1 3 0.67194 11.6665 3.81022 5.79712
43 1 3 0.67194 29.9325 14.3561 13.2542
44 1 3 0.67194 6.5995 6.73565 1.65994
45 1 3 -0.11508 27.399 19.957 14.1117
46 1 3 -0.11508 9.13299 1.13474 0.802379
47 1 3 -0.11508 27.399 11.6806 8.25944
48 1 3 -0.11508 9.13299 9.41113 6.65468
49 1 3 -0.11508 23.8152 13.7497 14.1117
50 1 3 -0.11508 12.7168 7.34203 0.802379
51 1 3 -0.11508 30.9828 17.8879 8.25944
52 1 3 -0.11508 5.54921 3.20384 6.65468
53 1 3 -0.11508 23.8152 17.8879 8.25944
54 1 3 -0.11508 12.7168 3.20384 6.65468
55 1 3 -0.11508 30.9828 13.7497 14.1117
56 1 3 -0.11508 5.54921 7.34203 0.802379
57 1 3 -0.0559 18.266 5.39949 13.5316
58 1 3 -0.0559 18.266 15.6923 1.38254
59 1 3 -0.055903 18.266 14.5575 0.580159
60 1 3 -0.055903 18.266 6.53422 14.334
61 1 3 -0.0559 26.1971 11.1132 7.85825
62 1 3 -0.0559 10.3349 9.9785 7.05587
63 1 3 -0.055903 10.3349 11.1132 7.85825
64 1 3 -0.055903 26.1971 9.9785 7.05587
65 1 3 -0.0559 14.7918 8.54005 0.580159
66 1 3 -0.0559 21.7402 12.5517 14.334
67 1 3 -0.055903 22.7229 13.1191 13.5316
68 1 3 -0.055903 13.8091 7.97268 1.38254
69 1 3 -0.0559 21.7402 3.39366 7.85825
70 1 3 -0.0559 14.7918 17.6981 7.05587
71 1 3 -0.055903 13.8091 17.1307 7.85825
72 1 3 -0.055903 22.7229 3.96103 7.05587
73 1 3 -0.055901 22.7229 17.1307 7.85825
74 1 3 -0.055901 13.8091 3.96103 7.05587
75 1 3 -0.055903 14.7918 3.39366 7.85825
76 1 3 -0.055903 21.7402 17.6981 7.05587
77 1 3 -0.0559 21.7402 8.54005 0.580159
78 1 3 -0.0559 14.7918 12.5517 14.334
79 1 3 -0.055903 13.8091 13.1191 13.5316
80 1 3 -0.055903 22.7229 7.97268 1.38254
81 1 4 -1.26215 27.399 15.8188 11.1856
82 1 4 -1.26215 9.13299 5.27293 3.72853
83 1 4 -0.60118 27.399 18.9383 11.9641
84 1 4 -0.60118 9.13299 2.15347 2.95001
85 1 4 -0.601179 27.399 17.5926 13.8671
86 1 4 -0.601179 9.13299 3.49912 1.04697
87 1 4 -0.601179 26.2336 13.3722 9.45555
88 1 4 -0.601179 10.2984 7.71958 5.45857
89 1 4 -0.60118 28.5643 13.3722 9.45555
90 1 4 -0.60118 7.96762 7.71958 5.45857
91 1 4 -0.60118 25.8628 14.9319 13.8671
92 1 4 -0.60118 10.6692 6.15984 1.04697
93 1 4 -0.601179 24.6974 14.2591 11.9641
94 1 4 -0.601179 11.8345 6.83267 2.95001
95 1 4 -0.60118 28.9351 18.0514 9.45555
96 1 4 -0.60118 7.59682 3.04037 5.45857
97 1 4 -0.601179 30.1005 16.0329 9.45555
98 1 4 -0.601179 6.43145 5.05885 5.45857
99 1 4 -0.601179 24.6974 16.0329 9.45555
100 1 4 -0.601179 11.8345 5.05885 5.45857
101 1 4 -0.60118 25.8628 18.0514 9.45555
102 1 4 -0.60118 10.6692 3.04037 5.45857
103 1 4 -0.60118 28.9351 14.9319 13.8671
104 1 4 -0.60118 7.59682 6.15984 1.04697
105 1 4 -0.60118 30.1005 14.2591 11.9641
106 1 4 -0.60118 6.43145 6.83267 2.95001
110 3 5 -0.35 15.1168 13.2601 0.653942
111 3 6 0.7 23.9394 18.4914 14.4512
112 3 5 -0.35 23.6289 18.4498 13.3343
113 4 5 -0.35 3.56092 2.42374 4.21957
114 4 6 0.7 3.80573 2.47724 3.08696
115 4 5 -0.35 4.05054 2.53074 1.95435
ITEM: TIMESTEP
51000
ITEM: NUMBER OF ATOMS
106
ITEM: BOX BOUNDS xy xz yz pp pp pp
0.0000000000000000e+00 3.6531964750000000e+01 9.1329911900000003e+00
0.0000000000000000e+00 2.1091739680000000e+01 9.1329911900000003e+00
0.0000000000000000e+00 1.4914112149999999e+01 5.2729349200000000e+00
ITEM: ATOMS id mol type q x y z
1 1 1 1.10383 27.399 17.6496 10.5383
2 1 1 1.10383 9.13299 3.44217 4.3758
3 1 1 1.10383 27.399 15.8188 13.1274
4 1 1 1.10383 9.13299 5.27293 1.78671
5 1 1 1.10383 25.8135 14.9034 10.5383
6 1 1 1.10383 10.7185 6.18832 4.3758
7 1 1 1.10383 28.9845 14.9034 10.5383
8 1 1 1.10383 7.5475 6.18832 4.3758
9 1 2 0.115889 18.266 5.48596 12.6084
10 1 2 0.115889 18.266 15.6058 2.30572
11 1 2 0.115888 18.266 13.716 0.969417
12 1 2 0.115888 18.266 7.37578 13.9447
13 1 2 0.11589 25.3934 11.4908 8.12521
14 1 2 0.11589 11.1386 9.60096 6.7889
15 1 2 0.115888 11.1386 11.4908 8.12521
16 1 2 0.115888 25.3934 9.60096 6.7889
17 1 2 0.115889 15.5206 8.96083 0.969417
18 1 2 0.115889 21.0114 12.1309 13.9447
19 1 2 0.115888 22.648 13.0758 12.6084
20 1 2 0.115888 13.884 8.01592 2.30572
21 1 2 0.115889 21.0114 3.90092 8.12521
22 1 2 0.115889 15.5206 17.1908 6.7889
23 1 2 0.115887 13.884 16.2459 8.12521
24 1 2 0.115887 22.648 4.84583 6.7889
25 1 2 0.115889 22.648 16.2459 8.12521
26 1 2 0.115889 13.884 4.84583 6.7889
27 1 2 0.115887 15.5206 3.90092 8.12521
28 1 2 0.115887 21.0114 17.1908 6.7889
29 1 2 0.115889 21.0114 8.96083 0.969417
30 1 2 0.115889 15.5206 12.1309 13.9447
31 1 2 0.115887 13.884 13.0758 12.6084
32 1 2 0.115887 22.648 8.01592 2.30572
33 1 3 0.671939 27.399 18.7442 13.2542
34 1 3 0.671939 9.13299 2.34751 1.65994
35 1 3 0.671939 27.399 12.8934 9.117
36 1 3 0.671939 9.13299 8.19836 5.79712
37 1 3 0.67194 24.8655 14.3561 13.2542
38 1 3 0.67194 11.6665 6.73565 1.65994
39 1 3 0.67194 29.9325 17.2815 9.117
40 1 3 0.67194 6.5995 3.81022 5.79712
41 1 3 0.67194 24.8655 17.2815 9.117
42 1 3 0.67194 11.6665 3.81022 5.79712
43 1 3 0.67194 29.9325 14.3561 13.2542
44 1 3 0.67194 6.5995 6.73565 1.65994
45 1 3 -0.11508 27.399 19.957 14.1117
46 1 3 -0.11508 9.13299 1.13474 0.802379
47 1 3 -0.11508 27.399 11.6806 8.25944
48 1 3 -0.11508 9.13299 9.41113 6.65468
49 1 3 -0.11508 23.8152 13.7497 14.1117
50 1 3 -0.11508 12.7168 7.34203 0.802379
51 1 3 -0.11508 30.9828 17.8879 8.25944
52 1 3 -0.11508 5.54921 3.20384 6.65468
53 1 3 -0.11508 23.8152 17.8879 8.25944
54 1 3 -0.11508 12.7168 3.20384 6.65468
55 1 3 -0.11508 30.9828 13.7497 14.1117
56 1 3 -0.11508 5.54921 7.34203 0.802379
57 1 3 -0.0559 18.266 5.39949 13.5316
58 1 3 -0.0559 18.266 15.6923 1.38254
59 1 3 -0.055903 18.266 14.5575 0.580159
60 1 3 -0.055903 18.266 6.53422 14.334
61 1 3 -0.0559 26.1971 11.1132 7.85825
62 1 3 -0.0559 10.3349 9.9785 7.05587
63 1 3 -0.055903 10.3349 11.1132 7.85825
64 1 3 -0.055903 26.1971 9.9785 7.05587
65 1 3 -0.0559 14.7918 8.54005 0.580159
66 1 3 -0.0559 21.7402 12.5517 14.334
67 1 3 -0.055903 22.7229 13.1191 13.5316
68 1 3 -0.055903 13.8091 7.97268 1.38254
69 1 3 -0.0559 21.7402 3.39366 7.85825
70 1 3 -0.0559 14.7918 17.6981 7.05587
71 1 3 -0.055903 13.8091 17.1307 7.85825
72 1 3 -0.055903 22.7229 3.96103 7.05587
73 1 3 -0.055901 22.7229 17.1307 7.85825
74 1 3 -0.055901 13.8091 3.96103 7.05587
75 1 3 -0.055903 14.7918 3.39366 7.85825
76 1 3 -0.055903 21.7402 17.6981 7.05587
77 1 3 -0.0559 21.7402 8.54005 0.580159
78 1 3 -0.0559 14.7918 12.5517 14.334
79 1 3 -0.055903 13.8091 13.1191 13.5316
80 1 3 -0.055903 22.7229 7.97268 1.38254
81 1 4 -1.26215 27.399 15.8188 11.1856
82 1 4 -1.26215 9.13299 5.27293 3.72853
83 1 4 -0.60118 27.399 18.9383 11.9641
84 1 4 -0.60118 9.13299 2.15347 2.95001
85 1 4 -0.601179 27.399 17.5926 13.8671
86 1 4 -0.601179 9.13299 3.49912 1.04697
87 1 4 -0.601179 26.2336 13.3722 9.45555
88 1 4 -0.601179 10.2984 7.71958 5.45857
89 1 4 -0.60118 28.5643 13.3722 9.45555
90 1 4 -0.60118 7.96762 7.71958 5.45857
91 1 4 -0.60118 25.8628 14.9319 13.8671
92 1 4 -0.60118 10.6692 6.15984 1.04697
93 1 4 -0.601179 24.6974 14.2591 11.9641
94 1 4 -0.601179 11.8345 6.83267 2.95001
95 1 4 -0.60118 28.9351 18.0514 9.45555
96 1 4 -0.60118 7.59682 3.04037 5.45857
97 1 4 -0.601179 30.1005 16.0329 9.45555
98 1 4 -0.601179 6.43145 5.05885 5.45857
99 1 4 -0.601179 24.6974 16.0329 9.45555
100 1 4 -0.601179 11.8345 5.05885 5.45857
101 1 4 -0.60118 25.8628 18.0514 9.45555
102 1 4 -0.60118 10.6692 3.04037 5.45857
103 1 4 -0.60118 28.9351 14.9319 13.8671
104 1 4 -0.60118 7.59682 6.15984 1.04697
105 1 4 -0.60118 30.1005 14.2591 11.9641
106 1 4 -0.60118 6.43145 6.83267 2.95001
ITEM: TIMESTEP
52000
ITEM: NUMBER OF ATOMS
112
ITEM: BOX BOUNDS xy xz yz pp pp pp
0.0000000000000000e+00 3.6531964750000000e+01 9.1329911900000003e+00
0.0000000000000000e+00 2.1091739680000000e+01 9.1329911900000003e+00
0.0000000000000000e+00 1.4914112149999999e+01 5.2729349200000000e+00
ITEM: ATOMS id mol type q x y z
1 1 1 1.10383 27.399 17.6496 10.5383
2 1 1 1.10383 9.13299 3.44217 4.3758
3 1 1 1.10383 27.399 15.8188 13.1274
4 1 1 1.10383 9.13299 5.27293 1.78671
5 1 1 1.10383 25.8135 14.9034 10.5383
6 1 1 1.10383 10.7185 6.18832 4.3758
7 1 1 1.10383 28.9845 14.9034 10.5383
8 1 1 1.10383 7.5475 6.18832 4.3758
9 1 2 0.115889 18.266 5.48596 12.6084
10 1 2 0.115889 18.266 15.6058 2.30572
11 1 2 0.115888 18.266 13.716 0.969417
12 1 2 0.115888 18.266 7.37578 13.9447
13 1 2 0.11589 25.3934 11.4908 8.12521
14 1 2 0.11589 11.1386 9.60096 6.7889
15 1 2 0.115888 11.1386 11.4908 8.12521
16 1 2 0.115888 25.3934 9.60096 6.7889
17 1 2 0.115889 15.5206 8.96083 0.969417
18 1 2 0.115889 21.0114 12.1309 13.9447
19 1 2 0.115888 22.648 13.0758 12.6084
20 1 2 0.115888 13.884 8.01592 2.30572
21 1 2 0.115889 21.0114 3.90092 8.12521
22 1 2 0.115889 15.5206 17.1908 6.7889
23 1 2 0.115887 13.884 16.2459 8.12521
24 1 2 0.115887 22.648 4.84583 6.7889
25 1 2 0.115889 22.648 16.2459 8.12521
26 1 2 0.115889 13.884 4.84583 6.7889
27 1 2 0.115887 15.5206 3.90092 8.12521
28 1 2 0.115887 21.0114 17.1908 6.7889
29 1 2 0.115889 21.0114 8.96083 0.969417
30 1 2 0.115889 15.5206 12.1309 13.9447
31 1 2 0.115887 13.884 13.0758 12.6084
32 1 2 0.115887 22.648 8.01592 2.30572
33 1 3 0.671939 27.399 18.7442 13.2542
34 1 3 0.671939 9.13299 2.34751 1.65994
35 1 3 0.671939 27.399 12.8934 9.117
36 1 3 0.671939 9.13299 8.19836 5.79712
37 1 3 0.67194 24.8655 14.3561 13.2542
38 1 3 0.67194 11.6665 6.73565 1.65994
39 1 3 0.67194 29.9325 17.2815 9.117
40 1 3 0.67194 6.5995 3.81022 5.79712
41 1 3 0.67194 24.8655 17.2815 9.117
42 1 3 0.67194 11.6665 3.81022 5.79712
43 1 3 0.67194 29.9325 14.3561 13.2542
44 1 3 0.67194 6.5995 6.73565 1.65994
45 1 3 -0.11508 27.399 19.957 14.1117
46 1 3 -0.11508 9.13299 1.13474 0.802379
47 1 3 -0.11508 27.399 11.6806 8.25944
48 1 3 -0.11508 9.13299 9.41113 6.65468
49 1 3 -0.11508 23.8152 13.7497 14.1117
50 1 3 -0.11508 12.7168 7.34203 0.802379
51 1 3 -0.11508 30.9828 17.8879 8.25944
52 1 3 -0.11508 5.54921 3.20384 6.65468
53 1 3 -0.11508 23.8152 17.8879 8.25944
54 1 3 -0.11508 12.7168 3.20384 6.65468
55 1 3 -0.11508 30.9828 13.7497 14.1117
56 1 3 -0.11508 5.54921 7.34203 0.802379
57 1 3 -0.0559 18.266 5.39949 13.5316
58 1 3 -0.0559 18.266 15.6923 1.38254
59 1 3 -0.055903 18.266 14.5575 0.580159
60 1 3 -0.055903 18.266 6.53422 14.334
61 1 3 -0.0559 26.1971 11.1132 7.85825
62 1 3 -0.0559 10.3349 9.9785 7.05587
63 1 3 -0.055903 10.3349 11.1132 7.85825
64 1 3 -0.055903 26.1971 9.9785 7.05587
65 1 3 -0.0559 14.7918 8.54005 0.580159
66 1 3 -0.0559 21.7402 12.5517 14.334
67 1 3 -0.055903 22.7229 13.1191 13.5316
68 1 3 -0.055903 13.8091 7.97268 1.38254
69 1 3 -0.0559 21.7402 3.39366 7.85825
70 1 3 -0.0559 14.7918 17.6981 7.05587
71 1 3 -0.055903 13.8091 17.1307 7.85825
72 1 3 -0.055903 22.7229 3.96103 7.05587
73 1 3 -0.055901 22.7229 17.1307 7.85825
74 1 3 -0.055901 13.8091 3.96103 7.05587
75 1 3 -0.055903 14.7918 3.39366 7.85825
76 1 3 -0.055903 21.7402 17.6981 7.05587
77 1 3 -0.0559 21.7402 8.54005 0.580159
78 1 3 -0.0559 14.7918 12.5517 14.334
79 1 3 -0.055903 13.8091 13.1191 13.5316
80 1 3 -0.055903 22.7229 7.97268 1.38254
81 1 4 -1.26215 27.399 15.8188 11.1856
82 1 4 -1.26215 9.13299 5.27293 3.72853
83 1 4 -0.60118 27.399 18.9383 11.9641
84 1 4 -0.60118 9.13299 2.15347 2.95001
85 1 4 -0.601179 27.399 17.5926 13.8671
86 1 4 -0.601179 9.13299 3.49912 1.04697
87 1 4 -0.601179 26.2336 13.3722 9.45555
88 1 4 -0.601179 10.2984 7.71958 5.45857
89 1 4 -0.60118 28.5643 13.3722 9.45555
90 1 4 -0.60118 7.96762 7.71958 5.45857
91 1 4 -0.60118 25.8628 14.9319 13.8671
92 1 4 -0.60118 10.6692 6.15984 1.04697
93 1 4 -0.601179 24.6974 14.2591 11.9641
94 1 4 -0.601179 11.8345 6.83267 2.95001
95 1 4 -0.60118 28.9351 18.0514 9.45555
96 1 4 -0.60118 7.59682 3.04037 5.45857
97 1 4 -0.601179 30.1005 16.0329 9.45555
98 1 4 -0.601179 6.43145 5.05885 5.45857
99 1 4 -0.601179 24.6974 16.0329 9.45555
100 1 4 -0.601179 11.8345 5.05885 5.45857
101 1 4 -0.60118 25.8628 18.0514 9.45555
102 1 4 -0.60118 10.6692 3.04037 5.45857
103 1 4 -0.60118 28.9351 14.9319 13.8671
104 1 4 -0.60118 7.59682 6.15984 1.04697
105 1 4 -0.60118 30.1005 14.2591 11.9641
106 1 4 -0.60118 6.43145 6.83267 2.95001
119 6 5 -0.35 23.4951 11.9134 1.63255
120 6 6 0.7 23.652 11.5468 0.543269
121 6 5 -0.35 32.942 16.4531 14.3681
122 7 5 -0.35 19.0245 7.10502 9.48443
123 7 6 0.7 18.5147 6.45593 8.6693
124 7 5 -0.35 18.0049 5.80685 7.85418
ITEM: TIMESTEP
53000
ITEM: NUMBER OF ATOMS
109
ITEM: BOX BOUNDS xy xz yz pp pp pp
0.0000000000000000e+00 3.6531964750000000e+01 9.1329911900000003e+00
0.0000000000000000e+00 2.1091739680000000e+01 9.1329911900000003e+00
0.0000000000000000e+00 1.4914112149999999e+01 5.2729349200000000e+00
ITEM: ATOMS id mol type q x y z
1 1 1 1.10383 27.399 17.6496 10.5383
2 1 1 1.10383 9.13299 3.44217 4.3758
3 1 1 1.10383 27.399 15.8188 13.1274
4 1 1 1.10383 9.13299 5.27293 1.78671
5 1 1 1.10383 25.8135 14.9034 10.5383
6 1 1 1.10383 10.7185 6.18832 4.3758
7 1 1 1.10383 28.9845 14.9034 10.5383
8 1 1 1.10383 7.5475 6.18832 4.3758
9 1 2 0.115889 18.266 5.48596 12.6084
10 1 2 0.115889 18.266 15.6058 2.30572
11 1 2 0.115888 18.266 13.716 0.969417
12 1 2 0.115888 18.266 7.37578 13.9447
13 1 2 0.11589 25.3934 11.4908 8.12521
14 1 2 0.11589 11.1386 9.60096 6.7889
15 1 2 0.115888 11.1386 11.4908 8.12521
16 1 2 0.115888 25.3934 9.60096 6.7889
17 1 2 0.115889 15.5206 8.96083 0.969417
18 1 2 0.115889 21.0114 12.1309 13.9447
19 1 2 0.115888 22.648 13.0758 12.6084
20 1 2 0.115888 13.884 8.01592 2.30572
21 1 2 0.115889 21.0114 3.90092 8.12521
22 1 2 0.115889 15.5206 17.1908 6.7889
23 1 2 0.115887 13.884 16.2459 8.12521
24 1 2 0.115887 22.648 4.84583 6.7889
25 1 2 0.115889 22.648 16.2459 8.12521
26 1 2 0.115889 13.884 4.84583 6.7889
27 1 2 0.115887 15.5206 3.90092 8.12521
28 1 2 0.115887 21.0114 17.1908 6.7889
29 1 2 0.115889 21.0114 8.96083 0.969417
30 1 2 0.115889 15.5206 12.1309 13.9447
31 1 2 0.115887 13.884 13.0758 12.6084
32 1 2 0.115887 22.648 8.01592 2.30572
33 1 3 0.671939 27.399 18.7442 13.2542
34 1 3 0.671939 9.13299 2.34751 1.65994
35 1 3 0.671939 27.399 12.8934 9.117
36 1 3 0.671939 9.13299 8.19836 5.79712
37 1 3 0.67194 24.8655 14.3561 13.2542
38 1 3 0.67194 11.6665 6.73565 1.65994
39 1 3 0.67194 29.9325 17.2815 9.117
40 1 3 0.67194 6.5995 3.81022 5.79712
41 1 3 0.67194 24.8655 17.2815 9.117
42 1 3 0.67194 11.6665 3.81022 5.79712
43 1 3 0.67194 29.9325 14.3561 13.2542
44 1 3 0.67194 6.5995 6.73565 1.65994
45 1 3 -0.11508 27.399 19.957 14.1117
46 1 3 -0.11508 9.13299 1.13474 0.802379
47 1 3 -0.11508 27.399 11.6806 8.25944
48 1 3 -0.11508 9.13299 9.41113 6.65468
49 1 3 -0.11508 23.8152 13.7497 14.1117
50 1 3 -0.11508 12.7168 7.34203 0.802379
51 1 3 -0.11508 30.9828 17.8879 8.25944
52 1 3 -0.11508 5.54921 3.20384 6.65468
53 1 3 -0.11508 23.8152 17.8879 8.25944
54 1 3 -0.11508 12.7168 3.20384 6.65468
55 1 3 -0.11508 30.9828 13.7497 14.1117
56 1 3 -0.11508 5.54921 7.34203 0.802379
57 1 3 -0.0559 18.266 5.39949 13.5316
58 1 3 -0.0559 18.266 15.6923 1.38254
59 1 3 -0.055903 18.266 14.5575 0.580159
60 1 3 -0.055903 18.266 6.53422 14.334
61 1 3 -0.0559 26.1971 11.1132 7.85825
62 1 3 -0.0559 10.3349 9.9785 7.05587
63 1 3 -0.055903 10.3349 11.1132 7.85825
64 1 3 -0.055903 26.1971 9.9785 7.05587
65 1 3 -0.0559 14.7918 8.54005 0.580159
66 1 3 -0.0559 21.7402 12.5517 14.334
67 1 3 -0.055903 22.7229 13.1191 13.5316
68 1 3 -0.055903 13.8091 7.97268 1.38254
69 1 3 -0.0559 21.7402 3.39366 7.85825
70 1 3 -0.0559 14.7918 17.6981 7.05587
71 1 3 -0.055903 13.8091 17.1307 7.85825
72 1 3 -0.055903 22.7229 3.96103 7.05587
73 1 3 -0.055901 22.7229 17.1307 7.85825
74 1 3 -0.055901 13.8091 3.96103 7.05587
75 1 3 -0.055903 14.7918 3.39366 7.85825
76 1 3 -0.055903 21.7402 17.6981 7.05587
77 1 3 -0.0559 21.7402 8.54005 0.580159
78 1 3 -0.0559 14.7918 12.5517 14.334
79 1 3 -0.055903 13.8091 13.1191 13.5316
80 1 3 -0.055903 22.7229 7.97268 1.38254
81 1 4 -1.26215 27.399 15.8188 11.1856
82 1 4 -1.26215 9.13299 5.27293 3.72853
83 1 4 -0.60118 27.399 18.9383 11.9641
84 1 4 -0.60118 9.13299 2.15347 2.95001
85 1 4 -0.601179 27.399 17.5926 13.8671
86 1 4 -0.601179 9.13299 3.49912 1.04697
87 1 4 -0.601179 26.2336 13.3722 9.45555
88 1 4 -0.601179 10.2984 7.71958 5.45857
89 1 4 -0.60118 28.5643 13.3722 9.45555
90 1 4 -0.60118 7.96762 7.71958 5.45857
91 1 4 -0.60118 25.8628 14.9319 13.8671
92 1 4 -0.60118 10.6692 6.15984 1.04697
93 1 4 -0.601179 24.6974 14.2591 11.9641
94 1 4 -0.601179 11.8345 6.83267 2.95001
95 1 4 -0.60118 28.9351 18.0514 9.45555
96 1 4 -0.60118 7.59682 3.04037 5.45857
97 1 4 -0.601179 30.1005 16.0329 9.45555
98 1 4 -0.601179 6.43145 5.05885 5.45857
99 1 4 -0.601179 24.6974 16.0329 9.45555
100 1 4 -0.601179 11.8345 5.05885 5.45857
101 1 4 -0.60118 25.8628 18.0514 9.45555
102 1 4 -0.60118 10.6692 3.04037 5.45857
103 1 4 -0.60118 28.9351 14.9319 13.8671
104 1 4 -0.60118 7.59682 6.15984 1.04697
105 1 4 -0.60118 30.1005 14.2591 11.9641
106 1 4 -0.60118 6.43145 6.83267 2.95001
113 4 5 -0.35 30.5068 18.4353 14.5963
114 4 6 0.7 30.7333 19.401 13.995
115 4 5 -0.35 30.9599 20.3668 13.3937
ITEM: TIMESTEP
54000
ITEM: NUMBER OF ATOMS
109
ITEM: BOX BOUNDS xy xz yz pp pp pp
0.0000000000000000e+00 3.6531964750000000e+01 9.1329911900000003e+00
0.0000000000000000e+00 2.1091739680000000e+01 9.1329911900000003e+00
0.0000000000000000e+00 1.4914112149999999e+01 5.2729349200000000e+00
ITEM: ATOMS id mol type q x y z
1 1 1 1.10383 27.399 17.6496 10.5383
2 1 1 1.10383 9.13299 3.44217 4.3758
3 1 1 1.10383 27.399 15.8188 13.1274
4 1 1 1.10383 9.13299 5.27293 1.78671
5 1 1 1.10383 25.8135 14.9034 10.5383
6 1 1 1.10383 10.7185 6.18832 4.3758
7 1 1 1.10383 28.9845 14.9034 10.5383
8 1 1 1.10383 7.5475 6.18832 4.3758
9 1 2 0.115889 18.266 5.48596 12.6084
10 1 2 0.115889 18.266 15.6058 2.30572
11 1 2 0.115888 18.266 13.716 0.969417
12 1 2 0.115888 18.266 7.37578 13.9447
13 1 2 0.11589 25.3934 11.4908 8.12521
14 1 2 0.11589 11.1386 9.60096 6.7889
15 1 2 0.115888 11.1386 11.4908 8.12521
16 1 2 0.115888 25.3934 9.60096 6.7889
17 1 2 0.115889 15.5206 8.96083 0.969417
18 1 2 0.115889 21.0114 12.1309 13.9447
19 1 2 0.115888 22.648 13.0758 12.6084
20 1 2 0.115888 13.884 8.01592 2.30572
21 1 2 0.115889 21.0114 3.90092 8.12521
22 1 2 0.115889 15.5206 17.1908 6.7889
23 1 2 0.115887 13.884 16.2459 8.12521
24 1 2 0.115887 22.648 4.84583 6.7889
25 1 2 0.115889 22.648 16.2459 8.12521
26 1 2 0.115889 13.884 4.84583 6.7889
27 1 2 0.115887 15.5206 3.90092 8.12521
28 1 2 0.115887 21.0114 17.1908 6.7889
29 1 2 0.115889 21.0114 8.96083 0.969417
30 1 2 0.115889 15.5206 12.1309 13.9447
31 1 2 0.115887 13.884 13.0758 12.6084
32 1 2 0.115887 22.648 8.01592 2.30572
33 1 3 0.671939 27.399 18.7442 13.2542
34 1 3 0.671939 9.13299 2.34751 1.65994
35 1 3 0.671939 27.399 12.8934 9.117
36 1 3 0.671939 9.13299 8.19836 5.79712
37 1 3 0.67194 24.8655 14.3561 13.2542
38 1 3 0.67194 11.6665 6.73565 1.65994
39 1 3 0.67194 29.9325 17.2815 9.117
40 1 3 0.67194 6.5995 3.81022 5.79712
41 1 3 0.67194 24.8655 17.2815 9.117
42 1 3 0.67194 11.6665 3.81022 5.79712
43 1 3 0.67194 29.9325 14.3561 13.2542
44 1 3 0.67194 6.5995 6.73565 1.65994
45 1 3 -0.11508 27.399 19.957 14.1117
46 1 3 -0.11508 9.13299 1.13474 0.802379
47 1 3 -0.11508 27.399 11.6806 8.25944
48 1 3 -0.11508 9.13299 9.41113 6.65468
49 1 3 -0.11508 23.8152 13.7497 14.1117
50 1 3 -0.11508 12.7168 7.34203 0.802379
51 1 3 -0.11508 30.9828 17.8879 8.25944
52 1 3 -0.11508 5.54921 3.20384 6.65468
53 1 3 -0.11508 23.8152 17.8879 8.25944
54 1 3 -0.11508 12.7168 3.20384 6.65468
55 1 3 -0.11508 30.9828 13.7497 14.1117
56 1 3 -0.11508 5.54921 7.34203 0.802379
57 1 3 -0.0559 18.266 5.39949 13.5316
58 1 3 -0.0559 18.266 15.6923 1.38254
59 1 3 -0.055903 18.266 14.5575 0.580159
60 1 3 -0.055903 18.266 6.53422 14.334
61 1 3 -0.0559 26.1971 11.1132 7.85825
62 1 3 -0.0559 10.3349 9.9785 7.05587
63 1 3 -0.055903 10.3349 11.1132 7.85825
64 1 3 -0.055903 26.1971 9.9785 7.05587
65 1 3 -0.0559 14.7918 8.54005 0.580159
66 1 3 -0.0559 21.7402 12.5517 14.334
67 1 3 -0.055903 22.7229 13.1191 13.5316
68 1 3 -0.055903 13.8091 7.97268 1.38254
69 1 3 -0.0559 21.7402 3.39366 7.85825
70 1 3 -0.0559 14.7918 17.6981 7.05587
71 1 3 -0.055903 13.8091 17.1307 7.85825
72 1 3 -0.055903 22.7229 3.96103 7.05587
73 1 3 -0.055901 22.7229 17.1307 7.85825
74 1 3 -0.055901 13.8091 3.96103 7.05587
75 1 3 -0.055903 14.7918 3.39366 7.85825
76 1 3 -0.055903 21.7402 17.6981 7.05587
77 1 3 -0.0559 21.7402 8.54005 0.580159
78 1 3 -0.0559 14.7918 12.5517 14.334
79 1 3 -0.055903 13.8091 13.1191 13.5316
80 1 3 -0.055903 22.7229 7.97268 1.38254
81 1 4 -1.26215 27.399 15.8188 11.1856
82 1 4 -1.26215 9.13299 5.27293 3.72853
83 1 4 -0.60118 27.399 18.9383 11.9641
84 1 4 -0.60118 9.13299 2.15347 2.95001
85 1 4 -0.601179 27.399 17.5926 13.8671
86 1 4 -0.601179 9.13299 3.49912 1.04697
87 1 4 -0.601179 26.2336 13.3722 9.45555
88 1 4 -0.601179 10.2984 7.71958 5.45857
89 1 4 -0.60118 28.5643 13.3722 9.45555
90 1 4 -0.60118 7.96762 7.71958 5.45857
91 1 4 -0.60118 25.8628 14.9319 13.8671
92 1 4 -0.60118 10.6692 6.15984 1.04697
93 1 4 -0.601179 24.6974 14.2591 11.9641
94 1 4 -0.601179 11.8345 6.83267 2.95001
95 1 4 -0.60118 28.9351 18.0514 9.45555
96 1 4 -0.60118 7.59682 3.04037 5.45857
97 1 4 -0.601179 30.1005 16.0329 9.45555
98 1 4 -0.601179 6.43145 5.05885 5.45857
99 1 4 -0.601179 24.6974 16.0329 9.45555
100 1 4 -0.601179 11.8345 5.05885 5.45857
101 1 4 -0.60118 25.8628 18.0514 9.45555
102 1 4 -0.60118 10.6692 3.04037 5.45857
103 1 4 -0.60118 28.9351 14.9319 13.8671
104 1 4 -0.60118 7.59682 6.15984 1.04697
105 1 4 -0.60118 30.1005 14.2591 11.9641
106 1 4 -0.60118 6.43145 6.83267 2.95001
128 9 5 -0.35 4.59154 1.29803 0.370603
129 9 6 0.7 5.04647 2.19056 0.95544
130 9 5 -0.35 5.5014 3.08308 1.54028
ITEM: TIMESTEP
55000
ITEM: NUMBER OF ATOMS
115
ITEM: BOX BOUNDS xy xz yz pp pp pp
0.0000000000000000e+00 3.6531964750000000e+01 9.1329911900000003e+00
0.0000000000000000e+00 2.1091739680000000e+01 9.1329911900000003e+00
0.0000000000000000e+00 1.4914112149999999e+01 5.2729349200000000e+00
ITEM: ATOMS id mol type q x y z
1 1 1 1.10383 27.399 17.6496 10.5383
2 1 1 1.10383 9.13299 3.44217 4.3758
3 1 1 1.10383 27.399 15.8188 13.1274
4 1 1 1.10383 9.13299 5.27293 1.78671
5 1 1 1.10383 25.8135 14.9034 10.5383
6 1 1 1.10383 10.7185 6.18832 4.3758
7 1 1 1.10383 28.9845 14.9034 10.5383
8 1 1 1.10383 7.5475 6.18832 4.3758
9 1 2 0.115889 18.266 5.48596 12.6084
10 1 2 0.115889 18.266 15.6058 2.30572
11 1 2 0.115888 18.266 13.716 0.969417
12 1 2 0.115888 18.266 7.37578 13.9447
13 1 2 0.11589 25.3934 11.4908 8.12521
14 1 2 0.11589 11.1386 9.60096 6.7889
15 1 2 0.115888 11.1386 11.4908 8.12521
16 1 2 0.115888 25.3934 9.60096 6.7889
17 1 2 0.115889 15.5206 8.96083 0.969417
18 1 2 0.115889 21.0114 12.1309 13.9447
19 1 2 0.115888 22.648 13.0758 12.6084
20 1 2 0.115888 13.884 8.01592 2.30572
21 1 2 0.115889 21.0114 3.90092 8.12521
22 1 2 0.115889 15.5206 17.1908 6.7889
23 1 2 0.115887 13.884 16.2459 8.12521
24 1 2 0.115887 22.648 4.84583 6.7889
25 1 2 0.115889 22.648 16.2459 8.12521
26 1 2 0.115889 13.884 4.84583 6.7889
27 1 2 0.115887 15.5206 3.90092 8.12521
28 1 2 0.115887 21.0114 17.1908 6.7889
29 1 2 0.115889 21.0114 8.96083 0.969417
30 1 2 0.115889 15.5206 12.1309 13.9447
31 1 2 0.115887 13.884 13.0758 12.6084
32 1 2 0.115887 22.648 8.01592 2.30572
33 1 3 0.671939 27.399 18.7442 13.2542
34 1 3 0.671939 9.13299 2.34751 1.65994
35 1 3 0.671939 27.399 12.8934 9.117
36 1 3 0.671939 9.13299 8.19836 5.79712
37 1 3 0.67194 24.8655 14.3561 13.2542
38 1 3 0.67194 11.6665 6.73565 1.65994
39 1 3 0.67194 29.9325 17.2815 9.117
40 1 3 0.67194 6.5995 3.81022 5.79712
41 1 3 0.67194 24.8655 17.2815 9.117
42 1 3 0.67194 11.6665 3.81022 5.79712
43 1 3 0.67194 29.9325 14.3561 13.2542
44 1 3 0.67194 6.5995 6.73565 1.65994
45 1 3 -0.11508 27.399 19.957 14.1117
46 1 3 -0.11508 9.13299 1.13474 0.802379
47 1 3 -0.11508 27.399 11.6806 8.25944
48 1 3 -0.11508 9.13299 9.41113 6.65468
49 1 3 -0.11508 23.8152 13.7497 14.1117
50 1 3 -0.11508 12.7168 7.34203 0.802379
51 1 3 -0.11508 30.9828 17.8879 8.25944
52 1 3 -0.11508 5.54921 3.20384 6.65468
53 1 3 -0.11508 23.8152 17.8879 8.25944
54 1 3 -0.11508 12.7168 3.20384 6.65468
55 1 3 -0.11508 30.9828 13.7497 14.1117
56 1 3 -0.11508 5.54921 7.34203 0.802379
57 1 3 -0.0559 18.266 5.39949 13.5316
58 1 3 -0.0559 18.266 15.6923 1.38254
59 1 3 -0.055903 18.266 14.5575 0.580159
60 1 3 -0.055903 18.266 6.53422 14.334
61 1 3 -0.0559 26.1971 11.1132 7.85825
62 1 3 -0.0559 10.3349 9.9785 7.05587
63 1 3 -0.055903 10.3349 11.1132 7.85825
64 1 3 -0.055903 26.1971 9.9785 7.05587
65 1 3 -0.0559 14.7918 8.54005 0.580159
66 1 3 -0.0559 21.7402 12.5517 14.334
67 1 3 -0.055903 22.7229 13.1191 13.5316
68 1 3 -0.055903 13.8091 7.97268 1.38254
69 1 3 -0.0559 21.7402 3.39366 7.85825
70 1 3 -0.0559 14.7918 17.6981 7.05587
71 1 3 -0.055903 13.8091 17.1307 7.85825
72 1 3 -0.055903 22.7229 3.96103 7.05587
73 1 3 -0.055901 22.7229 17.1307 7.85825
74 1 3 -0.055901 13.8091 3.96103 7.05587
75 1 3 -0.055903 14.7918 3.39366 7.85825
76 1 3 -0.055903 21.7402 17.6981 7.05587
77 1 3 -0.0559 21.7402 8.54005 0.580159
78 1 3 -0.0559 14.7918 12.5517 14.334
79 1 3 -0.055903 13.8091 13.1191 13.5316
80 1 3 -0.055903 22.7229 7.97268 1.38254
81 1 4 -1.26215 27.399 15.8188 11.1856
82 1 4 -1.26215 9.13299 5.27293 3.72853
83 1 4 -0.60118 27.399 18.9383 11.9641
84 1 4 -0.60118 9.13299 2.15347 2.95001
85 1 4 -0.601179 27.399 17.5926 13.8671
86 1 4 -0.601179 9.13299 3.49912 1.04697
87 1 4 -0.601179 26.2336 13.3722 9.45555
88 1 4 -0.601179 10.2984 7.71958 5.45857
89 1 4 -0.60118 28.5643 13.3722 9.45555
90 1 4 -0.60118 7.96762 7.71958 5.45857
91 1 4 -0.60118 25.8628 14.9319 13.8671
92 1 4 -0.60118 10.6692 6.15984 1.04697
93 1 4 -0.601179 24.6974 14.2591 11.9641
94 1 4 -0.601179 11.8345 6.83267 2.95001
95 1 4 -0.60118 28.9351 18.0514 9.45555
96 1 4 -0.60118 7.59682 3.04037 5.45857
97 1 4 -0.601179 30.1005 16.0329 9.45555
98 1 4 -0.601179 6.43145 5.05885 5.45857
99 1 4 -0.601179 24.6974 16.0329 9.45555
100 1 4 -0.601179 11.8345 5.05885 5.45857
101 1 4 -0.60118 25.8628 18.0514 9.45555
102 1 4 -0.60118 10.6692 3.04037 5.45857
103 1 4 -0.60118 28.9351 14.9319 13.8671
104 1 4 -0.60118 7.59682 6.15984 1.04697
105 1 4 -0.60118 30.1005 14.2591 11.9641
106 1 4 -0.60118 6.43145 6.83267 2.95001
122 7 5 -0.35 18.6459 4.61839 6.44926
123 7 6 0.7 17.8972 3.90097 5.92926
124 7 5 -0.35 17.1486 3.18355 5.40926
125 8 5 -0.35 29.1252 15.569 6.46252
126 8 6 0.7 11.0525 14.4823 6.10589
127 8 5 -0.35 11.2458 13.3955 5.74925
128 9 5 -0.35 20.4858 6.2992 8.76668
129 9 6 0.7 20.5618 6.69604 7.67933
130 9 5 -0.35 20.6378 7.09288 6.59198
ITEM: TIMESTEP
56000
ITEM: NUMBER OF ATOMS
112
ITEM: BOX BOUNDS xy xz yz pp pp pp
0.0000000000000000e+00 3.6531964750000000e+01 9.1329911900000003e+00
0.0000000000000000e+00 2.1091739680000000e+01 9.1329911900000003e+00
0.0000000000000000e+00 1.4914112149999999e+01 5.2729349200000000e+00
ITEM: ATOMS id mol type q x y z
1 1 1 1.10383 27.399 17.6496 10.5383
2 1 1 1.10383 9.13299 3.44217 4.3758
3 1 1 1.10383 27.399 15.8188 13.1274
4 1 1 1.10383 9.13299 5.27293 1.78671
5 1 1 1.10383 25.8135 14.9034 10.5383
6 1 1 1.10383 10.7185 6.18832 4.3758
7 1 1 1.10383 28.9845 14.9034 10.5383
8 1 1 1.10383 7.5475 6.18832 4.3758
9 1 2 0.115889 18.266 5.48596 12.6084
10 1 2 0.115889 18.266 15.6058 2.30572
11 1 2 0.115888 18.266 13.716 0.969417
12 1 2 0.115888 18.266 7.37578 13.9447
13 1 2 0.11589 25.3934 11.4908 8.12521
14 1 2 0.11589 11.1386 9.60096 6.7889
15 1 2 0.115888 11.1386 11.4908 8.12521
16 1 2 0.115888 25.3934 9.60096 6.7889
17 1 2 0.115889 15.5206 8.96083 0.969417
18 1 2 0.115889 21.0114 12.1309 13.9447
19 1 2 0.115888 22.648 13.0758 12.6084
20 1 2 0.115888 13.884 8.01592 2.30572
21 1 2 0.115889 21.0114 3.90092 8.12521
22 1 2 0.115889 15.5206 17.1908 6.7889
23 1 2 0.115887 13.884 16.2459 8.12521
24 1 2 0.115887 22.648 4.84583 6.7889
25 1 2 0.115889 22.648 16.2459 8.12521
26 1 2 0.115889 13.884 4.84583 6.7889
27 1 2 0.115887 15.5206 3.90092 8.12521
28 1 2 0.115887 21.0114 17.1908 6.7889
29 1 2 0.115889 21.0114 8.96083 0.969417
30 1 2 0.115889 15.5206 12.1309 13.9447
31 1 2 0.115887 13.884 13.0758 12.6084
32 1 2 0.115887 22.648 8.01592 2.30572
33 1 3 0.671939 27.399 18.7442 13.2542
34 1 3 0.671939 9.13299 2.34751 1.65994
35 1 3 0.671939 27.399 12.8934 9.117
36 1 3 0.671939 9.13299 8.19836 5.79712
37 1 3 0.67194 24.8655 14.3561 13.2542
38 1 3 0.67194 11.6665 6.73565 1.65994
39 1 3 0.67194 29.9325 17.2815 9.117
40 1 3 0.67194 6.5995 3.81022 5.79712
41 1 3 0.67194 24.8655 17.2815 9.117
42 1 3 0.67194 11.6665 3.81022 5.79712
43 1 3 0.67194 29.9325 14.3561 13.2542
44 1 3 0.67194 6.5995 6.73565 1.65994
45 1 3 -0.11508 27.399 19.957 14.1117
46 1 3 -0.11508 9.13299 1.13474 0.802379
47 1 3 -0.11508 27.399 11.6806 8.25944
48 1 3 -0.11508 9.13299 9.41113 6.65468
49 1 3 -0.11508 23.8152 13.7497 14.1117
50 1 3 -0.11508 12.7168 7.34203 0.802379
51 1 3 -0.11508 30.9828 17.8879 8.25944
52 1 3 -0.11508 5.54921 3.20384 6.65468
53 1 3 -0.11508 23.8152 17.8879 8.25944
54 1 3 -0.11508 12.7168 3.20384 6.65468
55 1 3 -0.11508 30.9828 13.7497 14.1117
56 1 3 -0.11508 5.54921 7.34203 0.802379
57 1 3 -0.0559 18.266 5.39949 13.5316
58 1 3 -0.0559 18.266 15.6923 1.38254
59 1 3 -0.055903 18.266 14.5575 0.580159
60 1 3 -0.055903 18.266 6.53422 14.334
61 1 3 -0.0559 26.1971 11.1132 7.85825
62 1 3 -0.0559 10.3349 9.9785 7.05587
63 1 3 -0.055903 10.3349 11.1132 7.85825
64 1 3 -0.055903 26.1971 9.9785 7.05587
65 1 3 -0.0559 14.7918 8.54005 0.580159
66 1 3 -0.0559 21.7402 12.5517 14.334
67 1 3 -0.055903 22.7229 13.1191 13.5316
68 1 3 -0.055903 13.8091 7.97268 1.38254
69 1 3 -0.0559 21.7402 3.39366 7.85825
70 1 3 -0.0559 14.7918 17.6981 7.05587
71 1 3 -0.055903 13.8091 17.1307 7.85825
72 1 3 -0.055903 22.7229 3.96103 7.05587
73 1 3 -0.055901 22.7229 17.1307 7.85825
74 1 3 -0.055901 13.8091 3.96103 7.05587
75 1 3 -0.055903 14.7918 3.39366 7.85825
76 1 3 -0.055903 21.7402 17.6981 7.05587
77 1 3 -0.0559 21.7402 8.54005 0.580159
78 1 3 -0.0559 14.7918 12.5517 14.334
79 1 3 -0.055903 13.8091 13.1191 13.5316
80 1 3 -0.055903 22.7229 7.97268 1.38254
81 1 4 -1.26215 27.399 15.8188 11.1856
82 1 4 -1.26215 9.13299 5.27293 3.72853
83 1 4 -0.60118 27.399 18.9383 11.9641
84 1 4 -0.60118 9.13299 2.15347 2.95001
85 1 4 -0.601179 27.399 17.5926 13.8671
86 1 4 -0.601179 9.13299 3.49912 1.04697
87 1 4 -0.601179 26.2336 13.3722 9.45555
88 1 4 -0.601179 10.2984 7.71958 5.45857
89 1 4 -0.60118 28.5643 13.3722 9.45555
90 1 4 -0.60118 7.96762 7.71958 5.45857
91 1 4 -0.60118 25.8628 14.9319 13.8671
92 1 4 -0.60118 10.6692 6.15984 1.04697
93 1 4 -0.601179 24.6974 14.2591 11.9641
94 1 4 -0.601179 11.8345 6.83267 2.95001
95 1 4 -0.60118 28.9351 18.0514 9.45555
96 1 4 -0.60118 7.59682 3.04037 5.45857
97 1 4 -0.601179 30.1005 16.0329 9.45555
98 1 4 -0.601179 6.43145 5.05885 5.45857
99 1 4 -0.601179 24.6974 16.0329 9.45555
100 1 4 -0.601179 11.8345 5.05885 5.45857
101 1 4 -0.60118 25.8628 18.0514 9.45555
102 1 4 -0.60118 10.6692 3.04037 5.45857
103 1 4 -0.60118 28.9351 14.9319 13.8671
104 1 4 -0.60118 7.59682 6.15984 1.04697
105 1 4 -0.60118 30.1005 14.2591 11.9641
106 1 4 -0.60118 6.43145 6.83267 2.95001
113 4 5 -0.35 12.038 11.1098 0.294442
114 4 6 0.7 21.8124 16.7644 14.3205
115 4 5 -0.35 22.4538 17.146 13.4325
116 5 5 -0.35 14.0288 8.80884 13.5557
117 5 6 0.7 14.3243 9.37818 12.5892
118 5 5 -0.35 14.6198 9.94753 11.6227
ITEM: TIMESTEP
57000
ITEM: NUMBER OF ATOMS
109
ITEM: BOX BOUNDS xy xz yz pp pp pp
0.0000000000000000e+00 3.6531964750000000e+01 9.1329911900000003e+00
0.0000000000000000e+00 2.1091739680000000e+01 9.1329911900000003e+00
0.0000000000000000e+00 1.4914112149999999e+01 5.2729349200000000e+00
ITEM: ATOMS id mol type q x y z
1 1 1 1.10383 27.399 17.6496 10.5383
2 1 1 1.10383 9.13299 3.44217 4.3758
3 1 1 1.10383 27.399 15.8188 13.1274
4 1 1 1.10383 9.13299 5.27293 1.78671
5 1 1 1.10383 25.8135 14.9034 10.5383
6 1 1 1.10383 10.7185 6.18832 4.3758
7 1 1 1.10383 28.9845 14.9034 10.5383
8 1 1 1.10383 7.5475 6.18832 4.3758
9 1 2 0.115889 18.266 5.48596 12.6084
10 1 2 0.115889 18.266 15.6058 2.30572
11 1 2 0.115888 18.266 13.716 0.969417
12 1 2 0.115888 18.266 7.37578 13.9447
13 1 2 0.11589 25.3934 11.4908 8.12521
14 1 2 0.11589 11.1386 9.60096 6.7889
15 1 2 0.115888 11.1386 11.4908 8.12521
16 1 2 0.115888 25.3934 9.60096 6.7889
17 1 2 0.115889 15.5206 8.96083 0.969417
18 1 2 0.115889 21.0114 12.1309 13.9447
19 1 2 0.115888 22.648 13.0758 12.6084
20 1 2 0.115888 13.884 8.01592 2.30572
21 1 2 0.115889 21.0114 3.90092 8.12521
22 1 2 0.115889 15.5206 17.1908 6.7889
23 1 2 0.115887 13.884 16.2459 8.12521
24 1 2 0.115887 22.648 4.84583 6.7889
25 1 2 0.115889 22.648 16.2459 8.12521
26 1 2 0.115889 13.884 4.84583 6.7889
27 1 2 0.115887 15.5206 3.90092 8.12521
28 1 2 0.115887 21.0114 17.1908 6.7889
29 1 2 0.115889 21.0114 8.96083 0.969417
30 1 2 0.115889 15.5206 12.1309 13.9447
31 1 2 0.115887 13.884 13.0758 12.6084
32 1 2 0.115887 22.648 8.01592 2.30572
33 1 3 0.671939 27.399 18.7442 13.2542
34 1 3 0.671939 9.13299 2.34751 1.65994
35 1 3 0.671939 27.399 12.8934 9.117
36 1 3 0.671939 9.13299 8.19836 5.79712
37 1 3 0.67194 24.8655 14.3561 13.2542
38 1 3 0.67194 11.6665 6.73565 1.65994
39 1 3 0.67194 29.9325 17.2815 9.117
40 1 3 0.67194 6.5995 3.81022 5.79712
41 1 3 0.67194 24.8655 17.2815 9.117
42 1 3 0.67194 11.6665 3.81022 5.79712
43 1 3 0.67194 29.9325 14.3561 13.2542
44 1 3 0.67194 6.5995 6.73565 1.65994
45 1 3 -0.11508 27.399 19.957 14.1117
46 1 3 -0.11508 9.13299 1.13474 0.802379
47 1 3 -0.11508 27.399 11.6806 8.25944
48 1 3 -0.11508 9.13299 9.41113 6.65468
49 1 3 -0.11508 23.8152 13.7497 14.1117
50 1 3 -0.11508 12.7168 7.34203 0.802379
51 1 3 -0.11508 30.9828 17.8879 8.25944
52 1 3 -0.11508 5.54921 3.20384 6.65468
53 1 3 -0.11508 23.8152 17.8879 8.25944
54 1 3 -0.11508 12.7168 3.20384 6.65468
55 1 3 -0.11508 30.9828 13.7497 14.1117
56 1 3 -0.11508 5.54921 7.34203 0.802379
57 1 3 -0.0559 18.266 5.39949 13.5316
58 1 3 -0.0559 18.266 15.6923 1.38254
59 1 3 -0.055903 18.266 14.5575 0.580159
60 1 3 -0.055903 18.266 6.53422 14.334
61 1 3 -0.0559 26.1971 11.1132 7.85825
62 1 3 -0.0559 10.3349 9.9785 7.05587
63 1 3 -0.055903 10.3349 11.1132 7.85825
64 1 3 -0.055903 26.1971 9.9785 7.05587
65 1 3 -0.0559 14.7918 8.54005 0.580159
66 1 3 -0.0559 21.7402 12.5517 14.334
67 1 3 -0.055903 22.7229 13.1191 13.5316
68 1 3 -0.055903 13.8091 7.97268 1.38254
69 1 3 -0.0559 21.7402 3.39366 7.85825
70 1 3 -0.0559 14.7918 17.6981 7.05587
71 1 3 -0.055903 13.8091 17.1307 7.85825
72 1 3 -0.055903 22.7229 3.96103 7.05587
73 1 3 -0.055901 22.7229 17.1307 7.85825
74 1 3 -0.055901 13.8091 3.96103 7.05587
75 1 3 -0.055903 14.7918 3.39366 7.85825
76 1 3 -0.055903 21.7402 17.6981 7.05587
77 1 3 -0.0559 21.7402 8.54005 0.580159
78 1 3 -0.0559 14.7918 12.5517 14.334
79 1 3 -0.055903 13.8091 13.1191 13.5316
80 1 3 -0.055903 22.7229 7.97268 1.38254
81 1 4 -1.26215 27.399 15.8188 11.1856
82 1 4 -1.26215 9.13299 5.27293 3.72853
83 1 4 -0.60118 27.399 18.9383 11.9641
84 1 4 -0.60118 9.13299 2.15347 2.95001
85 1 4 -0.601179 27.399 17.5926 13.8671
86 1 4 -0.601179 9.13299 3.49912 1.04697
87 1 4 -0.601179 26.2336 13.3722 9.45555
88 1 4 -0.601179 10.2984 7.71958 5.45857
89 1 4 -0.60118 28.5643 13.3722 9.45555
90 1 4 -0.60118 7.96762 7.71958 5.45857
91 1 4 -0.60118 25.8628 14.9319 13.8671
92 1 4 -0.60118 10.6692 6.15984 1.04697
93 1 4 -0.601179 24.6974 14.2591 11.9641
94 1 4 -0.601179 11.8345 6.83267 2.95001
95 1 4 -0.60118 28.9351 18.0514 9.45555
96 1 4 -0.60118 7.59682 3.04037 5.45857
97 1 4 -0.601179 30.1005 16.0329 9.45555
98 1 4 -0.601179 6.43145 5.05885 5.45857
99 1 4 -0.601179 24.6974 16.0329 9.45555
100 1 4 -0.601179 11.8345 5.05885 5.45857
101 1 4 -0.60118 25.8628 18.0514 9.45555
102 1 4 -0.60118 10.6692 3.04037 5.45857
103 1 4 -0.60118 28.9351 14.9319 13.8671
104 1 4 -0.60118 7.59682 6.15984 1.04697
105 1 4 -0.60118 30.1005 14.2591 11.9641
106 1 4 -0.60118 6.43145 6.83267 2.95001
122 7 5 -0.35 13.1548 9.49648 4.04399
123 7 6 0.7 12.0934 9.93461 3.87925
124 7 5 -0.35 11.032 10.3727 3.71452
ITEM: TIMESTEP
58000
ITEM: NUMBER OF ATOMS
106
ITEM: BOX BOUNDS xy xz yz pp pp pp
0.0000000000000000e+00 3.6531964750000000e+01 9.1329911900000003e+00
0.0000000000000000e+00 2.1091739680000000e+01 9.1329911900000003e+00
0.0000000000000000e+00 1.4914112149999999e+01 5.2729349200000000e+00
ITEM: ATOMS id mol type q x y z
1 1 1 1.10383 27.399 17.6496 10.5383
2 1 1 1.10383 9.13299 3.44217 4.3758
3 1 1 1.10383 27.399 15.8188 13.1274
4 1 1 1.10383 9.13299 5.27293 1.78671
5 1 1 1.10383 25.8135 14.9034 10.5383
6 1 1 1.10383 10.7185 6.18832 4.3758
7 1 1 1.10383 28.9845 14.9034 10.5383
8 1 1 1.10383 7.5475 6.18832 4.3758
9 1 2 0.115889 18.266 5.48596 12.6084
10 1 2 0.115889 18.266 15.6058 2.30572
11 1 2 0.115888 18.266 13.716 0.969417
12 1 2 0.115888 18.266 7.37578 13.9447
13 1 2 0.11589 25.3934 11.4908 8.12521
14 1 2 0.11589 11.1386 9.60096 6.7889
15 1 2 0.115888 11.1386 11.4908 8.12521
16 1 2 0.115888 25.3934 9.60096 6.7889
17 1 2 0.115889 15.5206 8.96083 0.969417
18 1 2 0.115889 21.0114 12.1309 13.9447
19 1 2 0.115888 22.648 13.0758 12.6084
20 1 2 0.115888 13.884 8.01592 2.30572
21 1 2 0.115889 21.0114 3.90092 8.12521
22 1 2 0.115889 15.5206 17.1908 6.7889
23 1 2 0.115887 13.884 16.2459 8.12521
24 1 2 0.115887 22.648 4.84583 6.7889
25 1 2 0.115889 22.648 16.2459 8.12521
26 1 2 0.115889 13.884 4.84583 6.7889
27 1 2 0.115887 15.5206 3.90092 8.12521
28 1 2 0.115887 21.0114 17.1908 6.7889
29 1 2 0.115889 21.0114 8.96083 0.969417
30 1 2 0.115889 15.5206 12.1309 13.9447
31 1 2 0.115887 13.884 13.0758 12.6084
32 1 2 0.115887 22.648 8.01592 2.30572
33 1 3 0.671939 27.399 18.7442 13.2542
34 1 3 0.671939 9.13299 2.34751 1.65994
35 1 3 0.671939 27.399 12.8934 9.117
36 1 3 0.671939 9.13299 8.19836 5.79712
37 1 3 0.67194 24.8655 14.3561 13.2542
38 1 3 0.67194 11.6665 6.73565 1.65994
39 1 3 0.67194 29.9325 17.2815 9.117
40 1 3 0.67194 6.5995 3.81022 5.79712
41 1 3 0.67194 24.8655 17.2815 9.117
42 1 3 0.67194 11.6665 3.81022 5.79712
43 1 3 0.67194 29.9325 14.3561 13.2542
44 1 3 0.67194 6.5995 6.73565 1.65994
45 1 3 -0.11508 27.399 19.957 14.1117
46 1 3 -0.11508 9.13299 1.13474 0.802379
47 1 3 -0.11508 27.399 11.6806 8.25944
48 1 3 -0.11508 9.13299 9.41113 6.65468
49 1 3 -0.11508 23.8152 13.7497 14.1117
50 1 3 -0.11508 12.7168 7.34203 0.802379
51 1 3 -0.11508 30.9828 17.8879 8.25944
52 1 3 -0.11508 5.54921 3.20384 6.65468
53 1 3 -0.11508 23.8152 17.8879 8.25944
54 1 3 -0.11508 12.7168 3.20384 6.65468
55 1 3 -0.11508 30.9828 13.7497 14.1117
56 1 3 -0.11508 5.54921 7.34203 0.802379
57 1 3 -0.0559 18.266 5.39949 13.5316
58 1 3 -0.0559 18.266 15.6923 1.38254
59 1 3 -0.055903 18.266 14.5575 0.580159
60 1 3 -0.055903 18.266 6.53422 14.334
61 1 3 -0.0559 26.1971 11.1132 7.85825
62 1 3 -0.0559 10.3349 9.9785 7.05587
63 1 3 -0.055903 10.3349 11.1132 7.85825
64 1 3 -0.055903 26.1971 9.9785 7.05587
65 1 3 -0.0559 14.7918 8.54005 0.580159
66 1 3 -0.0559 21.7402 12.5517 14.334
67 1 3 -0.055903 22.7229 13.1191 13.5316
68 1 3 -0.055903 13.8091 7.97268 1.38254
69 1 3 -0.0559 21.7402 3.39366 7.85825
70 1 3 -0.0559 14.7918 17.6981 7.05587
71 1 3 -0.055903 13.8091 17.1307 7.85825
72 1 3 -0.055903 22.7229 3.96103 7.05587
73 1 3 -0.055901 22.7229 17.1307 7.85825
74 1 3 -0.055901 13.8091 3.96103 7.05587
75 1 3 -0.055903 14.7918 3.39366 7.85825
76 1 3 -0.055903 21.7402 17.6981 7.05587
77 1 3 -0.0559 21.7402 8.54005 0.580159
78 1 3 -0.0559 14.7918 12.5517 14.334
79 1 3 -0.055903 13.8091 13.1191 13.5316
80 1 3 -0.055903 22.7229 7.97268 1.38254
81 1 4 -1.26215 27.399 15.8188 11.1856
82 1 4 -1.26215 9.13299 5.27293 3.72853
83 1 4 -0.60118 27.399 18.9383 11.9641
84 1 4 -0.60118 9.13299 2.15347 2.95001
85 1 4 -0.601179 27.399 17.5926 13.8671
86 1 4 -0.601179 9.13299 3.49912 1.04697
87 1 4 -0.601179 26.2336 13.3722 9.45555
88 1 4 -0.601179 10.2984 7.71958 5.45857
89 1 4 -0.60118 28.5643 13.3722 9.45555
90 1 4 -0.60118 7.96762 7.71958 5.45857
91 1 4 -0.60118 25.8628 14.9319 13.8671
92 1 4 -0.60118 10.6692 6.15984 1.04697
93 1 4 -0.601179 24.6974 14.2591 11.9641
94 1 4 -0.601179 11.8345 6.83267 2.95001
95 1 4 -0.60118 28.9351 18.0514 9.45555
96 1 4 -0.60118 7.59682 3.04037 5.45857
97 1 4 -0.601179 30.1005 16.0329 9.45555
98 1 4 -0.601179 6.43145 5.05885 5.45857
99 1 4 -0.601179 24.6974 16.0329 9.45555
100 1 4 -0.601179 11.8345 5.05885 5.45857
101 1 4 -0.60118 25.8628 18.0514 9.45555
102 1 4 -0.60118 10.6692 3.04037 5.45857
103 1 4 -0.60118 28.9351 14.9319 13.8671
104 1 4 -0.60118 7.59682 6.15984 1.04697
105 1 4 -0.60118 30.1005 14.2591 11.9641
106 1 4 -0.60118 6.43145 6.83267 2.95001
ITEM: TIMESTEP
59000
ITEM: NUMBER OF ATOMS
112
ITEM: BOX BOUNDS xy xz yz pp pp pp
0.0000000000000000e+00 3.6531964750000000e+01 9.1329911900000003e+00
0.0000000000000000e+00 2.1091739680000000e+01 9.1329911900000003e+00
0.0000000000000000e+00 1.4914112149999999e+01 5.2729349200000000e+00
ITEM: ATOMS id mol type q x y z
1 1 1 1.10383 27.399 17.6496 10.5383
2 1 1 1.10383 9.13299 3.44217 4.3758
3 1 1 1.10383 27.399 15.8188 13.1274
4 1 1 1.10383 9.13299 5.27293 1.78671
5 1 1 1.10383 25.8135 14.9034 10.5383
6 1 1 1.10383 10.7185 6.18832 4.3758
7 1 1 1.10383 28.9845 14.9034 10.5383
8 1 1 1.10383 7.5475 6.18832 4.3758
9 1 2 0.115889 18.266 5.48596 12.6084
10 1 2 0.115889 18.266 15.6058 2.30572
11 1 2 0.115888 18.266 13.716 0.969417
12 1 2 0.115888 18.266 7.37578 13.9447
13 1 2 0.11589 25.3934 11.4908 8.12521
14 1 2 0.11589 11.1386 9.60096 6.7889
15 1 2 0.115888 11.1386 11.4908 8.12521
16 1 2 0.115888 25.3934 9.60096 6.7889
17 1 2 0.115889 15.5206 8.96083 0.969417
18 1 2 0.115889 21.0114 12.1309 13.9447
19 1 2 0.115888 22.648 13.0758 12.6084
20 1 2 0.115888 13.884 8.01592 2.30572
21 1 2 0.115889 21.0114 3.90092 8.12521
22 1 2 0.115889 15.5206 17.1908 6.7889
23 1 2 0.115887 13.884 16.2459 8.12521
24 1 2 0.115887 22.648 4.84583 6.7889
25 1 2 0.115889 22.648 16.2459 8.12521
26 1 2 0.115889 13.884 4.84583 6.7889
27 1 2 0.115887 15.5206 3.90092 8.12521
28 1 2 0.115887 21.0114 17.1908 6.7889
29 1 2 0.115889 21.0114 8.96083 0.969417
30 1 2 0.115889 15.5206 12.1309 13.9447
31 1 2 0.115887 13.884 13.0758 12.6084
32 1 2 0.115887 22.648 8.01592 2.30572
33 1 3 0.671939 27.399 18.7442 13.2542
34 1 3 0.671939 9.13299 2.34751 1.65994
35 1 3 0.671939 27.399 12.8934 9.117
36 1 3 0.671939 9.13299 8.19836 5.79712
37 1 3 0.67194 24.8655 14.3561 13.2542
38 1 3 0.67194 11.6665 6.73565 1.65994
39 1 3 0.67194 29.9325 17.2815 9.117
40 1 3 0.67194 6.5995 3.81022 5.79712
41 1 3 0.67194 24.8655 17.2815 9.117
42 1 3 0.67194 11.6665 3.81022 5.79712
43 1 3 0.67194 29.9325 14.3561 13.2542
44 1 3 0.67194 6.5995 6.73565 1.65994
45 1 3 -0.11508 27.399 19.957 14.1117
46 1 3 -0.11508 9.13299 1.13474 0.802379
47 1 3 -0.11508 27.399 11.6806 8.25944
48 1 3 -0.11508 9.13299 9.41113 6.65468
49 1 3 -0.11508 23.8152 13.7497 14.1117
50 1 3 -0.11508 12.7168 7.34203 0.802379
51 1 3 -0.11508 30.9828 17.8879 8.25944
52 1 3 -0.11508 5.54921 3.20384 6.65468
53 1 3 -0.11508 23.8152 17.8879 8.25944
54 1 3 -0.11508 12.7168 3.20384 6.65468
55 1 3 -0.11508 30.9828 13.7497 14.1117
56 1 3 -0.11508 5.54921 7.34203 0.802379
57 1 3 -0.0559 18.266 5.39949 13.5316
58 1 3 -0.0559 18.266 15.6923 1.38254
59 1 3 -0.055903 18.266 14.5575 0.580159
60 1 3 -0.055903 18.266 6.53422 14.334
61 1 3 -0.0559 26.1971 11.1132 7.85825
62 1 3 -0.0559 10.3349 9.9785 7.05587
63 1 3 -0.055903 10.3349 11.1132 7.85825
64 1 3 -0.055903 26.1971 9.9785 7.05587
65 1 3 -0.0559 14.7918 8.54005 0.580159
66 1 3 -0.0559 21.7402 12.5517 14.334
67 1 3 -0.055903 22.7229 13.1191 13.5316
68 1 3 -0.055903 13.8091 7.97268 1.38254
69 1 3 -0.0559 21.7402 3.39366 7.85825
70 1 3 -0.0559 14.7918 17.6981 7.05587
71 1 3 -0.055903 13.8091 17.1307 7.85825
72 1 3 -0.055903 22.7229 3.96103 7.05587
73 1 3 -0.055901 22.7229 17.1307 7.85825
74 1 3 -0.055901 13.8091 3.96103 7.05587
75 1 3 -0.055903 14.7918 3.39366 7.85825
76 1 3 -0.055903 21.7402 17.6981 7.05587
77 1 3 -0.0559 21.7402 8.54005 0.580159
78 1 3 -0.0559 14.7918 12.5517 14.334
79 1 3 -0.055903 13.8091 13.1191 13.5316
80 1 3 -0.055903 22.7229 7.97268 1.38254
81 1 4 -1.26215 27.399 15.8188 11.1856
82 1 4 -1.26215 9.13299 5.27293 3.72853
83 1 4 -0.60118 27.399 18.9383 11.9641
84 1 4 -0.60118 9.13299 2.15347 2.95001
85 1 4 -0.601179 27.399 17.5926 13.8671
86 1 4 -0.601179 9.13299 3.49912 1.04697
87 1 4 -0.601179 26.2336 13.3722 9.45555
88 1 4 -0.601179 10.2984 7.71958 5.45857
89 1 4 -0.60118 28.5643 13.3722 9.45555
90 1 4 -0.60118 7.96762 7.71958 5.45857
91 1 4 -0.60118 25.8628 14.9319 13.8671
92 1 4 -0.60118 10.6692 6.15984 1.04697
93 1 4 -0.601179 24.6974 14.2591 11.9641
94 1 4 -0.601179 11.8345 6.83267 2.95001
95 1 4 -0.60118 28.9351 18.0514 9.45555
96 1 4 -0.60118 7.59682 3.04037 5.45857
97 1 4 -0.601179 30.1005 16.0329 9.45555
98 1 4 -0.601179 6.43145 5.05885 5.45857
99 1 4 -0.601179 24.6974 16.0329 9.45555
100 1 4 -0.601179 11.8345 5.05885 5.45857
101 1 4 -0.60118 25.8628 18.0514 9.45555
102 1 4 -0.60118 10.6692 3.04037 5.45857
103 1 4 -0.60118 28.9351 14.9319 13.8671
104 1 4 -0.60118 7.59682 6.15984 1.04697
105 1 4 -0.60118 30.1005 14.2591 11.9641
106 1 4 -0.60118 6.43145 6.83267 2.95001
116 5 5 -0.35 12.6194 9.82004 13.0254
117 5 6 0.7 12.3497 10.0633 14.1271
118 5 5 -0.35 21.2131 5.03361 0.314692
119 6 5 -0.35 31.9847 18.3803 11.93
120 6 6 0.7 31.4197 18.1754 12.9222
121 6 5 -0.35 30.8547 17.9705 13.9143
ITEM: TIMESTEP
60000
ITEM: NUMBER OF ATOMS
112
ITEM: BOX BOUNDS xy xz yz pp pp pp
0.0000000000000000e+00 3.6531964750000000e+01 9.1329911900000003e+00
0.0000000000000000e+00 2.1091739680000000e+01 9.1329911900000003e+00
0.0000000000000000e+00 1.4914112149999999e+01 5.2729349200000000e+00
ITEM: ATOMS id mol type q x y z
1 1 1 1.10383 27.399 17.6496 10.5383
2 1 1 1.10383 9.13299 3.44217 4.3758
3 1 1 1.10383 27.399 15.8188 13.1274
4 1 1 1.10383 9.13299 5.27293 1.78671
5 1 1 1.10383 25.8135 14.9034 10.5383
6 1 1 1.10383 10.7185 6.18832 4.3758
7 1 1 1.10383 28.9845 14.9034 10.5383
8 1 1 1.10383 7.5475 6.18832 4.3758
9 1 2 0.115889 18.266 5.48596 12.6084
10 1 2 0.115889 18.266 15.6058 2.30572
11 1 2 0.115888 18.266 13.716 0.969417
12 1 2 0.115888 18.266 7.37578 13.9447
13 1 2 0.11589 25.3934 11.4908 8.12521
14 1 2 0.11589 11.1386 9.60096 6.7889
15 1 2 0.115888 11.1386 11.4908 8.12521
16 1 2 0.115888 25.3934 9.60096 6.7889
17 1 2 0.115889 15.5206 8.96083 0.969417
18 1 2 0.115889 21.0114 12.1309 13.9447
19 1 2 0.115888 22.648 13.0758 12.6084
20 1 2 0.115888 13.884 8.01592 2.30572
21 1 2 0.115889 21.0114 3.90092 8.12521
22 1 2 0.115889 15.5206 17.1908 6.7889
23 1 2 0.115887 13.884 16.2459 8.12521
24 1 2 0.115887 22.648 4.84583 6.7889
25 1 2 0.115889 22.648 16.2459 8.12521
26 1 2 0.115889 13.884 4.84583 6.7889
27 1 2 0.115887 15.5206 3.90092 8.12521
28 1 2 0.115887 21.0114 17.1908 6.7889
29 1 2 0.115889 21.0114 8.96083 0.969417
30 1 2 0.115889 15.5206 12.1309 13.9447
31 1 2 0.115887 13.884 13.0758 12.6084
32 1 2 0.115887 22.648 8.01592 2.30572
33 1 3 0.671939 27.399 18.7442 13.2542
34 1 3 0.671939 9.13299 2.34751 1.65994
35 1 3 0.671939 27.399 12.8934 9.117
36 1 3 0.671939 9.13299 8.19836 5.79712
37 1 3 0.67194 24.8655 14.3561 13.2542
38 1 3 0.67194 11.6665 6.73565 1.65994
39 1 3 0.67194 29.9325 17.2815 9.117
40 1 3 0.67194 6.5995 3.81022 5.79712
41 1 3 0.67194 24.8655 17.2815 9.117
42 1 3 0.67194 11.6665 3.81022 5.79712
43 1 3 0.67194 29.9325 14.3561 13.2542
44 1 3 0.67194 6.5995 6.73565 1.65994
45 1 3 -0.11508 27.399 19.957 14.1117
46 1 3 -0.11508 9.13299 1.13474 0.802379
47 1 3 -0.11508 27.399 11.6806 8.25944
48 1 3 -0.11508 9.13299 9.41113 6.65468
49 1 3 -0.11508 23.8152 13.7497 14.1117
50 1 3 -0.11508 12.7168 7.34203 0.802379
51 1 3 -0.11508 30.9828 17.8879 8.25944
52 1 3 -0.11508 5.54921 3.20384 6.65468
53 1 3 -0.11508 23.8152 17.8879 8.25944
54 1 3 -0.11508 12.7168 3.20384 6.65468
55 1 3 -0.11508 30.9828 13.7497 14.1117
56 1 3 -0.11508 5.54921 7.34203 0.802379
57 1 3 -0.0559 18.266 5.39949 13.5316
58 1 3 -0.0559 18.266 15.6923 1.38254
59 1 3 -0.055903 18.266 14.5575 0.580159
60 1 3 -0.055903 18.266 6.53422 14.334
61 1 3 -0.0559 26.1971 11.1132 7.85825
62 1 3 -0.0559 10.3349 9.9785 7.05587
63 1 3 -0.055903 10.3349 11.1132 7.85825
64 1 3 -0.055903 26.1971 9.9785 7.05587
65 1 3 -0.0559 14.7918 8.54005 0.580159
66 1 3 -0.0559 21.7402 12.5517 14.334
67 1 3 -0.055903 22.7229 13.1191 13.5316
68 1 3 -0.055903 13.8091 7.97268 1.38254
69 1 3 -0.0559 21.7402 3.39366 7.85825
70 1 3 -0.0559 14.7918 17.6981 7.05587
71 1 3 -0.055903 13.8091 17.1307 7.85825
72 1 3 -0.055903 22.7229 3.96103 7.05587
73 1 3 -0.055901 22.7229 17.1307 7.85825
74 1 3 -0.055901 13.8091 3.96103 7.05587
75 1 3 -0.055903 14.7918 3.39366 7.85825
76 1 3 -0.055903 21.7402 17.6981 7.05587
77 1 3 -0.0559 21.7402 8.54005 0.580159
78 1 3 -0.0559 14.7918 12.5517 14.334
79 1 3 -0.055903 13.8091 13.1191 13.5316
80 1 3 -0.055903 22.7229 7.97268 1.38254
81 1 4 -1.26215 27.399 15.8188 11.1856
82 1 4 -1.26215 9.13299 5.27293 3.72853
83 1 4 -0.60118 27.399 18.9383 11.9641
84 1 4 -0.60118 9.13299 2.15347 2.95001
85 1 4 -0.601179 27.399 17.5926 13.8671
86 1 4 -0.601179 9.13299 3.49912 1.04697
87 1 4 -0.601179 26.2336 13.3722 9.45555
88 1 4 -0.601179 10.2984 7.71958 5.45857
89 1 4 -0.60118 28.5643 13.3722 9.45555
90 1 4 -0.60118 7.96762 7.71958 5.45857
91 1 4 -0.60118 25.8628 14.9319 13.8671
92 1 4 -0.60118 10.6692 6.15984 1.04697
93 1 4 -0.601179 24.6974 14.2591 11.9641
94 1 4 -0.601179 11.8345 6.83267 2.95001
95 1 4 -0.60118 28.9351 18.0514 9.45555
96 1 4 -0.60118 7.59682 3.04037 5.45857
97 1 4 -0.601179 30.1005 16.0329 9.45555
98 1 4 -0.601179 6.43145 5.05885 5.45857
99 1 4 -0.601179 24.6974 16.0329 9.45555
100 1 4 -0.601179 11.8345 5.05885 5.45857
101 1 4 -0.60118 25.8628 18.0514 9.45555
102 1 4 -0.60118 10.6692 3.04037 5.45857
103 1 4 -0.60118 28.9351 14.9319 13.8671
104 1 4 -0.60118 7.59682 6.15984 1.04697
105 1 4 -0.60118 30.1005 14.2591 11.9641
106 1 4 -0.60118 6.43145 6.83267 2.95001
107 2 5 -0.35 19.0934 16.3295 10.9817
108 2 6 0.7 19.8915 17.0731 10.5872
109 2 5 -0.35 20.6896 17.8168 10.1927
110 3 5 -0.35 16.9636 4.60174 5.58157
111 3 6 0.7 17.879 3.91925 5.37677
112 3 5 -0.35 18.7943 3.23677 5.17197
ITEM: TIMESTEP
61000
ITEM: NUMBER OF ATOMS
109
ITEM: BOX BOUNDS xy xz yz pp pp pp
0.0000000000000000e+00 3.6531964750000000e+01 9.1329911900000003e+00
0.0000000000000000e+00 2.1091739680000000e+01 9.1329911900000003e+00
0.0000000000000000e+00 1.4914112149999999e+01 5.2729349200000000e+00
ITEM: ATOMS id mol type q x y z
1 1 1 1.10383 27.399 17.6496 10.5383
2 1 1 1.10383 9.13299 3.44217 4.3758
3 1 1 1.10383 27.399 15.8188 13.1274
4 1 1 1.10383 9.13299 5.27293 1.78671
5 1 1 1.10383 25.8135 14.9034 10.5383
6 1 1 1.10383 10.7185 6.18832 4.3758
7 1 1 1.10383 28.9845 14.9034 10.5383
8 1 1 1.10383 7.5475 6.18832 4.3758
9 1 2 0.115889 18.266 5.48596 12.6084
10 1 2 0.115889 18.266 15.6058 2.30572
11 1 2 0.115888 18.266 13.716 0.969417
12 1 2 0.115888 18.266 7.37578 13.9447
13 1 2 0.11589 25.3934 11.4908 8.12521
14 1 2 0.11589 11.1386 9.60096 6.7889
15 1 2 0.115888 11.1386 11.4908 8.12521
16 1 2 0.115888 25.3934 9.60096 6.7889
17 1 2 0.115889 15.5206 8.96083 0.969417
18 1 2 0.115889 21.0114 12.1309 13.9447
19 1 2 0.115888 22.648 13.0758 12.6084
20 1 2 0.115888 13.884 8.01592 2.30572
21 1 2 0.115889 21.0114 3.90092 8.12521
22 1 2 0.115889 15.5206 17.1908 6.7889
23 1 2 0.115887 13.884 16.2459 8.12521
24 1 2 0.115887 22.648 4.84583 6.7889
25 1 2 0.115889 22.648 16.2459 8.12521
26 1 2 0.115889 13.884 4.84583 6.7889
27 1 2 0.115887 15.5206 3.90092 8.12521
28 1 2 0.115887 21.0114 17.1908 6.7889
29 1 2 0.115889 21.0114 8.96083 0.969417
30 1 2 0.115889 15.5206 12.1309 13.9447
31 1 2 0.115887 13.884 13.0758 12.6084
32 1 2 0.115887 22.648 8.01592 2.30572
33 1 3 0.671939 27.399 18.7442 13.2542
34 1 3 0.671939 9.13299 2.34751 1.65994
35 1 3 0.671939 27.399 12.8934 9.117
36 1 3 0.671939 9.13299 8.19836 5.79712
37 1 3 0.67194 24.8655 14.3561 13.2542
38 1 3 0.67194 11.6665 6.73565 1.65994
39 1 3 0.67194 29.9325 17.2815 9.117
40 1 3 0.67194 6.5995 3.81022 5.79712
41 1 3 0.67194 24.8655 17.2815 9.117
42 1 3 0.67194 11.6665 3.81022 5.79712
43 1 3 0.67194 29.9325 14.3561 13.2542
44 1 3 0.67194 6.5995 6.73565 1.65994
45 1 3 -0.11508 27.399 19.957 14.1117
46 1 3 -0.11508 9.13299 1.13474 0.802379
47 1 3 -0.11508 27.399 11.6806 8.25944
48 1 3 -0.11508 9.13299 9.41113 6.65468
49 1 3 -0.11508 23.8152 13.7497 14.1117
50 1 3 -0.11508 12.7168 7.34203 0.802379
51 1 3 -0.11508 30.9828 17.8879 8.25944
52 1 3 -0.11508 5.54921 3.20384 6.65468
53 1 3 -0.11508 23.8152 17.8879 8.25944
54 1 3 -0.11508 12.7168 3.20384 6.65468
55 1 3 -0.11508 30.9828 13.7497 14.1117
56 1 3 -0.11508 5.54921 7.34203 0.802379
57 1 3 -0.0559 18.266 5.39949 13.5316
58 1 3 -0.0559 18.266 15.6923 1.38254
59 1 3 -0.055903 18.266 14.5575 0.580159
60 1 3 -0.055903 18.266 6.53422 14.334
61 1 3 -0.0559 26.1971 11.1132 7.85825
62 1 3 -0.0559 10.3349 9.9785 7.05587
63 1 3 -0.055903 10.3349 11.1132 7.85825
64 1 3 -0.055903 26.1971 9.9785 7.05587
65 1 3 -0.0559 14.7918 8.54005 0.580159
66 1 3 -0.0559 21.7402 12.5517 14.334
67 1 3 -0.055903 22.7229 13.1191 13.5316
68 1 3 -0.055903 13.8091 7.97268 1.38254
69 1 3 -0.0559 21.7402 3.39366 7.85825
70 1 3 -0.0559 14.7918 17.6981 7.05587
71 1 3 -0.055903 13.8091 17.1307 7.85825
72 1 3 -0.055903 22.7229 3.96103 7.05587
73 1 3 -0.055901 22.7229 17.1307 7.85825
74 1 3 -0.055901 13.8091 3.96103 7.05587
75 1 3 -0.055903 14.7918 3.39366 7.85825
76 1 3 -0.055903 21.7402 17.6981 7.05587
77 1 3 -0.0559 21.7402 8.54005 0.580159
78 1 3 -0.0559 14.7918 12.5517 14.334
79 1 3 -0.055903 13.8091 13.1191 13.5316
80 1 3 -0.055903 22.7229 7.97268 1.38254
81 1 4 -1.26215 27.399 15.8188 11.1856
82 1 4 -1.26215 9.13299 5.27293 3.72853
83 1 4 -0.60118 27.399 18.9383 11.9641
84 1 4 -0.60118 9.13299 2.15347 2.95001
85 1 4 -0.601179 27.399 17.5926 13.8671
86 1 4 -0.601179 9.13299 3.49912 1.04697
87 1 4 -0.601179 26.2336 13.3722 9.45555
88 1 4 -0.601179 10.2984 7.71958 5.45857
89 1 4 -0.60118 28.5643 13.3722 9.45555
90 1 4 -0.60118 7.96762 7.71958 5.45857
91 1 4 -0.60118 25.8628 14.9319 13.8671
92 1 4 -0.60118 10.6692 6.15984 1.04697
93 1 4 -0.601179 24.6974 14.2591 11.9641
94 1 4 -0.601179 11.8345 6.83267 2.95001
95 1 4 -0.60118 28.9351 18.0514 9.45555
96 1 4 -0.60118 7.59682 3.04037 5.45857
97 1 4 -0.601179 30.1005 16.0329 9.45555
98 1 4 -0.601179 6.43145 5.05885 5.45857
99 1 4 -0.601179 24.6974 16.0329 9.45555
100 1 4 -0.601179 11.8345 5.05885 5.45857
101 1 4 -0.60118 25.8628 18.0514 9.45555
102 1 4 -0.60118 10.6692 3.04037 5.45857
103 1 4 -0.60118 28.9351 14.9319 13.8671
104 1 4 -0.60118 7.59682 6.15984 1.04697
105 1 4 -0.60118 30.1005 14.2591 11.9641
106 1 4 -0.60118 6.43145 6.83267 2.95001
107 2 5 -0.35 17.8492 4.2768 1.92706
108 2 6 0.7 18.5058 5.22515 2.04998
109 2 5 -0.35 19.1624 6.17351 2.1729
ITEM: TIMESTEP
62000
ITEM: NUMBER OF ATOMS
112
ITEM: BOX BOUNDS xy xz yz pp pp pp
0.0000000000000000e+00 3.6531964750000000e+01 9.1329911900000003e+00
0.0000000000000000e+00 2.1091739680000000e+01 9.1329911900000003e+00
0.0000000000000000e+00 1.4914112149999999e+01 5.2729349200000000e+00
ITEM: ATOMS id mol type q x y z
1 1 1 1.10383 27.399 17.6496 10.5383
2 1 1 1.10383 9.13299 3.44217 4.3758
3 1 1 1.10383 27.399 15.8188 13.1274
4 1 1 1.10383 9.13299 5.27293 1.78671
5 1 1 1.10383 25.8135 14.9034 10.5383
6 1 1 1.10383 10.7185 6.18832 4.3758
7 1 1 1.10383 28.9845 14.9034 10.5383
8 1 1 1.10383 7.5475 6.18832 4.3758
9 1 2 0.115889 18.266 5.48596 12.6084
10 1 2 0.115889 18.266 15.6058 2.30572
11 1 2 0.115888 18.266 13.716 0.969417
12 1 2 0.115888 18.266 7.37578 13.9447
13 1 2 0.11589 25.3934 11.4908 8.12521
14 1 2 0.11589 11.1386 9.60096 6.7889
15 1 2 0.115888 11.1386 11.4908 8.12521
16 1 2 0.115888 25.3934 9.60096 6.7889
17 1 2 0.115889 15.5206 8.96083 0.969417
18 1 2 0.115889 21.0114 12.1309 13.9447
19 1 2 0.115888 22.648 13.0758 12.6084
20 1 2 0.115888 13.884 8.01592 2.30572
21 1 2 0.115889 21.0114 3.90092 8.12521
22 1 2 0.115889 15.5206 17.1908 6.7889
23 1 2 0.115887 13.884 16.2459 8.12521
24 1 2 0.115887 22.648 4.84583 6.7889
25 1 2 0.115889 22.648 16.2459 8.12521
26 1 2 0.115889 13.884 4.84583 6.7889
27 1 2 0.115887 15.5206 3.90092 8.12521
28 1 2 0.115887 21.0114 17.1908 6.7889
29 1 2 0.115889 21.0114 8.96083 0.969417
30 1 2 0.115889 15.5206 12.1309 13.9447
31 1 2 0.115887 13.884 13.0758 12.6084
32 1 2 0.115887 22.648 8.01592 2.30572
33 1 3 0.671939 27.399 18.7442 13.2542
34 1 3 0.671939 9.13299 2.34751 1.65994
35 1 3 0.671939 27.399 12.8934 9.117
36 1 3 0.671939 9.13299 8.19836 5.79712
37 1 3 0.67194 24.8655 14.3561 13.2542
38 1 3 0.67194 11.6665 6.73565 1.65994
39 1 3 0.67194 29.9325 17.2815 9.117
40 1 3 0.67194 6.5995 3.81022 5.79712
41 1 3 0.67194 24.8655 17.2815 9.117
42 1 3 0.67194 11.6665 3.81022 5.79712
43 1 3 0.67194 29.9325 14.3561 13.2542
44 1 3 0.67194 6.5995 6.73565 1.65994
45 1 3 -0.11508 27.399 19.957 14.1117
46 1 3 -0.11508 9.13299 1.13474 0.802379
47 1 3 -0.11508 27.399 11.6806 8.25944
48 1 3 -0.11508 9.13299 9.41113 6.65468
49 1 3 -0.11508 23.8152 13.7497 14.1117
50 1 3 -0.11508 12.7168 7.34203 0.802379
51 1 3 -0.11508 30.9828 17.8879 8.25944
52 1 3 -0.11508 5.54921 3.20384 6.65468
53 1 3 -0.11508 23.8152 17.8879 8.25944
54 1 3 -0.11508 12.7168 3.20384 6.65468
55 1 3 -0.11508 30.9828 13.7497 14.1117
56 1 3 -0.11508 5.54921 7.34203 0.802379
57 1 3 -0.0559 18.266 5.39949 13.5316
58 1 3 -0.0559 18.266 15.6923 1.38254
59 1 3 -0.055903 18.266 14.5575 0.580159
60 1 3 -0.055903 18.266 6.53422 14.334
61 1 3 -0.0559 26.1971 11.1132 7.85825
62 1 3 -0.0559 10.3349 9.9785 7.05587
63 1 3 -0.055903 10.3349 11.1132 7.85825
64 1 3 -0.055903 26.1971 9.9785 7.05587
65 1 3 -0.0559 14.7918 8.54005 0.580159
66 1 3 -0.0559 21.7402 12.5517 14.334
67 1 3 -0.055903 22.7229 13.1191 13.5316
68 1 3 -0.055903 13.8091 7.97268 1.38254
69 1 3 -0.0559 21.7402 3.39366 7.85825
70 1 3 -0.0559 14.7918 17.6981 7.05587
71 1 3 -0.055903 13.8091 17.1307 7.85825
72 1 3 -0.055903 22.7229 3.96103 7.05587
73 1 3 -0.055901 22.7229 17.1307 7.85825
74 1 3 -0.055901 13.8091 3.96103 7.05587
75 1 3 -0.055903 14.7918 3.39366 7.85825
76 1 3 -0.055903 21.7402 17.6981 7.05587
77 1 3 -0.0559 21.7402 8.54005 0.580159
78 1 3 -0.0559 14.7918 12.5517 14.334
79 1 3 -0.055903 13.8091 13.1191 13.5316
80 1 3 -0.055903 22.7229 7.97268 1.38254
81 1 4 -1.26215 27.399 15.8188 11.1856
82 1 4 -1.26215 9.13299 5.27293 3.72853
83 1 4 -0.60118 27.399 18.9383 11.9641
84 1 4 -0.60118 9.13299 2.15347 2.95001
85 1 4 -0.601179 27.399 17.5926 13.8671
86 1 4 -0.601179 9.13299 3.49912 1.04697
87 1 4 -0.601179 26.2336 13.3722 9.45555
88 1 4 -0.601179 10.2984 7.71958 5.45857
89 1 4 -0.60118 28.5643 13.3722 9.45555
90 1 4 -0.60118 7.96762 7.71958 5.45857
91 1 4 -0.60118 25.8628 14.9319 13.8671
92 1 4 -0.60118 10.6692 6.15984 1.04697
93 1 4 -0.601179 24.6974 14.2591 11.9641
94 1 4 -0.601179 11.8345 6.83267 2.95001
95 1 4 -0.60118 28.9351 18.0514 9.45555
96 1 4 -0.60118 7.59682 3.04037 5.45857
97 1 4 -0.601179 30.1005 16.0329 9.45555
98 1 4 -0.601179 6.43145 5.05885 5.45857
99 1 4 -0.601179 24.6974 16.0329 9.45555
100 1 4 -0.601179 11.8345 5.05885 5.45857
101 1 4 -0.60118 25.8628 18.0514 9.45555
102 1 4 -0.60118 10.6692 3.04037 5.45857
103 1 4 -0.60118 28.9351 14.9319 13.8671
104 1 4 -0.60118 7.59682 6.15984 1.04697
105 1 4 -0.60118 30.1005 14.2591 11.9641
106 1 4 -0.60118 6.43145 6.83267 2.95001
107 2 5 -0.35 5.73418 2.84765 2.31287
108 2 6 0.7 5.32885 2.8259 1.2262
109 2 5 -0.35 4.92352 2.80416 0.139541
110 3 5 -0.35 25.3104 15.3534 5.72072
111 3 6 0.7 24.9572 14.7292 4.80902
112 3 5 -0.35 24.6041 14.105 3.89731
ITEM: TIMESTEP
63000
ITEM: NUMBER OF ATOMS
106
ITEM: BOX BOUNDS xy xz yz pp pp pp
0.0000000000000000e+00 3.6531964750000000e+01 9.1329911900000003e+00
0.0000000000000000e+00 2.1091739680000000e+01 9.1329911900000003e+00
0.0000000000000000e+00 1.4914112149999999e+01 5.2729349200000000e+00
ITEM: ATOMS id mol type q x y z
1 1 1 1.10383 27.399 17.6496 10.5383
2 1 1 1.10383 9.13299 3.44217 4.3758
3 1 1 1.10383 27.399 15.8188 13.1274
4 1 1 1.10383 9.13299 5.27293 1.78671
5 1 1 1.10383 25.8135 14.9034 10.5383
6 1 1 1.10383 10.7185 6.18832 4.3758
7 1 1 1.10383 28.9845 14.9034 10.5383
8 1 1 1.10383 7.5475 6.18832 4.3758
9 1 2 0.115889 18.266 5.48596 12.6084
10 1 2 0.115889 18.266 15.6058 2.30572
11 1 2 0.115888 18.266 13.716 0.969417
12 1 2 0.115888 18.266 7.37578 13.9447
13 1 2 0.11589 25.3934 11.4908 8.12521
14 1 2 0.11589 11.1386 9.60096 6.7889
15 1 2 0.115888 11.1386 11.4908 8.12521
16 1 2 0.115888 25.3934 9.60096 6.7889
17 1 2 0.115889 15.5206 8.96083 0.969417
18 1 2 0.115889 21.0114 12.1309 13.9447
19 1 2 0.115888 22.648 13.0758 12.6084
20 1 2 0.115888 13.884 8.01592 2.30572
21 1 2 0.115889 21.0114 3.90092 8.12521
22 1 2 0.115889 15.5206 17.1908 6.7889
23 1 2 0.115887 13.884 16.2459 8.12521
24 1 2 0.115887 22.648 4.84583 6.7889
25 1 2 0.115889 22.648 16.2459 8.12521
26 1 2 0.115889 13.884 4.84583 6.7889
27 1 2 0.115887 15.5206 3.90092 8.12521
28 1 2 0.115887 21.0114 17.1908 6.7889
29 1 2 0.115889 21.0114 8.96083 0.969417
30 1 2 0.115889 15.5206 12.1309 13.9447
31 1 2 0.115887 13.884 13.0758 12.6084
32 1 2 0.115887 22.648 8.01592 2.30572
33 1 3 0.671939 27.399 18.7442 13.2542
34 1 3 0.671939 9.13299 2.34751 1.65994
35 1 3 0.671939 27.399 12.8934 9.117
36 1 3 0.671939 9.13299 8.19836 5.79712
37 1 3 0.67194 24.8655 14.3561 13.2542
38 1 3 0.67194 11.6665 6.73565 1.65994
39 1 3 0.67194 29.9325 17.2815 9.117
40 1 3 0.67194 6.5995 3.81022 5.79712
41 1 3 0.67194 24.8655 17.2815 9.117
42 1 3 0.67194 11.6665 3.81022 5.79712
43 1 3 0.67194 29.9325 14.3561 13.2542
44 1 3 0.67194 6.5995 6.73565 1.65994
45 1 3 -0.11508 27.399 19.957 14.1117
46 1 3 -0.11508 9.13299 1.13474 0.802379
47 1 3 -0.11508 27.399 11.6806 8.25944
48 1 3 -0.11508 9.13299 9.41113 6.65468
49 1 3 -0.11508 23.8152 13.7497 14.1117
50 1 3 -0.11508 12.7168 7.34203 0.802379
51 1 3 -0.11508 30.9828 17.8879 8.25944
52 1 3 -0.11508 5.54921 3.20384 6.65468
53 1 3 -0.11508 23.8152 17.8879 8.25944
54 1 3 -0.11508 12.7168 3.20384 6.65468
55 1 3 -0.11508 30.9828 13.7497 14.1117
56 1 3 -0.11508 5.54921 7.34203 0.802379
57 1 3 -0.0559 18.266 5.39949 13.5316
58 1 3 -0.0559 18.266 15.6923 1.38254
59 1 3 -0.055903 18.266 14.5575 0.580159
60 1 3 -0.055903 18.266 6.53422 14.334
61 1 3 -0.0559 26.1971 11.1132 7.85825
62 1 3 -0.0559 10.3349 9.9785 7.05587
63 1 3 -0.055903 10.3349 11.1132 7.85825
64 1 3 -0.055903 26.1971 9.9785 7.05587
65 1 3 -0.0559 14.7918 8.54005 0.580159
66 1 3 -0.0559 21.7402 12.5517 14.334
67 1 3 -0.055903 22.7229 13.1191 13.5316
68 1 3 -0.055903 13.8091 7.97268 1.38254
69 1 3 -0.0559 21.7402 3.39366 7.85825
70 1 3 -0.0559 14.7918 17.6981 7.05587
71 1 3 -0.055903 13.8091 17.1307 7.85825
72 1 3 -0.055903 22.7229 3.96103 7.05587
73 1 3 -0.055901 22.7229 17.1307 7.85825
74 1 3 -0.055901 13.8091 3.96103 7.05587
75 1 3 -0.055903 14.7918 3.39366 7.85825
76 1 3 -0.055903 21.7402 17.6981 7.05587
77 1 3 -0.0559 21.7402 8.54005 0.580159
78 1 3 -0.0559 14.7918 12.5517 14.334
79 1 3 -0.055903 13.8091 13.1191 13.5316
80 1 3 -0.055903 22.7229 7.97268 1.38254
81 1 4 -1.26215 27.399 15.8188 11.1856
82 1 4 -1.26215 9.13299 5.27293 3.72853
83 1 4 -0.60118 27.399 18.9383 11.9641
84 1 4 -0.60118 9.13299 2.15347 2.95001
85 1 4 -0.601179 27.399 17.5926 13.8671
86 1 4 -0.601179 9.13299 3.49912 1.04697
87 1 4 -0.601179 26.2336 13.3722 9.45555
88 1 4 -0.601179 10.2984 7.71958 5.45857
89 1 4 -0.60118 28.5643 13.3722 9.45555
90 1 4 -0.60118 7.96762 7.71958 5.45857
91 1 4 -0.60118 25.8628 14.9319 13.8671
92 1 4 -0.60118 10.6692 6.15984 1.04697
93 1 4 -0.601179 24.6974 14.2591 11.9641
94 1 4 -0.601179 11.8345 6.83267 2.95001
95 1 4 -0.60118 28.9351 18.0514 9.45555
96 1 4 -0.60118 7.59682 3.04037 5.45857
97 1 4 -0.601179 30.1005 16.0329 9.45555
98 1 4 -0.601179 6.43145 5.05885 5.45857
99 1 4 -0.601179 24.6974 16.0329 9.45555
100 1 4 -0.601179 11.8345 5.05885 5.45857
101 1 4 -0.60118 25.8628 18.0514 9.45555
102 1 4 -0.60118 10.6692 3.04037 5.45857
103 1 4 -0.60118 28.9351 14.9319 13.8671
104 1 4 -0.60118 7.59682 6.15984 1.04697
105 1 4 -0.60118 30.1005 14.2591 11.9641
106 1 4 -0.60118 6.43145 6.83267 2.95001
ITEM: TIMESTEP
64000
ITEM: NUMBER OF ATOMS
109
ITEM: BOX BOUNDS xy xz yz pp pp pp
0.0000000000000000e+00 3.6531964750000000e+01 9.1329911900000003e+00
0.0000000000000000e+00 2.1091739680000000e+01 9.1329911900000003e+00
0.0000000000000000e+00 1.4914112149999999e+01 5.2729349200000000e+00
ITEM: ATOMS id mol type q x y z
1 1 1 1.10383 27.399 17.6496 10.5383
2 1 1 1.10383 9.13299 3.44217 4.3758
3 1 1 1.10383 27.399 15.8188 13.1274
4 1 1 1.10383 9.13299 5.27293 1.78671
5 1 1 1.10383 25.8135 14.9034 10.5383
6 1 1 1.10383 10.7185 6.18832 4.3758
7 1 1 1.10383 28.9845 14.9034 10.5383
8 1 1 1.10383 7.5475 6.18832 4.3758
9 1 2 0.115889 18.266 5.48596 12.6084
10 1 2 0.115889 18.266 15.6058 2.30572
11 1 2 0.115888 18.266 13.716 0.969417
12 1 2 0.115888 18.266 7.37578 13.9447
13 1 2 0.11589 25.3934 11.4908 8.12521
14 1 2 0.11589 11.1386 9.60096 6.7889
15 1 2 0.115888 11.1386 11.4908 8.12521
16 1 2 0.115888 25.3934 9.60096 6.7889
17 1 2 0.115889 15.5206 8.96083 0.969417
18 1 2 0.115889 21.0114 12.1309 13.9447
19 1 2 0.115888 22.648 13.0758 12.6084
20 1 2 0.115888 13.884 8.01592 2.30572
21 1 2 0.115889 21.0114 3.90092 8.12521
22 1 2 0.115889 15.5206 17.1908 6.7889
23 1 2 0.115887 13.884 16.2459 8.12521
24 1 2 0.115887 22.648 4.84583 6.7889
25 1 2 0.115889 22.648 16.2459 8.12521
26 1 2 0.115889 13.884 4.84583 6.7889
27 1 2 0.115887 15.5206 3.90092 8.12521
28 1 2 0.115887 21.0114 17.1908 6.7889
29 1 2 0.115889 21.0114 8.96083 0.969417
30 1 2 0.115889 15.5206 12.1309 13.9447
31 1 2 0.115887 13.884 13.0758 12.6084
32 1 2 0.115887 22.648 8.01592 2.30572
33 1 3 0.671939 27.399 18.7442 13.2542
34 1 3 0.671939 9.13299 2.34751 1.65994
35 1 3 0.671939 27.399 12.8934 9.117
36 1 3 0.671939 9.13299 8.19836 5.79712
37 1 3 0.67194 24.8655 14.3561 13.2542
38 1 3 0.67194 11.6665 6.73565 1.65994
39 1 3 0.67194 29.9325 17.2815 9.117
40 1 3 0.67194 6.5995 3.81022 5.79712
41 1 3 0.67194 24.8655 17.2815 9.117
42 1 3 0.67194 11.6665 3.81022 5.79712
43 1 3 0.67194 29.9325 14.3561 13.2542
44 1 3 0.67194 6.5995 6.73565 1.65994
45 1 3 -0.11508 27.399 19.957 14.1117
46 1 3 -0.11508 9.13299 1.13474 0.802379
47 1 3 -0.11508 27.399 11.6806 8.25944
48 1 3 -0.11508 9.13299 9.41113 6.65468
49 1 3 -0.11508 23.8152 13.7497 14.1117
50 1 3 -0.11508 12.7168 7.34203 0.802379
51 1 3 -0.11508 30.9828 17.8879 8.25944
52 1 3 -0.11508 5.54921 3.20384 6.65468
53 1 3 -0.11508 23.8152 17.8879 8.25944
54 1 3 -0.11508 12.7168 3.20384 6.65468
55 1 3 -0.11508 30.9828 13.7497 14.1117
56 1 3 -0.11508 5.54921 7.34203 0.802379
57 1 3 -0.0559 18.266 5.39949 13.5316
58 1 3 -0.0559 18.266 15.6923 1.38254
59 1 3 -0.055903 18.266 14.5575 0.580159
60 1 3 -0.055903 18.266 6.53422 14.334
61 1 3 -0.0559 26.1971 11.1132 7.85825
62 1 3 -0.0559 10.3349 9.9785 7.05587
63 1 3 -0.055903 10.3349 11.1132 7.85825
64 1 3 -0.055903 26.1971 9.9785 7.05587
65 1 3 -0.0559 14.7918 8.54005 0.580159
66 1 3 -0.0559 21.7402 12.5517 14.334
67 1 3 -0.055903 22.7229 13.1191 13.5316
68 1 3 -0.055903 13.8091 7.97268 1.38254
69 1 3 -0.0559 21.7402 3.39366 7.85825
70 1 3 -0.0559 14.7918 17.6981 7.05587
71 1 3 -0.055903 13.8091 17.1307 7.85825
72 1 3 -0.055903 22.7229 3.96103 7.05587
73 1 3 -0.055901 22.7229 17.1307 7.85825
74 1 3 -0.055901 13.8091 3.96103 7.05587
75 1 3 -0.055903 14.7918 3.39366 7.85825
76 1 3 -0.055903 21.7402 17.6981 7.05587
77 1 3 -0.0559 21.7402 8.54005 0.580159
78 1 3 -0.0559 14.7918 12.5517 14.334
79 1 3 -0.055903 13.8091 13.1191 13.5316
80 1 3 -0.055903 22.7229 7.97268 1.38254
81 1 4 -1.26215 27.399 15.8188 11.1856
82 1 4 -1.26215 9.13299 5.27293 3.72853
83 1 4 -0.60118 27.399 18.9383 11.9641
84 1 4 -0.60118 9.13299 2.15347 2.95001
85 1 4 -0.601179 27.399 17.5926 13.8671
86 1 4 -0.601179 9.13299 3.49912 1.04697
87 1 4 -0.601179 26.2336 13.3722 9.45555
88 1 4 -0.601179 10.2984 7.71958 5.45857
89 1 4 -0.60118 28.5643 13.3722 9.45555
90 1 4 -0.60118 7.96762 7.71958 5.45857
91 1 4 -0.60118 25.8628 14.9319 13.8671
92 1 4 -0.60118 10.6692 6.15984 1.04697
93 1 4 -0.601179 24.6974 14.2591 11.9641
94 1 4 -0.601179 11.8345 6.83267 2.95001
95 1 4 -0.60118 28.9351 18.0514 9.45555
96 1 4 -0.60118 7.59682 3.04037 5.45857
97 1 4 -0.601179 30.1005 16.0329 9.45555
98 1 4 -0.601179 6.43145 5.05885 5.45857
99 1 4 -0.601179 24.6974 16.0329 9.45555
100 1 4 -0.601179 11.8345 5.05885 5.45857
101 1 4 -0.60118 25.8628 18.0514 9.45555
102 1 4 -0.60118 10.6692 3.04037 5.45857
103 1 4 -0.60118 28.9351 14.9319 13.8671
104 1 4 -0.60118 7.59682 6.15984 1.04697
105 1 4 -0.60118 30.1005 14.2591 11.9641
106 1 4 -0.60118 6.43145 6.83267 2.95001
107 2 5 -0.35 18.3594 0.827707 0.387483
108 2 6 0.7 26.5334 5.96278 14.6637
109 2 5 -0.35 25.5744 5.82492 14.0258
ITEM: TIMESTEP
65000
ITEM: NUMBER OF ATOMS
109
ITEM: BOX BOUNDS xy xz yz pp pp pp
0.0000000000000000e+00 3.6531964750000000e+01 9.1329911900000003e+00
0.0000000000000000e+00 2.1091739680000000e+01 9.1329911900000003e+00
0.0000000000000000e+00 1.4914112149999999e+01 5.2729349200000000e+00
ITEM: ATOMS id mol type q x y z
1 1 1 1.10383 27.399 17.6496 10.5383
2 1 1 1.10383 9.13299 3.44217 4.3758
3 1 1 1.10383 27.399 15.8188 13.1274
4 1 1 1.10383 9.13299 5.27293 1.78671
5 1 1 1.10383 25.8135 14.9034 10.5383
6 1 1 1.10383 10.7185 6.18832 4.3758
7 1 1 1.10383 28.9845 14.9034 10.5383
8 1 1 1.10383 7.5475 6.18832 4.3758
9 1 2 0.115889 18.266 5.48596 12.6084
10 1 2 0.115889 18.266 15.6058 2.30572
11 1 2 0.115888 18.266 13.716 0.969417
12 1 2 0.115888 18.266 7.37578 13.9447
13 1 2 0.11589 25.3934 11.4908 8.12521
14 1 2 0.11589 11.1386 9.60096 6.7889
15 1 2 0.115888 11.1386 11.4908 8.12521
16 1 2 0.115888 25.3934 9.60096 6.7889
17 1 2 0.115889 15.5206 8.96083 0.969417
18 1 2 0.115889 21.0114 12.1309 13.9447
19 1 2 0.115888 22.648 13.0758 12.6084
20 1 2 0.115888 13.884 8.01592 2.30572
21 1 2 0.115889 21.0114 3.90092 8.12521
22 1 2 0.115889 15.5206 17.1908 6.7889
23 1 2 0.115887 13.884 16.2459 8.12521
24 1 2 0.115887 22.648 4.84583 6.7889
25 1 2 0.115889 22.648 16.2459 8.12521
26 1 2 0.115889 13.884 4.84583 6.7889
27 1 2 0.115887 15.5206 3.90092 8.12521
28 1 2 0.115887 21.0114 17.1908 6.7889
29 1 2 0.115889 21.0114 8.96083 0.969417
30 1 2 0.115889 15.5206 12.1309 13.9447
31 1 2 0.115887 13.884 13.0758 12.6084
32 1 2 0.115887 22.648 8.01592 2.30572
33 1 3 0.671939 27.399 18.7442 13.2542
34 1 3 0.671939 9.13299 2.34751 1.65994
35 1 3 0.671939 27.399 12.8934 9.117
36 1 3 0.671939 9.13299 8.19836 5.79712
37 1 3 0.67194 24.8655 14.3561 13.2542
38 1 3 0.67194 11.6665 6.73565 1.65994
39 1 3 0.67194 29.9325 17.2815 9.117
40 1 3 0.67194 6.5995 3.81022 5.79712
41 1 3 0.67194 24.8655 17.2815 9.117
42 1 3 0.67194 11.6665 3.81022 5.79712
43 1 3 0.67194 29.9325 14.3561 13.2542
44 1 3 0.67194 6.5995 6.73565 1.65994
45 1 3 -0.11508 27.399 19.957 14.1117
46 1 3 -0.11508 9.13299 1.13474 0.802379
47 1 3 -0.11508 27.399 11.6806 8.25944
48 1 3 -0.11508 9.13299 9.41113 6.65468
49 1 3 -0.11508 23.8152 13.7497 14.1117
50 1 3 -0.11508 12.7168 7.34203 0.802379
51 1 3 -0.11508 30.9828 17.8879 8.25944
52 1 3 -0.11508 5.54921 3.20384 6.65468
53 1 3 -0.11508 23.8152 17.8879 8.25944
54 1 3 -0.11508 12.7168 3.20384 6.65468
55 1 3 -0.11508 30.9828 13.7497 14.1117
56 1 3 -0.11508 5.54921 7.34203 0.802379
57 1 3 -0.0559 18.266 5.39949 13.5316
58 1 3 -0.0559 18.266 15.6923 1.38254
59 1 3 -0.055903 18.266 14.5575 0.580159
60 1 3 -0.055903 18.266 6.53422 14.334
61 1 3 -0.0559 26.1971 11.1132 7.85825
62 1 3 -0.0559 10.3349 9.9785 7.05587
63 1 3 -0.055903 10.3349 11.1132 7.85825
64 1 3 -0.055903 26.1971 9.9785 7.05587
65 1 3 -0.0559 14.7918 8.54005 0.580159
66 1 3 -0.0559 21.7402 12.5517 14.334
67 1 3 -0.055903 22.7229 13.1191 13.5316
68 1 3 -0.055903 13.8091 7.97268 1.38254
69 1 3 -0.0559 21.7402 3.39366 7.85825
70 1 3 -0.0559 14.7918 17.6981 7.05587
71 1 3 -0.055903 13.8091 17.1307 7.85825
72 1 3 -0.055903 22.7229 3.96103 7.05587
73 1 3 -0.055901 22.7229 17.1307 7.85825
74 1 3 -0.055901 13.8091 3.96103 7.05587
75 1 3 -0.055903 14.7918 3.39366 7.85825
76 1 3 -0.055903 21.7402 17.6981 7.05587
77 1 3 -0.0559 21.7402 8.54005 0.580159
78 1 3 -0.0559 14.7918 12.5517 14.334
79 1 3 -0.055903 13.8091 13.1191 13.5316
80 1 3 -0.055903 22.7229 7.97268 1.38254
81 1 4 -1.26215 27.399 15.8188 11.1856
82 1 4 -1.26215 9.13299 5.27293 3.72853
83 1 4 -0.60118 27.399 18.9383 11.9641
84 1 4 -0.60118 9.13299 2.15347 2.95001
85 1 4 -0.601179 27.399 17.5926 13.8671
86 1 4 -0.601179 9.13299 3.49912 1.04697
87 1 4 -0.601179 26.2336 13.3722 9.45555
88 1 4 -0.601179 10.2984 7.71958 5.45857
89 1 4 -0.60118 28.5643 13.3722 9.45555
90 1 4 -0.60118 7.96762 7.71958 5.45857
91 1 4 -0.60118 25.8628 14.9319 13.8671
92 1 4 -0.60118 10.6692 6.15984 1.04697
93 1 4 -0.601179 24.6974 14.2591 11.9641
94 1 4 -0.601179 11.8345 6.83267 2.95001
95 1 4 -0.60118 28.9351 18.0514 9.45555
96 1 4 -0.60118 7.59682 3.04037 5.45857
97 1 4 -0.601179 30.1005 16.0329 9.45555
98 1 4 -0.601179 6.43145 5.05885 5.45857
99 1 4 -0.601179 24.6974 16.0329 9.45555
100 1 4 -0.601179 11.8345 5.05885 5.45857
101 1 4 -0.60118 25.8628 18.0514 9.45555
102 1 4 -0.60118 10.6692 3.04037 5.45857
103 1 4 -0.60118 28.9351 14.9319 13.8671
104 1 4 -0.60118 7.59682 6.15984 1.04697
105 1 4 -0.60118 30.1005 14.2591 11.9641
106 1 4 -0.60118 6.43145 6.83267 2.95001
125 8 5 -0.35 29.3428 15.0109 6.78836
126 8 6 0.7 28.4679 15.7675 6.87655
127 8 5 -0.35 27.5931 16.5242 6.96475
ITEM: TIMESTEP
66000
ITEM: NUMBER OF ATOMS
109
ITEM: BOX BOUNDS xy xz yz pp pp pp
0.0000000000000000e+00 3.6531964750000000e+01 9.1329911900000003e+00
0.0000000000000000e+00 2.1091739680000000e+01 9.1329911900000003e+00
0.0000000000000000e+00 1.4914112149999999e+01 5.2729349200000000e+00
ITEM: ATOMS id mol type q x y z
1 1 1 1.10383 27.399 17.6496 10.5383
2 1 1 1.10383 9.13299 3.44217 4.3758
3 1 1 1.10383 27.399 15.8188 13.1274
4 1 1 1.10383 9.13299 5.27293 1.78671
5 1 1 1.10383 25.8135 14.9034 10.5383
6 1 1 1.10383 10.7185 6.18832 4.3758
7 1 1 1.10383 28.9845 14.9034 10.5383
8 1 1 1.10383 7.5475 6.18832 4.3758
9 1 2 0.115889 18.266 5.48596 12.6084
10 1 2 0.115889 18.266 15.6058 2.30572
11 1 2 0.115888 18.266 13.716 0.969417
12 1 2 0.115888 18.266 7.37578 13.9447
13 1 2 0.11589 25.3934 11.4908 8.12521
14 1 2 0.11589 11.1386 9.60096 6.7889
15 1 2 0.115888 11.1386 11.4908 8.12521
16 1 2 0.115888 25.3934 9.60096 6.7889
17 1 2 0.115889 15.5206 8.96083 0.969417
18 1 2 0.115889 21.0114 12.1309 13.9447
19 1 2 0.115888 22.648 13.0758 12.6084
20 1 2 0.115888 13.884 8.01592 2.30572
21 1 2 0.115889 21.0114 3.90092 8.12521
22 1 2 0.115889 15.5206 17.1908 6.7889
23 1 2 0.115887 13.884 16.2459 8.12521
24 1 2 0.115887 22.648 4.84583 6.7889
25 1 2 0.115889 22.648 16.2459 8.12521
26 1 2 0.115889 13.884 4.84583 6.7889
27 1 2 0.115887 15.5206 3.90092 8.12521
28 1 2 0.115887 21.0114 17.1908 6.7889
29 1 2 0.115889 21.0114 8.96083 0.969417
30 1 2 0.115889 15.5206 12.1309 13.9447
31 1 2 0.115887 13.884 13.0758 12.6084
32 1 2 0.115887 22.648 8.01592 2.30572
33 1 3 0.671939 27.399 18.7442 13.2542
34 1 3 0.671939 9.13299 2.34751 1.65994
35 1 3 0.671939 27.399 12.8934 9.117
36 1 3 0.671939 9.13299 8.19836 5.79712
37 1 3 0.67194 24.8655 14.3561 13.2542
38 1 3 0.67194 11.6665 6.73565 1.65994
39 1 3 0.67194 29.9325 17.2815 9.117
40 1 3 0.67194 6.5995 3.81022 5.79712
41 1 3 0.67194 24.8655 17.2815 9.117
42 1 3 0.67194 11.6665 3.81022 5.79712
43 1 3 0.67194 29.9325 14.3561 13.2542
44 1 3 0.67194 6.5995 6.73565 1.65994
45 1 3 -0.11508 27.399 19.957 14.1117
46 1 3 -0.11508 9.13299 1.13474 0.802379
47 1 3 -0.11508 27.399 11.6806 8.25944
48 1 3 -0.11508 9.13299 9.41113 6.65468
49 1 3 -0.11508 23.8152 13.7497 14.1117
50 1 3 -0.11508 12.7168 7.34203 0.802379
51 1 3 -0.11508 30.9828 17.8879 8.25944
52 1 3 -0.11508 5.54921 3.20384 6.65468
53 1 3 -0.11508 23.8152 17.8879 8.25944
54 1 3 -0.11508 12.7168 3.20384 6.65468
55 1 3 -0.11508 30.9828 13.7497 14.1117
56 1 3 -0.11508 5.54921 7.34203 0.802379
57 1 3 -0.0559 18.266 5.39949 13.5316
58 1 3 -0.0559 18.266 15.6923 1.38254
59 1 3 -0.055903 18.266 14.5575 0.580159
60 1 3 -0.055903 18.266 6.53422 14.334
61 1 3 -0.0559 26.1971 11.1132 7.85825
62 1 3 -0.0559 10.3349 9.9785 7.05587
63 1 3 -0.055903 10.3349 11.1132 7.85825
64 1 3 -0.055903 26.1971 9.9785 7.05587
65 1 3 -0.0559 14.7918 8.54005 0.580159
66 1 3 -0.0559 21.7402 12.5517 14.334
67 1 3 -0.055903 22.7229 13.1191 13.5316
68 1 3 -0.055903 13.8091 7.97268 1.38254
69 1 3 -0.0559 21.7402 3.39366 7.85825
70 1 3 -0.0559 14.7918 17.6981 7.05587
71 1 3 -0.055903 13.8091 17.1307 7.85825
72 1 3 -0.055903 22.7229 3.96103 7.05587
73 1 3 -0.055901 22.7229 17.1307 7.85825
74 1 3 -0.055901 13.8091 3.96103 7.05587
75 1 3 -0.055903 14.7918 3.39366 7.85825
76 1 3 -0.055903 21.7402 17.6981 7.05587
77 1 3 -0.0559 21.7402 8.54005 0.580159
78 1 3 -0.0559 14.7918 12.5517 14.334
79 1 3 -0.055903 13.8091 13.1191 13.5316
80 1 3 -0.055903 22.7229 7.97268 1.38254
81 1 4 -1.26215 27.399 15.8188 11.1856
82 1 4 -1.26215 9.13299 5.27293 3.72853
83 1 4 -0.60118 27.399 18.9383 11.9641
84 1 4 -0.60118 9.13299 2.15347 2.95001
85 1 4 -0.601179 27.399 17.5926 13.8671
86 1 4 -0.601179 9.13299 3.49912 1.04697
87 1 4 -0.601179 26.2336 13.3722 9.45555
88 1 4 -0.601179 10.2984 7.71958 5.45857
89 1 4 -0.60118 28.5643 13.3722 9.45555
90 1 4 -0.60118 7.96762 7.71958 5.45857
91 1 4 -0.60118 25.8628 14.9319 13.8671
92 1 4 -0.60118 10.6692 6.15984 1.04697
93 1 4 -0.601179 24.6974 14.2591 11.9641
94 1 4 -0.601179 11.8345 6.83267 2.95001
95 1 4 -0.60118 28.9351 18.0514 9.45555
96 1 4 -0.60118 7.59682 3.04037 5.45857
97 1 4 -0.601179 30.1005 16.0329 9.45555
98 1 4 -0.601179 6.43145 5.05885 5.45857
99 1 4 -0.601179 24.6974 16.0329 9.45555
100 1 4 -0.601179 11.8345 5.05885 5.45857
101 1 4 -0.60118 25.8628 18.0514 9.45555
102 1 4 -0.60118 10.6692 3.04037 5.45857
103 1 4 -0.60118 28.9351 14.9319 13.8671
104 1 4 -0.60118 7.59682 6.15984 1.04697
105 1 4 -0.60118 30.1005 14.2591 11.9641
106 1 4 -0.60118 6.43145 6.83267 2.95001
107 2 5 -0.35 14.0112 15.4794 10.8858
108 2 6 0.7 14.9775 15.0155 11.3293
109 2 5 -0.35 15.9438 14.5515 11.7728
ITEM: TIMESTEP
67000
ITEM: NUMBER OF ATOMS
109
ITEM: BOX BOUNDS xy xz yz pp pp pp
0.0000000000000000e+00 3.6531964750000000e+01 9.1329911900000003e+00
0.0000000000000000e+00 2.1091739680000000e+01 9.1329911900000003e+00
0.0000000000000000e+00 1.4914112149999999e+01 5.2729349200000000e+00
ITEM: ATOMS id mol type q x y z
1 1 1 1.10383 27.399 17.6496 10.5383
2 1 1 1.10383 9.13299 3.44217 4.3758
3 1 1 1.10383 27.399 15.8188 13.1274
4 1 1 1.10383 9.13299 5.27293 1.78671
5 1 1 1.10383 25.8135 14.9034 10.5383
6 1 1 1.10383 10.7185 6.18832 4.3758
7 1 1 1.10383 28.9845 14.9034 10.5383
8 1 1 1.10383 7.5475 6.18832 4.3758
9 1 2 0.115889 18.266 5.48596 12.6084
10 1 2 0.115889 18.266 15.6058 2.30572
11 1 2 0.115888 18.266 13.716 0.969417
12 1 2 0.115888 18.266 7.37578 13.9447
13 1 2 0.11589 25.3934 11.4908 8.12521
14 1 2 0.11589 11.1386 9.60096 6.7889
15 1 2 0.115888 11.1386 11.4908 8.12521
16 1 2 0.115888 25.3934 9.60096 6.7889
17 1 2 0.115889 15.5206 8.96083 0.969417
18 1 2 0.115889 21.0114 12.1309 13.9447
19 1 2 0.115888 22.648 13.0758 12.6084
20 1 2 0.115888 13.884 8.01592 2.30572
21 1 2 0.115889 21.0114 3.90092 8.12521
22 1 2 0.115889 15.5206 17.1908 6.7889
23 1 2 0.115887 13.884 16.2459 8.12521
24 1 2 0.115887 22.648 4.84583 6.7889
25 1 2 0.115889 22.648 16.2459 8.12521
26 1 2 0.115889 13.884 4.84583 6.7889
27 1 2 0.115887 15.5206 3.90092 8.12521
28 1 2 0.115887 21.0114 17.1908 6.7889
29 1 2 0.115889 21.0114 8.96083 0.969417
30 1 2 0.115889 15.5206 12.1309 13.9447
31 1 2 0.115887 13.884 13.0758 12.6084
32 1 2 0.115887 22.648 8.01592 2.30572
33 1 3 0.671939 27.399 18.7442 13.2542
34 1 3 0.671939 9.13299 2.34751 1.65994
35 1 3 0.671939 27.399 12.8934 9.117
36 1 3 0.671939 9.13299 8.19836 5.79712
37 1 3 0.67194 24.8655 14.3561 13.2542
38 1 3 0.67194 11.6665 6.73565 1.65994
39 1 3 0.67194 29.9325 17.2815 9.117
40 1 3 0.67194 6.5995 3.81022 5.79712
41 1 3 0.67194 24.8655 17.2815 9.117
42 1 3 0.67194 11.6665 3.81022 5.79712
43 1 3 0.67194 29.9325 14.3561 13.2542
44 1 3 0.67194 6.5995 6.73565 1.65994
45 1 3 -0.11508 27.399 19.957 14.1117
46 1 3 -0.11508 9.13299 1.13474 0.802379
47 1 3 -0.11508 27.399 11.6806 8.25944
48 1 3 -0.11508 9.13299 9.41113 6.65468
49 1 3 -0.11508 23.8152 13.7497 14.1117
50 1 3 -0.11508 12.7168 7.34203 0.802379
51 1 3 -0.11508 30.9828 17.8879 8.25944
52 1 3 -0.11508 5.54921 3.20384 6.65468
53 1 3 -0.11508 23.8152 17.8879 8.25944
54 1 3 -0.11508 12.7168 3.20384 6.65468
55 1 3 -0.11508 30.9828 13.7497 14.1117
56 1 3 -0.11508 5.54921 7.34203 0.802379
57 1 3 -0.0559 18.266 5.39949 13.5316
58 1 3 -0.0559 18.266 15.6923 1.38254
59 1 3 -0.055903 18.266 14.5575 0.580159
60 1 3 -0.055903 18.266 6.53422 14.334
61 1 3 -0.0559 26.1971 11.1132 7.85825
62 1 3 -0.0559 10.3349 9.9785 7.05587
63 1 3 -0.055903 10.3349 11.1132 7.85825
64 1 3 -0.055903 26.1971 9.9785 7.05587
65 1 3 -0.0559 14.7918 8.54005 0.580159
66 1 3 -0.0559 21.7402 12.5517 14.334
67 1 3 -0.055903 22.7229 13.1191 13.5316
68 1 3 -0.055903 13.8091 7.97268 1.38254
69 1 3 -0.0559 21.7402 3.39366 7.85825
70 1 3 -0.0559 14.7918 17.6981 7.05587
71 1 3 -0.055903 13.8091 17.1307 7.85825
72 1 3 -0.055903 22.7229 3.96103 7.05587
73 1 3 -0.055901 22.7229 17.1307 7.85825
74 1 3 -0.055901 13.8091 3.96103 7.05587
75 1 3 -0.055903 14.7918 3.39366 7.85825
76 1 3 -0.055903 21.7402 17.6981 7.05587
77 1 3 -0.0559 21.7402 8.54005 0.580159
78 1 3 -0.0559 14.7918 12.5517 14.334
79 1 3 -0.055903 13.8091 13.1191 13.5316
80 1 3 -0.055903 22.7229 7.97268 1.38254
81 1 4 -1.26215 27.399 15.8188 11.1856
82 1 4 -1.26215 9.13299 5.27293 3.72853
83 1 4 -0.60118 27.399 18.9383 11.9641
84 1 4 -0.60118 9.13299 2.15347 2.95001
85 1 4 -0.601179 27.399 17.5926 13.8671
86 1 4 -0.601179 9.13299 3.49912 1.04697
87 1 4 -0.601179 26.2336 13.3722 9.45555
88 1 4 -0.601179 10.2984 7.71958 5.45857
89 1 4 -0.60118 28.5643 13.3722 9.45555
90 1 4 -0.60118 7.96762 7.71958 5.45857
91 1 4 -0.60118 25.8628 14.9319 13.8671
92 1 4 -0.60118 10.6692 6.15984 1.04697
93 1 4 -0.601179 24.6974 14.2591 11.9641
94 1 4 -0.601179 11.8345 6.83267 2.95001
95 1 4 -0.60118 28.9351 18.0514 9.45555
96 1 4 -0.60118 7.59682 3.04037 5.45857
97 1 4 -0.601179 30.1005 16.0329 9.45555
98 1 4 -0.601179 6.43145 5.05885 5.45857
99 1 4 -0.601179 24.6974 16.0329 9.45555
100 1 4 -0.601179 11.8345 5.05885 5.45857
101 1 4 -0.60118 25.8628 18.0514 9.45555
102 1 4 -0.60118 10.6692 3.04037 5.45857
103 1 4 -0.60118 28.9351 14.9319 13.8671
104 1 4 -0.60118 7.59682 6.15984 1.04697
105 1 4 -0.60118 30.1005 14.2591 11.9641
106 1 4 -0.60118 6.43145 6.83267 2.95001
110 3 5 -0.35 11.9953 3.37012 0.297041
111 3 6 0.7 20.8336 8.70129 14.0907
112 3 5 -0.35 20.5389 8.75953 12.9703
ITEM: TIMESTEP
68000
ITEM: NUMBER OF ATOMS
109
ITEM: BOX BOUNDS xy xz yz pp pp pp
0.0000000000000000e+00 3.6531964750000000e+01 9.1329911900000003e+00
0.0000000000000000e+00 2.1091739680000000e+01 9.1329911900000003e+00
0.0000000000000000e+00 1.4914112149999999e+01 5.2729349200000000e+00
ITEM: ATOMS id mol type q x y z
1 1 1 1.10383 27.399 17.6496 10.5383
2 1 1 1.10383 9.13299 3.44217 4.3758
3 1 1 1.10383 27.399 15.8188 13.1274
4 1 1 1.10383 9.13299 5.27293 1.78671
5 1 1 1.10383 25.8135 14.9034 10.5383
6 1 1 1.10383 10.7185 6.18832 4.3758
7 1 1 1.10383 28.9845 14.9034 10.5383
8 1 1 1.10383 7.5475 6.18832 4.3758
9 1 2 0.115889 18.266 5.48596 12.6084
10 1 2 0.115889 18.266 15.6058 2.30572
11 1 2 0.115888 18.266 13.716 0.969417
12 1 2 0.115888 18.266 7.37578 13.9447
13 1 2 0.11589 25.3934 11.4908 8.12521
14 1 2 0.11589 11.1386 9.60096 6.7889
15 1 2 0.115888 11.1386 11.4908 8.12521
16 1 2 0.115888 25.3934 9.60096 6.7889
17 1 2 0.115889 15.5206 8.96083 0.969417
18 1 2 0.115889 21.0114 12.1309 13.9447
19 1 2 0.115888 22.648 13.0758 12.6084
20 1 2 0.115888 13.884 8.01592 2.30572
21 1 2 0.115889 21.0114 3.90092 8.12521
22 1 2 0.115889 15.5206 17.1908 6.7889
23 1 2 0.115887 13.884 16.2459 8.12521
24 1 2 0.115887 22.648 4.84583 6.7889
25 1 2 0.115889 22.648 16.2459 8.12521
26 1 2 0.115889 13.884 4.84583 6.7889
27 1 2 0.115887 15.5206 3.90092 8.12521
28 1 2 0.115887 21.0114 17.1908 6.7889
29 1 2 0.115889 21.0114 8.96083 0.969417
30 1 2 0.115889 15.5206 12.1309 13.9447
31 1 2 0.115887 13.884 13.0758 12.6084
32 1 2 0.115887 22.648 8.01592 2.30572
33 1 3 0.671939 27.399 18.7442 13.2542
34 1 3 0.671939 9.13299 2.34751 1.65994
35 1 3 0.671939 27.399 12.8934 9.117
36 1 3 0.671939 9.13299 8.19836 5.79712
37 1 3 0.67194 24.8655 14.3561 13.2542
38 1 3 0.67194 11.6665 6.73565 1.65994
39 1 3 0.67194 29.9325 17.2815 9.117
40 1 3 0.67194 6.5995 3.81022 5.79712
41 1 3 0.67194 24.8655 17.2815 9.117
42 1 3 0.67194 11.6665 3.81022 5.79712
43 1 3 0.67194 29.9325 14.3561 13.2542
44 1 3 0.67194 6.5995 6.73565 1.65994
45 1 3 -0.11508 27.399 19.957 14.1117
46 1 3 -0.11508 9.13299 1.13474 0.802379
47 1 3 -0.11508 27.399 11.6806 8.25944
48 1 3 -0.11508 9.13299 9.41113 6.65468
49 1 3 -0.11508 23.8152 13.7497 14.1117
50 1 3 -0.11508 12.7168 7.34203 0.802379
51 1 3 -0.11508 30.9828 17.8879 8.25944
52 1 3 -0.11508 5.54921 3.20384 6.65468
53 1 3 -0.11508 23.8152 17.8879 8.25944
54 1 3 -0.11508 12.7168 3.20384 6.65468
55 1 3 -0.11508 30.9828 13.7497 14.1117
56 1 3 -0.11508 5.54921 7.34203 0.802379
57 1 3 -0.0559 18.266 5.39949 13.5316
58 1 3 -0.0559 18.266 15.6923 1.38254
59 1 3 -0.055903 18.266 14.5575 0.580159
60 1 3 -0.055903 18.266 6.53422 14.334
61 1 3 -0.0559 26.1971 11.1132 7.85825
62 1 3 -0.0559 10.3349 9.9785 7.05587
63 1 3 -0.055903 10.3349 11.1132 7.85825
64 1 3 -0.055903 26.1971 9.9785 7.05587
65 1 3 -0.0559 14.7918 8.54005 0.580159
66 1 3 -0.0559 21.7402 12.5517 14.334
67 1 3 -0.055903 22.7229 13.1191 13.5316
68 1 3 -0.055903 13.8091 7.97268 1.38254
69 1 3 -0.0559 21.7402 3.39366 7.85825
70 1 3 -0.0559 14.7918 17.6981 7.05587
71 1 3 -0.055903 13.8091 17.1307 7.85825
72 1 3 -0.055903 22.7229 3.96103 7.05587
73 1 3 -0.055901 22.7229 17.1307 7.85825
74 1 3 -0.055901 13.8091 3.96103 7.05587
75 1 3 -0.055903 14.7918 3.39366 7.85825
76 1 3 -0.055903 21.7402 17.6981 7.05587
77 1 3 -0.0559 21.7402 8.54005 0.580159
78 1 3 -0.0559 14.7918 12.5517 14.334
79 1 3 -0.055903 13.8091 13.1191 13.5316
80 1 3 -0.055903 22.7229 7.97268 1.38254
81 1 4 -1.26215 27.399 15.8188 11.1856
82 1 4 -1.26215 9.13299 5.27293 3.72853
83 1 4 -0.60118 27.399 18.9383 11.9641
84 1 4 -0.60118 9.13299 2.15347 2.95001
85 1 4 -0.601179 27.399 17.5926 13.8671
86 1 4 -0.601179 9.13299 3.49912 1.04697
87 1 4 -0.601179 26.2336 13.3722 9.45555
88 1 4 -0.601179 10.2984 7.71958 5.45857
89 1 4 -0.60118 28.5643 13.3722 9.45555
90 1 4 -0.60118 7.96762 7.71958 5.45857
91 1 4 -0.60118 25.8628 14.9319 13.8671
92 1 4 -0.60118 10.6692 6.15984 1.04697
93 1 4 -0.601179 24.6974 14.2591 11.9641
94 1 4 -0.601179 11.8345 6.83267 2.95001
95 1 4 -0.60118 28.9351 18.0514 9.45555
96 1 4 -0.60118 7.59682 3.04037 5.45857
97 1 4 -0.601179 30.1005 16.0329 9.45555
98 1 4 -0.601179 6.43145 5.05885 5.45857
99 1 4 -0.601179 24.6974 16.0329 9.45555
100 1 4 -0.601179 11.8345 5.05885 5.45857
101 1 4 -0.60118 25.8628 18.0514 9.45555
102 1 4 -0.60118 10.6692 3.04037 5.45857
103 1 4 -0.60118 28.9351 14.9319 13.8671
104 1 4 -0.60118 7.59682 6.15984 1.04697
105 1 4 -0.60118 30.1005 14.2591 11.9641
106 1 4 -0.60118 6.43145 6.83267 2.95001
113 4 5 -0.35 19.7007 5.79559 3.76317
114 4 6 0.7 19.324 4.73372 3.48724
115 4 5 -0.35 18.9473 3.67185 3.21131
ITEM: TIMESTEP
69000
ITEM: NUMBER OF ATOMS
106
ITEM: BOX BOUNDS xy xz yz pp pp pp
0.0000000000000000e+00 3.6531964750000000e+01 9.1329911900000003e+00
0.0000000000000000e+00 2.1091739680000000e+01 9.1329911900000003e+00
0.0000000000000000e+00 1.4914112149999999e+01 5.2729349200000000e+00
ITEM: ATOMS id mol type q x y z
1 1 1 1.10383 27.399 17.6496 10.5383
2 1 1 1.10383 9.13299 3.44217 4.3758
3 1 1 1.10383 27.399 15.8188 13.1274
4 1 1 1.10383 9.13299 5.27293 1.78671
5 1 1 1.10383 25.8135 14.9034 10.5383
6 1 1 1.10383 10.7185 6.18832 4.3758
7 1 1 1.10383 28.9845 14.9034 10.5383
8 1 1 1.10383 7.5475 6.18832 4.3758
9 1 2 0.115889 18.266 5.48596 12.6084
10 1 2 0.115889 18.266 15.6058 2.30572
11 1 2 0.115888 18.266 13.716 0.969417
12 1 2 0.115888 18.266 7.37578 13.9447
13 1 2 0.11589 25.3934 11.4908 8.12521
14 1 2 0.11589 11.1386 9.60096 6.7889
15 1 2 0.115888 11.1386 11.4908 8.12521
16 1 2 0.115888 25.3934 9.60096 6.7889
17 1 2 0.115889 15.5206 8.96083 0.969417
18 1 2 0.115889 21.0114 12.1309 13.9447
19 1 2 0.115888 22.648 13.0758 12.6084
20 1 2 0.115888 13.884 8.01592 2.30572
21 1 2 0.115889 21.0114 3.90092 8.12521
22 1 2 0.115889 15.5206 17.1908 6.7889
23 1 2 0.115887 13.884 16.2459 8.12521
24 1 2 0.115887 22.648 4.84583 6.7889
25 1 2 0.115889 22.648 16.2459 8.12521
26 1 2 0.115889 13.884 4.84583 6.7889
27 1 2 0.115887 15.5206 3.90092 8.12521
28 1 2 0.115887 21.0114 17.1908 6.7889
29 1 2 0.115889 21.0114 8.96083 0.969417
30 1 2 0.115889 15.5206 12.1309 13.9447
31 1 2 0.115887 13.884 13.0758 12.6084
32 1 2 0.115887 22.648 8.01592 2.30572
33 1 3 0.671939 27.399 18.7442 13.2542
34 1 3 0.671939 9.13299 2.34751 1.65994
35 1 3 0.671939 27.399 12.8934 9.117
36 1 3 0.671939 9.13299 8.19836 5.79712
37 1 3 0.67194 24.8655 14.3561 13.2542
38 1 3 0.67194 11.6665 6.73565 1.65994
39 1 3 0.67194 29.9325 17.2815 9.117
40 1 3 0.67194 6.5995 3.81022 5.79712
41 1 3 0.67194 24.8655 17.2815 9.117
42 1 3 0.67194 11.6665 3.81022 5.79712
43 1 3 0.67194 29.9325 14.3561 13.2542
44 1 3 0.67194 6.5995 6.73565 1.65994
45 1 3 -0.11508 27.399 19.957 14.1117
46 1 3 -0.11508 9.13299 1.13474 0.802379
47 1 3 -0.11508 27.399 11.6806 8.25944
48 1 3 -0.11508 9.13299 9.41113 6.65468
49 1 3 -0.11508 23.8152 13.7497 14.1117
50 1 3 -0.11508 12.7168 7.34203 0.802379
51 1 3 -0.11508 30.9828 17.8879 8.25944
52 1 3 -0.11508 5.54921 3.20384 6.65468
53 1 3 -0.11508 23.8152 17.8879 8.25944
54 1 3 -0.11508 12.7168 3.20384 6.65468
55 1 3 -0.11508 30.9828 13.7497 14.1117
56 1 3 -0.11508 5.54921 7.34203 0.802379
57 1 3 -0.0559 18.266 5.39949 13.5316
58 1 3 -0.0559 18.266 15.6923 1.38254
59 1 3 -0.055903 18.266 14.5575 0.580159
60 1 3 -0.055903 18.266 6.53422 14.334
61 1 3 -0.0559 26.1971 11.1132 7.85825
62 1 3 -0.0559 10.3349 9.9785 7.05587
63 1 3 -0.055903 10.3349 11.1132 7.85825
64 1 3 -0.055903 26.1971 9.9785 7.05587
65 1 3 -0.0559 14.7918 8.54005 0.580159
66 1 3 -0.0559 21.7402 12.5517 14.334
67 1 3 -0.055903 22.7229 13.1191 13.5316
68 1 3 -0.055903 13.8091 7.97268 1.38254
69 1 3 -0.0559 21.7402 3.39366 7.85825
70 1 3 -0.0559 14.7918 17.6981 7.05587
71 1 3 -0.055903 13.8091 17.1307 7.85825
72 1 3 -0.055903 22.7229 3.96103 7.05587
73 1 3 -0.055901 22.7229 17.1307 7.85825
74 1 3 -0.055901 13.8091 3.96103 7.05587
75 1 3 -0.055903 14.7918 3.39366 7.85825
76 1 3 -0.055903 21.7402 17.6981 7.05587
77 1 3 -0.0559 21.7402 8.54005 0.580159
78 1 3 -0.0559 14.7918 12.5517 14.334
79 1 3 -0.055903 13.8091 13.1191 13.5316
80 1 3 -0.055903 22.7229 7.97268 1.38254
81 1 4 -1.26215 27.399 15.8188 11.1856
82 1 4 -1.26215 9.13299 5.27293 3.72853
83 1 4 -0.60118 27.399 18.9383 11.9641
84 1 4 -0.60118 9.13299 2.15347 2.95001
85 1 4 -0.601179 27.399 17.5926 13.8671
86 1 4 -0.601179 9.13299 3.49912 1.04697
87 1 4 -0.601179 26.2336 13.3722 9.45555
88 1 4 -0.601179 10.2984 7.71958 5.45857
89 1 4 -0.60118 28.5643 13.3722 9.45555
90 1 4 -0.60118 7.96762 7.71958 5.45857
91 1 4 -0.60118 25.8628 14.9319 13.8671
92 1 4 -0.60118 10.6692 6.15984 1.04697
93 1 4 -0.601179 24.6974 14.2591 11.9641
94 1 4 -0.601179 11.8345 6.83267 2.95001
95 1 4 -0.60118 28.9351 18.0514 9.45555
96 1 4 -0.60118 7.59682 3.04037 5.45857
97 1 4 -0.601179 30.1005 16.0329 9.45555
98 1 4 -0.601179 6.43145 5.05885 5.45857
99 1 4 -0.601179 24.6974 16.0329 9.45555
100 1 4 -0.601179 11.8345 5.05885 5.45857
101 1 4 -0.60118 25.8628 18.0514 9.45555
102 1 4 -0.60118 10.6692 3.04037 5.45857
103 1 4 -0.60118 28.9351 14.9319 13.8671
104 1 4 -0.60118 7.59682 6.15984 1.04697
105 1 4 -0.60118 30.1005 14.2591 11.9641
106 1 4 -0.60118 6.43145 6.83267 2.95001
ITEM: TIMESTEP
70000
ITEM: NUMBER OF ATOMS
106
ITEM: BOX BOUNDS xy xz yz pp pp pp
0.0000000000000000e+00 3.6531964750000000e+01 9.1329911900000003e+00
0.0000000000000000e+00 2.1091739680000000e+01 9.1329911900000003e+00
0.0000000000000000e+00 1.4914112149999999e+01 5.2729349200000000e+00
ITEM: ATOMS id mol type q x y z
1 1 1 1.10383 27.399 17.6496 10.5383
2 1 1 1.10383 9.13299 3.44217 4.3758
3 1 1 1.10383 27.399 15.8188 13.1274
4 1 1 1.10383 9.13299 5.27293 1.78671
5 1 1 1.10383 25.8135 14.9034 10.5383
6 1 1 1.10383 10.7185 6.18832 4.3758
7 1 1 1.10383 28.9845 14.9034 10.5383
8 1 1 1.10383 7.5475 6.18832 4.3758
9 1 2 0.115889 18.266 5.48596 12.6084
10 1 2 0.115889 18.266 15.6058 2.30572
11 1 2 0.115888 18.266 13.716 0.969417
12 1 2 0.115888 18.266 7.37578 13.9447
13 1 2 0.11589 25.3934 11.4908 8.12521
14 1 2 0.11589 11.1386 9.60096 6.7889
15 1 2 0.115888 11.1386 11.4908 8.12521
16 1 2 0.115888 25.3934 9.60096 6.7889
17 1 2 0.115889 15.5206 8.96083 0.969417
18 1 2 0.115889 21.0114 12.1309 13.9447
19 1 2 0.115888 22.648 13.0758 12.6084
20 1 2 0.115888 13.884 8.01592 2.30572
21 1 2 0.115889 21.0114 3.90092 8.12521
22 1 2 0.115889 15.5206 17.1908 6.7889
23 1 2 0.115887 13.884 16.2459 8.12521
24 1 2 0.115887 22.648 4.84583 6.7889
25 1 2 0.115889 22.648 16.2459 8.12521
26 1 2 0.115889 13.884 4.84583 6.7889
27 1 2 0.115887 15.5206 3.90092 8.12521
28 1 2 0.115887 21.0114 17.1908 6.7889
29 1 2 0.115889 21.0114 8.96083 0.969417
30 1 2 0.115889 15.5206 12.1309 13.9447
31 1 2 0.115887 13.884 13.0758 12.6084
32 1 2 0.115887 22.648 8.01592 2.30572
33 1 3 0.671939 27.399 18.7442 13.2542
34 1 3 0.671939 9.13299 2.34751 1.65994
35 1 3 0.671939 27.399 12.8934 9.117
36 1 3 0.671939 9.13299 8.19836 5.79712
37 1 3 0.67194 24.8655 14.3561 13.2542
38 1 3 0.67194 11.6665 6.73565 1.65994
39 1 3 0.67194 29.9325 17.2815 9.117
40 1 3 0.67194 6.5995 3.81022 5.79712
41 1 3 0.67194 24.8655 17.2815 9.117
42 1 3 0.67194 11.6665 3.81022 5.79712
43 1 3 0.67194 29.9325 14.3561 13.2542
44 1 3 0.67194 6.5995 6.73565 1.65994
45 1 3 -0.11508 27.399 19.957 14.1117
46 1 3 -0.11508 9.13299 1.13474 0.802379
47 1 3 -0.11508 27.399 11.6806 8.25944
48 1 3 -0.11508 9.13299 9.41113 6.65468
49 1 3 -0.11508 23.8152 13.7497 14.1117
50 1 3 -0.11508 12.7168 7.34203 0.802379
51 1 3 -0.11508 30.9828 17.8879 8.25944
52 1 3 -0.11508 5.54921 3.20384 6.65468
53 1 3 -0.11508 23.8152 17.8879 8.25944
54 1 3 -0.11508 12.7168 3.20384 6.65468
55 1 3 -0.11508 30.9828 13.7497 14.1117
56 1 3 -0.11508 5.54921 7.34203 0.802379
57 1 3 -0.0559 18.266 5.39949 13.5316
58 1 3 -0.0559 18.266 15.6923 1.38254
59 1 3 -0.055903 18.266 14.5575 0.580159
60 1 3 -0.055903 18.266 6.53422 14.334
61 1 3 -0.0559 26.1971 11.1132 7.85825
62 1 3 -0.0559 10.3349 9.9785 7.05587
63 1 3 -0.055903 10.3349 11.1132 7.85825
64 1 3 -0.055903 26.1971 9.9785 7.05587
65 1 3 -0.0559 14.7918 8.54005 0.580159
66 1 3 -0.0559 21.7402 12.5517 14.334
67 1 3 -0.055903 22.7229 13.1191 13.5316
68 1 3 -0.055903 13.8091 7.97268 1.38254
69 1 3 -0.0559 21.7402 3.39366 7.85825
70 1 3 -0.0559 14.7918 17.6981 7.05587
71 1 3 -0.055903 13.8091 17.1307 7.85825
72 1 3 -0.055903 22.7229 3.96103 7.05587
73 1 3 -0.055901 22.7229 17.1307 7.85825
74 1 3 -0.055901 13.8091 3.96103 7.05587
75 1 3 -0.055903 14.7918 3.39366 7.85825
76 1 3 -0.055903 21.7402 17.6981 7.05587
77 1 3 -0.0559 21.7402 8.54005 0.580159
78 1 3 -0.0559 14.7918 12.5517 14.334
79 1 3 -0.055903 13.8091 13.1191 13.5316
80 1 3 -0.055903 22.7229 7.97268 1.38254
81 1 4 -1.26215 27.399 15.8188 11.1856
82 1 4 -1.26215 9.13299 5.27293 3.72853
83 1 4 -0.60118 27.399 18.9383 11.9641
84 1 4 -0.60118 9.13299 2.15347 2.95001
85 1 4 -0.601179 27.399 17.5926 13.8671
86 1 4 -0.601179 9.13299 3.49912 1.04697
87 1 4 -0.601179 26.2336 13.3722 9.45555
88 1 4 -0.601179 10.2984 7.71958 5.45857
89 1 4 -0.60118 28.5643 13.3722 9.45555
90 1 4 -0.60118 7.96762 7.71958 5.45857
91 1 4 -0.60118 25.8628 14.9319 13.8671
92 1 4 -0.60118 10.6692 6.15984 1.04697
93 1 4 -0.601179 24.6974 14.2591 11.9641
94 1 4 -0.601179 11.8345 6.83267 2.95001
95 1 4 -0.60118 28.9351 18.0514 9.45555
96 1 4 -0.60118 7.59682 3.04037 5.45857
97 1 4 -0.601179 30.1005 16.0329 9.45555
98 1 4 -0.601179 6.43145 5.05885 5.45857
99 1 4 -0.601179 24.6974 16.0329 9.45555
100 1 4 -0.601179 11.8345 5.05885 5.45857
101 1 4 -0.60118 25.8628 18.0514 9.45555
102 1 4 -0.60118 10.6692 3.04037 5.45857
103 1 4 -0.60118 28.9351 14.9319 13.8671
104 1 4 -0.60118 7.59682 6.15984 1.04697
105 1 4 -0.60118 30.1005 14.2591 11.9641
106 1 4 -0.60118 6.43145 6.83267 2.95001
ITEM: TIMESTEP
71000
ITEM: NUMBER OF ATOMS
106
ITEM: BOX BOUNDS xy xz yz pp pp pp
0.0000000000000000e+00 3.6531964750000000e+01 9.1329911900000003e+00
0.0000000000000000e+00 2.1091739680000000e+01 9.1329911900000003e+00
0.0000000000000000e+00 1.4914112149999999e+01 5.2729349200000000e+00
ITEM: ATOMS id mol type q x y z
1 1 1 1.10383 27.399 17.6496 10.5383
2 1 1 1.10383 9.13299 3.44217 4.3758
3 1 1 1.10383 27.399 15.8188 13.1274
4 1 1 1.10383 9.13299 5.27293 1.78671
5 1 1 1.10383 25.8135 14.9034 10.5383
6 1 1 1.10383 10.7185 6.18832 4.3758
7 1 1 1.10383 28.9845 14.9034 10.5383
8 1 1 1.10383 7.5475 6.18832 4.3758
9 1 2 0.115889 18.266 5.48596 12.6084
10 1 2 0.115889 18.266 15.6058 2.30572
11 1 2 0.115888 18.266 13.716 0.969417
12 1 2 0.115888 18.266 7.37578 13.9447
13 1 2 0.11589 25.3934 11.4908 8.12521
14 1 2 0.11589 11.1386 9.60096 6.7889
15 1 2 0.115888 11.1386 11.4908 8.12521
16 1 2 0.115888 25.3934 9.60096 6.7889
17 1 2 0.115889 15.5206 8.96083 0.969417
18 1 2 0.115889 21.0114 12.1309 13.9447
19 1 2 0.115888 22.648 13.0758 12.6084
20 1 2 0.115888 13.884 8.01592 2.30572
21 1 2 0.115889 21.0114 3.90092 8.12521
22 1 2 0.115889 15.5206 17.1908 6.7889
23 1 2 0.115887 13.884 16.2459 8.12521
24 1 2 0.115887 22.648 4.84583 6.7889
25 1 2 0.115889 22.648 16.2459 8.12521
26 1 2 0.115889 13.884 4.84583 6.7889
27 1 2 0.115887 15.5206 3.90092 8.12521
28 1 2 0.115887 21.0114 17.1908 6.7889
29 1 2 0.115889 21.0114 8.96083 0.969417
30 1 2 0.115889 15.5206 12.1309 13.9447
31 1 2 0.115887 13.884 13.0758 12.6084
32 1 2 0.115887 22.648 8.01592 2.30572
33 1 3 0.671939 27.399 18.7442 13.2542
34 1 3 0.671939 9.13299 2.34751 1.65994
35 1 3 0.671939 27.399 12.8934 9.117
36 1 3 0.671939 9.13299 8.19836 5.79712
37 1 3 0.67194 24.8655 14.3561 13.2542
38 1 3 0.67194 11.6665 6.73565 1.65994
39 1 3 0.67194 29.9325 17.2815 9.117
40 1 3 0.67194 6.5995 3.81022 5.79712
41 1 3 0.67194 24.8655 17.2815 9.117
42 1 3 0.67194 11.6665 3.81022 5.79712
43 1 3 0.67194 29.9325 14.3561 13.2542
44 1 3 0.67194 6.5995 6.73565 1.65994
45 1 3 -0.11508 27.399 19.957 14.1117
46 1 3 -0.11508 9.13299 1.13474 0.802379
47 1 3 -0.11508 27.399 11.6806 8.25944
48 1 3 -0.11508 9.13299 9.41113 6.65468
49 1 3 -0.11508 23.8152 13.7497 14.1117
50 1 3 -0.11508 12.7168 7.34203 0.802379
51 1 3 -0.11508 30.9828 17.8879 8.25944
52 1 3 -0.11508 5.54921 3.20384 6.65468
53 1 3 -0.11508 23.8152 17.8879 8.25944
54 1 3 -0.11508 12.7168 3.20384 6.65468
55 1 3 -0.11508 30.9828 13.7497 14.1117
56 1 3 -0.11508 5.54921 7.34203 0.802379
57 1 3 -0.0559 18.266 5.39949 13.5316
58 1 3 -0.0559 18.266 15.6923 1.38254
59 1 3 -0.055903 18.266 14.5575 0.580159
60 1 3 -0.055903 18.266 6.53422 14.334
61 1 3 -0.0559 26.1971 11.1132 7.85825
62 1 3 -0.0559 10.3349 9.9785 7.05587
63 1 3 -0.055903 10.3349 11.1132 7.85825
64 1 3 -0.055903 26.1971 9.9785 7.05587
65 1 3 -0.0559 14.7918 8.54005 0.580159
66 1 3 -0.0559 21.7402 12.5517 14.334
67 1 3 -0.055903 22.7229 13.1191 13.5316
68 1 3 -0.055903 13.8091 7.97268 1.38254
69 1 3 -0.0559 21.7402 3.39366 7.85825
70 1 3 -0.0559 14.7918 17.6981 7.05587
71 1 3 -0.055903 13.8091 17.1307 7.85825
72 1 3 -0.055903 22.7229 3.96103 7.05587
73 1 3 -0.055901 22.7229 17.1307 7.85825
74 1 3 -0.055901 13.8091 3.96103 7.05587
75 1 3 -0.055903 14.7918 3.39366 7.85825
76 1 3 -0.055903 21.7402 17.6981 7.05587
77 1 3 -0.0559 21.7402 8.54005 0.580159
78 1 3 -0.0559 14.7918 12.5517 14.334
79 1 3 -0.055903 13.8091 13.1191 13.5316
80 1 3 -0.055903 22.7229 7.97268 1.38254
81 1 4 -1.26215 27.399 15.8188 11.1856
82 1 4 -1.26215 9.13299 5.27293 3.72853
83 1 4 -0.60118 27.399 18.9383 11.9641
84 1 4 -0.60118 9.13299 2.15347 2.95001
85 1 4 -0.601179 27.399 17.5926 13.8671
86 1 4 -0.601179 9.13299 3.49912 1.04697
87 1 4 -0.601179 26.2336 13.3722 9.45555
88 1 4 -0.601179 10.2984 7.71958 5.45857
89 1 4 -0.60118 28.5643 13.3722 9.45555
90 1 4 -0.60118 7.96762 7.71958 5.45857
91 1 4 -0.60118 25.8628 14.9319 13.8671
92 1 4 -0.60118 10.6692 6.15984 1.04697
93 1 4 -0.601179 24.6974 14.2591 11.9641
94 1 4 -0.601179 11.8345 6.83267 2.95001
95 1 4 -0.60118 28.9351 18.0514 9.45555
96 1 4 -0.60118 7.59682 3.04037 5.45857
97 1 4 -0.601179 30.1005 16.0329 9.45555
98 1 4 -0.601179 6.43145 5.05885 5.45857
99 1 4 -0.601179 24.6974 16.0329 9.45555
100 1 4 -0.601179 11.8345 5.05885 5.45857
101 1 4 -0.60118 25.8628 18.0514 9.45555
102 1 4 -0.60118 10.6692 3.04037 5.45857
103 1 4 -0.60118 28.9351 14.9319 13.8671
104 1 4 -0.60118 7.59682 6.15984 1.04697
105 1 4 -0.60118 30.1005 14.2591 11.9641
106 1 4 -0.60118 6.43145 6.83267 2.95001
ITEM: TIMESTEP
72000
ITEM: NUMBER OF ATOMS
109
ITEM: BOX BOUNDS xy xz yz pp pp pp
0.0000000000000000e+00 3.6531964750000000e+01 9.1329911900000003e+00
0.0000000000000000e+00 2.1091739680000000e+01 9.1329911900000003e+00
0.0000000000000000e+00 1.4914112149999999e+01 5.2729349200000000e+00
ITEM: ATOMS id mol type q x y z
1 1 1 1.10383 27.399 17.6496 10.5383
2 1 1 1.10383 9.13299 3.44217 4.3758
3 1 1 1.10383 27.399 15.8188 13.1274
4 1 1 1.10383 9.13299 5.27293 1.78671
5 1 1 1.10383 25.8135 14.9034 10.5383
6 1 1 1.10383 10.7185 6.18832 4.3758
7 1 1 1.10383 28.9845 14.9034 10.5383
8 1 1 1.10383 7.5475 6.18832 4.3758
9 1 2 0.115889 18.266 5.48596 12.6084
10 1 2 0.115889 18.266 15.6058 2.30572
11 1 2 0.115888 18.266 13.716 0.969417
12 1 2 0.115888 18.266 7.37578 13.9447
13 1 2 0.11589 25.3934 11.4908 8.12521
14 1 2 0.11589 11.1386 9.60096 6.7889
15 1 2 0.115888 11.1386 11.4908 8.12521
16 1 2 0.115888 25.3934 9.60096 6.7889
17 1 2 0.115889 15.5206 8.96083 0.969417
18 1 2 0.115889 21.0114 12.1309 13.9447
19 1 2 0.115888 22.648 13.0758 12.6084
20 1 2 0.115888 13.884 8.01592 2.30572
21 1 2 0.115889 21.0114 3.90092 8.12521
22 1 2 0.115889 15.5206 17.1908 6.7889
23 1 2 0.115887 13.884 16.2459 8.12521
24 1 2 0.115887 22.648 4.84583 6.7889
25 1 2 0.115889 22.648 16.2459 8.12521
26 1 2 0.115889 13.884 4.84583 6.7889
27 1 2 0.115887 15.5206 3.90092 8.12521
28 1 2 0.115887 21.0114 17.1908 6.7889
29 1 2 0.115889 21.0114 8.96083 0.969417
30 1 2 0.115889 15.5206 12.1309 13.9447
31 1 2 0.115887 13.884 13.0758 12.6084
32 1 2 0.115887 22.648 8.01592 2.30572
33 1 3 0.671939 27.399 18.7442 13.2542
34 1 3 0.671939 9.13299 2.34751 1.65994
35 1 3 0.671939 27.399 12.8934 9.117
36 1 3 0.671939 9.13299 8.19836 5.79712
37 1 3 0.67194 24.8655 14.3561 13.2542
38 1 3 0.67194 11.6665 6.73565 1.65994
39 1 3 0.67194 29.9325 17.2815 9.117
40 1 3 0.67194 6.5995 3.81022 5.79712
41 1 3 0.67194 24.8655 17.2815 9.117
42 1 3 0.67194 11.6665 3.81022 5.79712
43 1 3 0.67194 29.9325 14.3561 13.2542
44 1 3 0.67194 6.5995 6.73565 1.65994
45 1 3 -0.11508 27.399 19.957 14.1117
46 1 3 -0.11508 9.13299 1.13474 0.802379
47 1 3 -0.11508 27.399 11.6806 8.25944
48 1 3 -0.11508 9.13299 9.41113 6.65468
49 1 3 -0.11508 23.8152 13.7497 14.1117
50 1 3 -0.11508 12.7168 7.34203 0.802379
51 1 3 -0.11508 30.9828 17.8879 8.25944
52 1 3 -0.11508 5.54921 3.20384 6.65468
53 1 3 -0.11508 23.8152 17.8879 8.25944
54 1 3 -0.11508 12.7168 3.20384 6.65468
55 1 3 -0.11508 30.9828 13.7497 14.1117
56 1 3 -0.11508 5.54921 7.34203 0.802379
57 1 3 -0.0559 18.266 5.39949 13.5316
58 1 3 -0.0559 18.266 15.6923 1.38254
59 1 3 -0.055903 18.266 14.5575 0.580159
60 1 3 -0.055903 18.266 6.53422 14.334
61 1 3 -0.0559 26.1971 11.1132 7.85825
62 1 3 -0.0559 10.3349 9.9785 7.05587
63 1 3 -0.055903 10.3349 11.1132 7.85825
64 1 3 -0.055903 26.1971 9.9785 7.05587
65 1 3 -0.0559 14.7918 8.54005 0.580159
66 1 3 -0.0559 21.7402 12.5517 14.334
67 1 3 -0.055903 22.7229 13.1191 13.5316
68 1 3 -0.055903 13.8091 7.97268 1.38254
69 1 3 -0.0559 21.7402 3.39366 7.85825
70 1 3 -0.0559 14.7918 17.6981 7.05587
71 1 3 -0.055903 13.8091 17.1307 7.85825
72 1 3 -0.055903 22.7229 3.96103 7.05587
73 1 3 -0.055901 22.7229 17.1307 7.85825
74 1 3 -0.055901 13.8091 3.96103 7.05587
75 1 3 -0.055903 14.7918 3.39366 7.85825
76 1 3 -0.055903 21.7402 17.6981 7.05587
77 1 3 -0.0559 21.7402 8.54005 0.580159
78 1 3 -0.0559 14.7918 12.5517 14.334
79 1 3 -0.055903 13.8091 13.1191 13.5316
80 1 3 -0.055903 22.7229 7.97268 1.38254
81 1 4 -1.26215 27.399 15.8188 11.1856
82 1 4 -1.26215 9.13299 5.27293 3.72853
83 1 4 -0.60118 27.399 18.9383 11.9641
84 1 4 -0.60118 9.13299 2.15347 2.95001
85 1 4 -0.601179 27.399 17.5926 13.8671
86 1 4 -0.601179 9.13299 3.49912 1.04697
87 1 4 -0.601179 26.2336 13.3722 9.45555
88 1 4 -0.601179 10.2984 7.71958 5.45857
89 1 4 -0.60118 28.5643 13.3722 9.45555
90 1 4 -0.60118 7.96762 7.71958 5.45857
91 1 4 -0.60118 25.8628 14.9319 13.8671
92 1 4 -0.60118 10.6692 6.15984 1.04697
93 1 4 -0.601179 24.6974 14.2591 11.9641
94 1 4 -0.601179 11.8345 6.83267 2.95001
95 1 4 -0.60118 28.9351 18.0514 9.45555
96 1 4 -0.60118 7.59682 3.04037 5.45857
97 1 4 -0.601179 30.1005 16.0329 9.45555
98 1 4 -0.601179 6.43145 5.05885 5.45857
99 1 4 -0.601179 24.6974 16.0329 9.45555
100 1 4 -0.601179 11.8345 5.05885 5.45857
101 1 4 -0.60118 25.8628 18.0514 9.45555
102 1 4 -0.60118 10.6692 3.04037 5.45857
103 1 4 -0.60118 28.9351 14.9319 13.8671
104 1 4 -0.60118 7.59682 6.15984 1.04697
105 1 4 -0.60118 30.1005 14.2591 11.9641
106 1 4 -0.60118 6.43145 6.83267 2.95001
110 3 5 -0.35 6.00776 2.65447 1.28914
111 3 6 0.7 5.60038 2.38245 0.237642
112 3 5 -0.35 14.326 7.38337 14.1003
ITEM: TIMESTEP
73000
ITEM: NUMBER OF ATOMS
106
ITEM: BOX BOUNDS xy xz yz pp pp pp
0.0000000000000000e+00 3.6531964750000000e+01 9.1329911900000003e+00
0.0000000000000000e+00 2.1091739680000000e+01 9.1329911900000003e+00
0.0000000000000000e+00 1.4914112149999999e+01 5.2729349200000000e+00
ITEM: ATOMS id mol type q x y z
1 1 1 1.10383 27.399 17.6496 10.5383
2 1 1 1.10383 9.13299 3.44217 4.3758
3 1 1 1.10383 27.399 15.8188 13.1274
4 1 1 1.10383 9.13299 5.27293 1.78671
5 1 1 1.10383 25.8135 14.9034 10.5383
6 1 1 1.10383 10.7185 6.18832 4.3758
7 1 1 1.10383 28.9845 14.9034 10.5383
8 1 1 1.10383 7.5475 6.18832 4.3758
9 1 2 0.115889 18.266 5.48596 12.6084
10 1 2 0.115889 18.266 15.6058 2.30572
11 1 2 0.115888 18.266 13.716 0.969417
12 1 2 0.115888 18.266 7.37578 13.9447
13 1 2 0.11589 25.3934 11.4908 8.12521
14 1 2 0.11589 11.1386 9.60096 6.7889
15 1 2 0.115888 11.1386 11.4908 8.12521
16 1 2 0.115888 25.3934 9.60096 6.7889
17 1 2 0.115889 15.5206 8.96083 0.969417
18 1 2 0.115889 21.0114 12.1309 13.9447
19 1 2 0.115888 22.648 13.0758 12.6084
20 1 2 0.115888 13.884 8.01592 2.30572
21 1 2 0.115889 21.0114 3.90092 8.12521
22 1 2 0.115889 15.5206 17.1908 6.7889
23 1 2 0.115887 13.884 16.2459 8.12521
24 1 2 0.115887 22.648 4.84583 6.7889
25 1 2 0.115889 22.648 16.2459 8.12521
26 1 2 0.115889 13.884 4.84583 6.7889
27 1 2 0.115887 15.5206 3.90092 8.12521
28 1 2 0.115887 21.0114 17.1908 6.7889
29 1 2 0.115889 21.0114 8.96083 0.969417
30 1 2 0.115889 15.5206 12.1309 13.9447
31 1 2 0.115887 13.884 13.0758 12.6084
32 1 2 0.115887 22.648 8.01592 2.30572
33 1 3 0.671939 27.399 18.7442 13.2542
34 1 3 0.671939 9.13299 2.34751 1.65994
35 1 3 0.671939 27.399 12.8934 9.117
36 1 3 0.671939 9.13299 8.19836 5.79712
37 1 3 0.67194 24.8655 14.3561 13.2542
38 1 3 0.67194 11.6665 6.73565 1.65994
39 1 3 0.67194 29.9325 17.2815 9.117
40 1 3 0.67194 6.5995 3.81022 5.79712
41 1 3 0.67194 24.8655 17.2815 9.117
42 1 3 0.67194 11.6665 3.81022 5.79712
43 1 3 0.67194 29.9325 14.3561 13.2542
44 1 3 0.67194 6.5995 6.73565 1.65994
45 1 3 -0.11508 27.399 19.957 14.1117
46 1 3 -0.11508 9.13299 1.13474 0.802379
47 1 3 -0.11508 27.399 11.6806 8.25944
48 1 3 -0.11508 9.13299 9.41113 6.65468
49 1 3 -0.11508 23.8152 13.7497 14.1117
50 1 3 -0.11508 12.7168 7.34203 0.802379
51 1 3 -0.11508 30.9828 17.8879 8.25944
52 1 3 -0.11508 5.54921 3.20384 6.65468
53 1 3 -0.11508 23.8152 17.8879 8.25944
54 1 3 -0.11508 12.7168 3.20384 6.65468
55 1 3 -0.11508 30.9828 13.7497 14.1117
56 1 3 -0.11508 5.54921 7.34203 0.802379
57 1 3 -0.0559 18.266 5.39949 13.5316
58 1 3 -0.0559 18.266 15.6923 1.38254
59 1 3 -0.055903 18.266 14.5575 0.580159
60 1 3 -0.055903 18.266 6.53422 14.334
61 1 3 -0.0559 26.1971 11.1132 7.85825
62 1 3 -0.0559 10.3349 9.9785 7.05587
63 1 3 -0.055903 10.3349 11.1132 7.85825
64 1 3 -0.055903 26.1971 9.9785 7.05587
65 1 3 -0.0559 14.7918 8.54005 0.580159
66 1 3 -0.0559 21.7402 12.5517 14.334
67 1 3 -0.055903 22.7229 13.1191 13.5316
68 1 3 -0.055903 13.8091 7.97268 1.38254
69 1 3 -0.0559 21.7402 3.39366 7.85825
70 1 3 -0.0559 14.7918 17.6981 7.05587
71 1 3 -0.055903 13.8091 17.1307 7.85825
72 1 3 -0.055903 22.7229 3.96103 7.05587
73 1 3 -0.055901 22.7229 17.1307 7.85825
74 1 3 -0.055901 13.8091 3.96103 7.05587
75 1 3 -0.055903 14.7918 3.39366 7.85825
76 1 3 -0.055903 21.7402 17.6981 7.05587
77 1 3 -0.0559 21.7402 8.54005 0.580159
78 1 3 -0.0559 14.7918 12.5517 14.334
79 1 3 -0.055903 13.8091 13.1191 13.5316
80 1 3 -0.055903 22.7229 7.97268 1.38254
81 1 4 -1.26215 27.399 15.8188 11.1856
82 1 4 -1.26215 9.13299 5.27293 3.72853
83 1 4 -0.60118 27.399 18.9383 11.9641
84 1 4 -0.60118 9.13299 2.15347 2.95001
85 1 4 -0.601179 27.399 17.5926 13.8671
86 1 4 -0.601179 9.13299 3.49912 1.04697
87 1 4 -0.601179 26.2336 13.3722 9.45555
88 1 4 -0.601179 10.2984 7.71958 5.45857
89 1 4 -0.60118 28.5643 13.3722 9.45555
90 1 4 -0.60118 7.96762 7.71958 5.45857
91 1 4 -0.60118 25.8628 14.9319 13.8671
92 1 4 -0.60118 10.6692 6.15984 1.04697
93 1 4 -0.601179 24.6974 14.2591 11.9641
94 1 4 -0.601179 11.8345 6.83267 2.95001
95 1 4 -0.60118 28.9351 18.0514 9.45555
96 1 4 -0.60118 7.59682 3.04037 5.45857
97 1 4 -0.601179 30.1005 16.0329 9.45555
98 1 4 -0.601179 6.43145 5.05885 5.45857
99 1 4 -0.601179 24.6974 16.0329 9.45555
100 1 4 -0.601179 11.8345 5.05885 5.45857
101 1 4 -0.60118 25.8628 18.0514 9.45555
102 1 4 -0.60118 10.6692 3.04037 5.45857
103 1 4 -0.60118 28.9351 14.9319 13.8671
104 1 4 -0.60118 7.59682 6.15984 1.04697
105 1 4 -0.60118 30.1005 14.2591 11.9641
106 1 4 -0.60118 6.43145 6.83267 2.95001
ITEM: TIMESTEP
74000
ITEM: NUMBER OF ATOMS
112
ITEM: BOX BOUNDS xy xz yz pp pp pp
0.0000000000000000e+00 3.6531964750000000e+01 9.1329911900000003e+00
0.0000000000000000e+00 2.1091739680000000e+01 9.1329911900000003e+00
0.0000000000000000e+00 1.4914112149999999e+01 5.2729349200000000e+00
ITEM: ATOMS id mol type q x y z
1 1 1 1.10383 27.399 17.6496 10.5383
2 1 1 1.10383 9.13299 3.44217 4.3758
3 1 1 1.10383 27.399 15.8188 13.1274
4 1 1 1.10383 9.13299 5.27293 1.78671
5 1 1 1.10383 25.8135 14.9034 10.5383
6 1 1 1.10383 10.7185 6.18832 4.3758
7 1 1 1.10383 28.9845 14.9034 10.5383
8 1 1 1.10383 7.5475 6.18832 4.3758
9 1 2 0.115889 18.266 5.48596 12.6084
10 1 2 0.115889 18.266 15.6058 2.30572
11 1 2 0.115888 18.266 13.716 0.969417
12 1 2 0.115888 18.266 7.37578 13.9447
13 1 2 0.11589 25.3934 11.4908 8.12521
14 1 2 0.11589 11.1386 9.60096 6.7889
15 1 2 0.115888 11.1386 11.4908 8.12521
16 1 2 0.115888 25.3934 9.60096 6.7889
17 1 2 0.115889 15.5206 8.96083 0.969417
18 1 2 0.115889 21.0114 12.1309 13.9447
19 1 2 0.115888 22.648 13.0758 12.6084
20 1 2 0.115888 13.884 8.01592 2.30572
21 1 2 0.115889 21.0114 3.90092 8.12521
22 1 2 0.115889 15.5206 17.1908 6.7889
23 1 2 0.115887 13.884 16.2459 8.12521
24 1 2 0.115887 22.648 4.84583 6.7889
25 1 2 0.115889 22.648 16.2459 8.12521
26 1 2 0.115889 13.884 4.84583 6.7889
27 1 2 0.115887 15.5206 3.90092 8.12521
28 1 2 0.115887 21.0114 17.1908 6.7889
29 1 2 0.115889 21.0114 8.96083 0.969417
30 1 2 0.115889 15.5206 12.1309 13.9447
31 1 2 0.115887 13.884 13.0758 12.6084
32 1 2 0.115887 22.648 8.01592 2.30572
33 1 3 0.671939 27.399 18.7442 13.2542
34 1 3 0.671939 9.13299 2.34751 1.65994
35 1 3 0.671939 27.399 12.8934 9.117
36 1 3 0.671939 9.13299 8.19836 5.79712
37 1 3 0.67194 24.8655 14.3561 13.2542
38 1 3 0.67194 11.6665 6.73565 1.65994
39 1 3 0.67194 29.9325 17.2815 9.117
40 1 3 0.67194 6.5995 3.81022 5.79712
41 1 3 0.67194 24.8655 17.2815 9.117
42 1 3 0.67194 11.6665 3.81022 5.79712
43 1 3 0.67194 29.9325 14.3561 13.2542
44 1 3 0.67194 6.5995 6.73565 1.65994
45 1 3 -0.11508 27.399 19.957 14.1117
46 1 3 -0.11508 9.13299 1.13474 0.802379
47 1 3 -0.11508 27.399 11.6806 8.25944
48 1 3 -0.11508 9.13299 9.41113 6.65468
49 1 3 -0.11508 23.8152 13.7497 14.1117
50 1 3 -0.11508 12.7168 7.34203 0.802379
51 1 3 -0.11508 30.9828 17.8879 8.25944
52 1 3 -0.11508 5.54921 3.20384 6.65468
53 1 3 -0.11508 23.8152 17.8879 8.25944
54 1 3 -0.11508 12.7168 3.20384 6.65468
55 1 3 -0.11508 30.9828 13.7497 14.1117
56 1 3 -0.11508 5.54921 7.34203 0.802379
57 1 3 -0.0559 18.266 5.39949 13.5316
58 1 3 -0.0559 18.266 15.6923 1.38254
59 1 3 -0.055903 18.266 14.5575 0.580159
60 1 3 -0.055903 18.266 6.53422 14.334
61 1 3 -0.0559 26.1971 11.1132 7.85825
62 1 3 -0.0559 10.3349 9.9785 7.05587
63 1 3 -0.055903 10.3349 11.1132 7.85825
64 1 3 -0.055903 26.1971 9.9785 7.05587
65 1 3 -0.0559 14.7918 8.54005 0.580159
66 1 3 -0.0559 21.7402 12.5517 14.334
67 1 3 -0.055903 22.7229 13.1191 13.5316
68 1 3 -0.055903 13.8091 7.97268 1.38254
69 1 3 -0.0559 21.7402 3.39366 7.85825
70 1 3 -0.0559 14.7918 17.6981 7.05587
71 1 3 -0.055903 13.8091 17.1307 7.85825
72 1 3 -0.055903 22.7229 3.96103 7.05587
73 1 3 -0.055901 22.7229 17.1307 7.85825
74 1 3 -0.055901 13.8091 3.96103 7.05587
75 1 3 -0.055903 14.7918 3.39366 7.85825
76 1 3 -0.055903 21.7402 17.6981 7.05587
77 1 3 -0.0559 21.7402 8.54005 0.580159
78 1 3 -0.0559 14.7918 12.5517 14.334
79 1 3 -0.055903 13.8091 13.1191 13.5316
80 1 3 -0.055903 22.7229 7.97268 1.38254
81 1 4 -1.26215 27.399 15.8188 11.1856
82 1 4 -1.26215 9.13299 5.27293 3.72853
83 1 4 -0.60118 27.399 18.9383 11.9641
84 1 4 -0.60118 9.13299 2.15347 2.95001
85 1 4 -0.601179 27.399 17.5926 13.8671
86 1 4 -0.601179 9.13299 3.49912 1.04697
87 1 4 -0.601179 26.2336 13.3722 9.45555
88 1 4 -0.601179 10.2984 7.71958 5.45857
89 1 4 -0.60118 28.5643 13.3722 9.45555
90 1 4 -0.60118 7.96762 7.71958 5.45857
91 1 4 -0.60118 25.8628 14.9319 13.8671
92 1 4 -0.60118 10.6692 6.15984 1.04697
93 1 4 -0.601179 24.6974 14.2591 11.9641
94 1 4 -0.601179 11.8345 6.83267 2.95001
95 1 4 -0.60118 28.9351 18.0514 9.45555
96 1 4 -0.60118 7.59682 3.04037 5.45857
97 1 4 -0.601179 30.1005 16.0329 9.45555
98 1 4 -0.601179 6.43145 5.05885 5.45857
99 1 4 -0.601179 24.6974 16.0329 9.45555
100 1 4 -0.601179 11.8345 5.05885 5.45857
101 1 4 -0.60118 25.8628 18.0514 9.45555
102 1 4 -0.60118 10.6692 3.04037 5.45857
103 1 4 -0.60118 28.9351 14.9319 13.8671
104 1 4 -0.60118 7.59682 6.15984 1.04697
105 1 4 -0.60118 30.1005 14.2591 11.9641
106 1 4 -0.60118 6.43145 6.83267 2.95001
107 2 5 -0.35 14.7033 13.4273 0.485618
108 2 6 0.7 13.9506 12.6862 0.0062854
109 2 5 -0.35 22.3309 17.218 14.4411
110 3 5 -0.35 10.3074 7.13527 11.2905
111 3 6 0.7 10.3239 7.12225 10.1307
112 3 5 -0.35 10.3405 7.10922 8.97089
ITEM: TIMESTEP
75000
ITEM: NUMBER OF ATOMS
118
ITEM: BOX BOUNDS xy xz yz pp pp pp
0.0000000000000000e+00 3.6531964750000000e+01 9.1329911900000003e+00
0.0000000000000000e+00 2.1091739680000000e+01 9.1329911900000003e+00
0.0000000000000000e+00 1.4914112149999999e+01 5.2729349200000000e+00
ITEM: ATOMS id mol type q x y z
1 1 1 1.10383 27.399 17.6496 10.5383
2 1 1 1.10383 9.13299 3.44217 4.3758
3 1 1 1.10383 27.399 15.8188 13.1274
4 1 1 1.10383 9.13299 5.27293 1.78671
5 1 1 1.10383 25.8135 14.9034 10.5383
6 1 1 1.10383 10.7185 6.18832 4.3758
7 1 1 1.10383 28.9845 14.9034 10.5383
8 1 1 1.10383 7.5475 6.18832 4.3758
9 1 2 0.115889 18.266 5.48596 12.6084
10 1 2 0.115889 18.266 15.6058 2.30572
11 1 2 0.115888 18.266 13.716 0.969417
12 1 2 0.115888 18.266 7.37578 13.9447
13 1 2 0.11589 25.3934 11.4908 8.12521
14 1 2 0.11589 11.1386 9.60096 6.7889
15 1 2 0.115888 11.1386 11.4908 8.12521
16 1 2 0.115888 25.3934 9.60096 6.7889
17 1 2 0.115889 15.5206 8.96083 0.969417
18 1 2 0.115889 21.0114 12.1309 13.9447
19 1 2 0.115888 22.648 13.0758 12.6084
20 1 2 0.115888 13.884 8.01592 2.30572
21 1 2 0.115889 21.0114 3.90092 8.12521
22 1 2 0.115889 15.5206 17.1908 6.7889
23 1 2 0.115887 13.884 16.2459 8.12521
24 1 2 0.115887 22.648 4.84583 6.7889
25 1 2 0.115889 22.648 16.2459 8.12521
26 1 2 0.115889 13.884 4.84583 6.7889
27 1 2 0.115887 15.5206 3.90092 8.12521
28 1 2 0.115887 21.0114 17.1908 6.7889
29 1 2 0.115889 21.0114 8.96083 0.969417
30 1 2 0.115889 15.5206 12.1309 13.9447
31 1 2 0.115887 13.884 13.0758 12.6084
32 1 2 0.115887 22.648 8.01592 2.30572
33 1 3 0.671939 27.399 18.7442 13.2542
34 1 3 0.671939 9.13299 2.34751 1.65994
35 1 3 0.671939 27.399 12.8934 9.117
36 1 3 0.671939 9.13299 8.19836 5.79712
37 1 3 0.67194 24.8655 14.3561 13.2542
38 1 3 0.67194 11.6665 6.73565 1.65994
39 1 3 0.67194 29.9325 17.2815 9.117
40 1 3 0.67194 6.5995 3.81022 5.79712
41 1 3 0.67194 24.8655 17.2815 9.117
42 1 3 0.67194 11.6665 3.81022 5.79712
43 1 3 0.67194 29.9325 14.3561 13.2542
44 1 3 0.67194 6.5995 6.73565 1.65994
45 1 3 -0.11508 27.399 19.957 14.1117
46 1 3 -0.11508 9.13299 1.13474 0.802379
47 1 3 -0.11508 27.399 11.6806 8.25944
48 1 3 -0.11508 9.13299 9.41113 6.65468
49 1 3 -0.11508 23.8152 13.7497 14.1117
50 1 3 -0.11508 12.7168 7.34203 0.802379
51 1 3 -0.11508 30.9828 17.8879 8.25944
52 1 3 -0.11508 5.54921 3.20384 6.65468
53 1 3 -0.11508 23.8152 17.8879 8.25944
54 1 3 -0.11508 12.7168 3.20384 6.65468
55 1 3 -0.11508 30.9828 13.7497 14.1117
56 1 3 -0.11508 5.54921 7.34203 0.802379
57 1 3 -0.0559 18.266 5.39949 13.5316
58 1 3 -0.0559 18.266 15.6923 1.38254
59 1 3 -0.055903 18.266 14.5575 0.580159
60 1 3 -0.055903 18.266 6.53422 14.334
61 1 3 -0.0559 26.1971 11.1132 7.85825
62 1 3 -0.0559 10.3349 9.9785 7.05587
63 1 3 -0.055903 10.3349 11.1132 7.85825
64 1 3 -0.055903 26.1971 9.9785 7.05587
65 1 3 -0.0559 14.7918 8.54005 0.580159
66 1 3 -0.0559 21.7402 12.5517 14.334
67 1 3 -0.055903 22.7229 13.1191 13.5316
68 1 3 -0.055903 13.8091 7.97268 1.38254
69 1 3 -0.0559 21.7402 3.39366 7.85825
70 1 3 -0.0559 14.7918 17.6981 7.05587
71 1 3 -0.055903 13.8091 17.1307 7.85825
72 1 3 -0.055903 22.7229 3.96103 7.05587
73 1 3 -0.055901 22.7229 17.1307 7.85825
74 1 3 -0.055901 13.8091 3.96103 7.05587
75 1 3 -0.055903 14.7918 3.39366 7.85825
76 1 3 -0.055903 21.7402 17.6981 7.05587
77 1 3 -0.0559 21.7402 8.54005 0.580159
78 1 3 -0.0559 14.7918 12.5517 14.334
79 1 3 -0.055903 13.8091 13.1191 13.5316
80 1 3 -0.055903 22.7229 7.97268 1.38254
81 1 4 -1.26215 27.399 15.8188 11.1856
82 1 4 -1.26215 9.13299 5.27293 3.72853
83 1 4 -0.60118 27.399 18.9383 11.9641
84 1 4 -0.60118 9.13299 2.15347 2.95001
85 1 4 -0.601179 27.399 17.5926 13.8671
86 1 4 -0.601179 9.13299 3.49912 1.04697
87 1 4 -0.601179 26.2336 13.3722 9.45555
88 1 4 -0.601179 10.2984 7.71958 5.45857
89 1 4 -0.60118 28.5643 13.3722 9.45555
90 1 4 -0.60118 7.96762 7.71958 5.45857
91 1 4 -0.60118 25.8628 14.9319 13.8671
92 1 4 -0.60118 10.6692 6.15984 1.04697
93 1 4 -0.601179 24.6974 14.2591 11.9641
94 1 4 -0.601179 11.8345 6.83267 2.95001
95 1 4 -0.60118 28.9351 18.0514 9.45555
96 1 4 -0.60118 7.59682 3.04037 5.45857
97 1 4 -0.601179 30.1005 16.0329 9.45555
98 1 4 -0.601179 6.43145 5.05885 5.45857
99 1 4 -0.601179 24.6974 16.0329 9.45555
100 1 4 -0.601179 11.8345 5.05885 5.45857
101 1 4 -0.60118 25.8628 18.0514 9.45555
102 1 4 -0.60118 10.6692 3.04037 5.45857
103 1 4 -0.60118 28.9351 14.9319 13.8671
104 1 4 -0.60118 7.59682 6.15984 1.04697
105 1 4 -0.60118 30.1005 14.2591 11.9641
106 1 4 -0.60118 6.43145 6.83267 2.95001
107 2 5 -0.35 8.97113 8.71298 1.36982
108 2 6 0.7 8.94845 8.52209 0.225856
109 2 5 -0.35 18.0588 13.6041 13.996
110 3 5 -0.35 12.8838 10.1338 11.6195
111 3 6 0.7 12.0508 10.4789 12.3492
112 3 5 -0.35 29.4838 10.8241 13.079
113 4 5 -0.35 5.4939 1.99134 1.13207
114 4 6 0.7 5.70285 1.66925 0.0374429
115 4 5 -0.35 15.0448 6.6201 13.8569
116 5 5 -0.35 24.3735 14.5993 5.30659
117 5 6 0.7 24.5645 15.7299 5.13101
118 5 5 -0.35 24.7555 16.8606 4.95543
ITEM: TIMESTEP
76000
ITEM: NUMBER OF ATOMS
109
ITEM: BOX BOUNDS xy xz yz pp pp pp
0.0000000000000000e+00 3.6531964750000000e+01 9.1329911900000003e+00
0.0000000000000000e+00 2.1091739680000000e+01 9.1329911900000003e+00
0.0000000000000000e+00 1.4914112149999999e+01 5.2729349200000000e+00
ITEM: ATOMS id mol type q x y z
1 1 1 1.10383 27.399 17.6496 10.5383
2 1 1 1.10383 9.13299 3.44217 4.3758
3 1 1 1.10383 27.399 15.8188 13.1274
4 1 1 1.10383 9.13299 5.27293 1.78671
5 1 1 1.10383 25.8135 14.9034 10.5383
6 1 1 1.10383 10.7185 6.18832 4.3758
7 1 1 1.10383 28.9845 14.9034 10.5383
8 1 1 1.10383 7.5475 6.18832 4.3758
9 1 2 0.115889 18.266 5.48596 12.6084
10 1 2 0.115889 18.266 15.6058 2.30572
11 1 2 0.115888 18.266 13.716 0.969417
12 1 2 0.115888 18.266 7.37578 13.9447
13 1 2 0.11589 25.3934 11.4908 8.12521
14 1 2 0.11589 11.1386 9.60096 6.7889
15 1 2 0.115888 11.1386 11.4908 8.12521
16 1 2 0.115888 25.3934 9.60096 6.7889
17 1 2 0.115889 15.5206 8.96083 0.969417
18 1 2 0.115889 21.0114 12.1309 13.9447
19 1 2 0.115888 22.648 13.0758 12.6084
20 1 2 0.115888 13.884 8.01592 2.30572
21 1 2 0.115889 21.0114 3.90092 8.12521
22 1 2 0.115889 15.5206 17.1908 6.7889
23 1 2 0.115887 13.884 16.2459 8.12521
24 1 2 0.115887 22.648 4.84583 6.7889
25 1 2 0.115889 22.648 16.2459 8.12521
26 1 2 0.115889 13.884 4.84583 6.7889
27 1 2 0.115887 15.5206 3.90092 8.12521
28 1 2 0.115887 21.0114 17.1908 6.7889
29 1 2 0.115889 21.0114 8.96083 0.969417
30 1 2 0.115889 15.5206 12.1309 13.9447
31 1 2 0.115887 13.884 13.0758 12.6084
32 1 2 0.115887 22.648 8.01592 2.30572
33 1 3 0.671939 27.399 18.7442 13.2542
34 1 3 0.671939 9.13299 2.34751 1.65994
35 1 3 0.671939 27.399 12.8934 9.117
36 1 3 0.671939 9.13299 8.19836 5.79712
37 1 3 0.67194 24.8655 14.3561 13.2542
38 1 3 0.67194 11.6665 6.73565 1.65994
39 1 3 0.67194 29.9325 17.2815 9.117
40 1 3 0.67194 6.5995 3.81022 5.79712
41 1 3 0.67194 24.8655 17.2815 9.117
42 1 3 0.67194 11.6665 3.81022 5.79712
43 1 3 0.67194 29.9325 14.3561 13.2542
44 1 3 0.67194 6.5995 6.73565 1.65994
45 1 3 -0.11508 27.399 19.957 14.1117
46 1 3 -0.11508 9.13299 1.13474 0.802379
47 1 3 -0.11508 27.399 11.6806 8.25944
48 1 3 -0.11508 9.13299 9.41113 6.65468
49 1 3 -0.11508 23.8152 13.7497 14.1117
50 1 3 -0.11508 12.7168 7.34203 0.802379
51 1 3 -0.11508 30.9828 17.8879 8.25944
52 1 3 -0.11508 5.54921 3.20384 6.65468
53 1 3 -0.11508 23.8152 17.8879 8.25944
54 1 3 -0.11508 12.7168 3.20384 6.65468
55 1 3 -0.11508 30.9828 13.7497 14.1117
56 1 3 -0.11508 5.54921 7.34203 0.802379
57 1 3 -0.0559 18.266 5.39949 13.5316
58 1 3 -0.0559 18.266 15.6923 1.38254
59 1 3 -0.055903 18.266 14.5575 0.580159
60 1 3 -0.055903 18.266 6.53422 14.334
61 1 3 -0.0559 26.1971 11.1132 7.85825
62 1 3 -0.0559 10.3349 9.9785 7.05587
63 1 3 -0.055903 10.3349 11.1132 7.85825
64 1 3 -0.055903 26.1971 9.9785 7.05587
65 1 3 -0.0559 14.7918 8.54005 0.580159
66 1 3 -0.0559 21.7402 12.5517 14.334
67 1 3 -0.055903 22.7229 13.1191 13.5316
68 1 3 -0.055903 13.8091 7.97268 1.38254
69 1 3 -0.0559 21.7402 3.39366 7.85825
70 1 3 -0.0559 14.7918 17.6981 7.05587
71 1 3 -0.055903 13.8091 17.1307 7.85825
72 1 3 -0.055903 22.7229 3.96103 7.05587
73 1 3 -0.055901 22.7229 17.1307 7.85825
74 1 3 -0.055901 13.8091 3.96103 7.05587
75 1 3 -0.055903 14.7918 3.39366 7.85825
76 1 3 -0.055903 21.7402 17.6981 7.05587
77 1 3 -0.0559 21.7402 8.54005 0.580159
78 1 3 -0.0559 14.7918 12.5517 14.334
79 1 3 -0.055903 13.8091 13.1191 13.5316
80 1 3 -0.055903 22.7229 7.97268 1.38254
81 1 4 -1.26215 27.399 15.8188 11.1856
82 1 4 -1.26215 9.13299 5.27293 3.72853
83 1 4 -0.60118 27.399 18.9383 11.9641
84 1 4 -0.60118 9.13299 2.15347 2.95001
85 1 4 -0.601179 27.399 17.5926 13.8671
86 1 4 -0.601179 9.13299 3.49912 1.04697
87 1 4 -0.601179 26.2336 13.3722 9.45555
88 1 4 -0.601179 10.2984 7.71958 5.45857
89 1 4 -0.60118 28.5643 13.3722 9.45555
90 1 4 -0.60118 7.96762 7.71958 5.45857
91 1 4 -0.60118 25.8628 14.9319 13.8671
92 1 4 -0.60118 10.6692 6.15984 1.04697
93 1 4 -0.601179 24.6974 14.2591 11.9641
94 1 4 -0.601179 11.8345 6.83267 2.95001
95 1 4 -0.60118 28.9351 18.0514 9.45555
96 1 4 -0.60118 7.59682 3.04037 5.45857
97 1 4 -0.601179 30.1005 16.0329 9.45555
98 1 4 -0.601179 6.43145 5.05885 5.45857
99 1 4 -0.601179 24.6974 16.0329 9.45555
100 1 4 -0.601179 11.8345 5.05885 5.45857
101 1 4 -0.60118 25.8628 18.0514 9.45555
102 1 4 -0.60118 10.6692 3.04037 5.45857
103 1 4 -0.60118 28.9351 14.9319 13.8671
104 1 4 -0.60118 7.59682 6.15984 1.04697
105 1 4 -0.60118 30.1005 14.2591 11.9641
106 1 4 -0.60118 6.43145 6.83267 2.95001
107 2 5 -0.35 10.4603 13.3686 4.76448
108 2 6 0.7 9.71928 13.6825 3.929
109 2 5 -0.35 27.2442 13.9963 3.09352
ITEM: TIMESTEP
77000
ITEM: NUMBER OF ATOMS
109
ITEM: BOX BOUNDS xy xz yz pp pp pp
0.0000000000000000e+00 3.6531964750000000e+01 9.1329911900000003e+00
0.0000000000000000e+00 2.1091739680000000e+01 9.1329911900000003e+00
0.0000000000000000e+00 1.4914112149999999e+01 5.2729349200000000e+00
ITEM: ATOMS id mol type q x y z
1 1 1 1.10383 27.399 17.6496 10.5383
2 1 1 1.10383 9.13299 3.44217 4.3758
3 1 1 1.10383 27.399 15.8188 13.1274
4 1 1 1.10383 9.13299 5.27293 1.78671
5 1 1 1.10383 25.8135 14.9034 10.5383
6 1 1 1.10383 10.7185 6.18832 4.3758
7 1 1 1.10383 28.9845 14.9034 10.5383
8 1 1 1.10383 7.5475 6.18832 4.3758
9 1 2 0.115889 18.266 5.48596 12.6084
10 1 2 0.115889 18.266 15.6058 2.30572
11 1 2 0.115888 18.266 13.716 0.969417
12 1 2 0.115888 18.266 7.37578 13.9447
13 1 2 0.11589 25.3934 11.4908 8.12521
14 1 2 0.11589 11.1386 9.60096 6.7889
15 1 2 0.115888 11.1386 11.4908 8.12521
16 1 2 0.115888 25.3934 9.60096 6.7889
17 1 2 0.115889 15.5206 8.96083 0.969417
18 1 2 0.115889 21.0114 12.1309 13.9447
19 1 2 0.115888 22.648 13.0758 12.6084
20 1 2 0.115888 13.884 8.01592 2.30572
21 1 2 0.115889 21.0114 3.90092 8.12521
22 1 2 0.115889 15.5206 17.1908 6.7889
23 1 2 0.115887 13.884 16.2459 8.12521
24 1 2 0.115887 22.648 4.84583 6.7889
25 1 2 0.115889 22.648 16.2459 8.12521
26 1 2 0.115889 13.884 4.84583 6.7889
27 1 2 0.115887 15.5206 3.90092 8.12521
28 1 2 0.115887 21.0114 17.1908 6.7889
29 1 2 0.115889 21.0114 8.96083 0.969417
30 1 2 0.115889 15.5206 12.1309 13.9447
31 1 2 0.115887 13.884 13.0758 12.6084
32 1 2 0.115887 22.648 8.01592 2.30572
33 1 3 0.671939 27.399 18.7442 13.2542
34 1 3 0.671939 9.13299 2.34751 1.65994
35 1 3 0.671939 27.399 12.8934 9.117
36 1 3 0.671939 9.13299 8.19836 5.79712
37 1 3 0.67194 24.8655 14.3561 13.2542
38 1 3 0.67194 11.6665 6.73565 1.65994
39 1 3 0.67194 29.9325 17.2815 9.117
40 1 3 0.67194 6.5995 3.81022 5.79712
41 1 3 0.67194 24.8655 17.2815 9.117
42 1 3 0.67194 11.6665 3.81022 5.79712
43 1 3 0.67194 29.9325 14.3561 13.2542
44 1 3 0.67194 6.5995 6.73565 1.65994
45 1 3 -0.11508 27.399 19.957 14.1117
46 1 3 -0.11508 9.13299 1.13474 0.802379
47 1 3 -0.11508 27.399 11.6806 8.25944
48 1 3 -0.11508 9.13299 9.41113 6.65468
49 1 3 -0.11508 23.8152 13.7497 14.1117
50 1 3 -0.11508 12.7168 7.34203 0.802379
51 1 3 -0.11508 30.9828 17.8879 8.25944
52 1 3 -0.11508 5.54921 3.20384 6.65468
53 1 3 -0.11508 23.8152 17.8879 8.25944
54 1 3 -0.11508 12.7168 3.20384 6.65468
55 1 3 -0.11508 30.9828 13.7497 14.1117
56 1 3 -0.11508 5.54921 7.34203 0.802379
57 1 3 -0.0559 18.266 5.39949 13.5316
58 1 3 -0.0559 18.266 15.6923 1.38254
59 1 3 -0.055903 18.266 14.5575 0.580159
60 1 3 -0.055903 18.266 6.53422 14.334
61 1 3 -0.0559 26.1971 11.1132 7.85825
62 1 3 -0.0559 10.3349 9.9785 7.05587
63 1 3 -0.055903 10.3349 11.1132 7.85825
64 1 3 -0.055903 26.1971 9.9785 7.05587
65 1 3 -0.0559 14.7918 8.54005 0.580159
66 1 3 -0.0559 21.7402 12.5517 14.334
67 1 3 -0.055903 22.7229 13.1191 13.5316
68 1 3 -0.055903 13.8091 7.97268 1.38254
69 1 3 -0.0559 21.7402 3.39366 7.85825
70 1 3 -0.0559 14.7918 17.6981 7.05587
71 1 3 -0.055903 13.8091 17.1307 7.85825
72 1 3 -0.055903 22.7229 3.96103 7.05587
73 1 3 -0.055901 22.7229 17.1307 7.85825
74 1 3 -0.055901 13.8091 3.96103 7.05587
75 1 3 -0.055903 14.7918 3.39366 7.85825
76 1 3 -0.055903 21.7402 17.6981 7.05587
77 1 3 -0.0559 21.7402 8.54005 0.580159
78 1 3 -0.0559 14.7918 12.5517 14.334
79 1 3 -0.055903 13.8091 13.1191 13.5316
80 1 3 -0.055903 22.7229 7.97268 1.38254
81 1 4 -1.26215 27.399 15.8188 11.1856
82 1 4 -1.26215 9.13299 5.27293 3.72853
83 1 4 -0.60118 27.399 18.9383 11.9641
84 1 4 -0.60118 9.13299 2.15347 2.95001
85 1 4 -0.601179 27.399 17.5926 13.8671
86 1 4 -0.601179 9.13299 3.49912 1.04697
87 1 4 -0.601179 26.2336 13.3722 9.45555
88 1 4 -0.601179 10.2984 7.71958 5.45857
89 1 4 -0.60118 28.5643 13.3722 9.45555
90 1 4 -0.60118 7.96762 7.71958 5.45857
91 1 4 -0.60118 25.8628 14.9319 13.8671
92 1 4 -0.60118 10.6692 6.15984 1.04697
93 1 4 -0.601179 24.6974 14.2591 11.9641
94 1 4 -0.601179 11.8345 6.83267 2.95001
95 1 4 -0.60118 28.9351 18.0514 9.45555
96 1 4 -0.60118 7.59682 3.04037 5.45857
97 1 4 -0.601179 30.1005 16.0329 9.45555
98 1 4 -0.601179 6.43145 5.05885 5.45857
99 1 4 -0.601179 24.6974 16.0329 9.45555
100 1 4 -0.601179 11.8345 5.05885 5.45857
101 1 4 -0.60118 25.8628 18.0514 9.45555
102 1 4 -0.60118 10.6692 3.04037 5.45857
103 1 4 -0.60118 28.9351 14.9319 13.8671
104 1 4 -0.60118 7.59682 6.15984 1.04697
105 1 4 -0.60118 30.1005 14.2591 11.9641
106 1 4 -0.60118 6.43145 6.83267 2.95001
107 2 5 -0.35 18.3455 2.86674 4.60727
108 2 6 0.7 18.8176 3.68257 5.28339
109 2 5 -0.35 19.2897 4.4984 5.95951
ITEM: TIMESTEP
78000
ITEM: NUMBER OF ATOMS
106
ITEM: BOX BOUNDS xy xz yz pp pp pp
0.0000000000000000e+00 3.6531964750000000e+01 9.1329911900000003e+00
0.0000000000000000e+00 2.1091739680000000e+01 9.1329911900000003e+00
0.0000000000000000e+00 1.4914112149999999e+01 5.2729349200000000e+00
ITEM: ATOMS id mol type q x y z
1 1 1 1.10383 27.399 17.6496 10.5383
2 1 1 1.10383 9.13299 3.44217 4.3758
3 1 1 1.10383 27.399 15.8188 13.1274
4 1 1 1.10383 9.13299 5.27293 1.78671
5 1 1 1.10383 25.8135 14.9034 10.5383
6 1 1 1.10383 10.7185 6.18832 4.3758
7 1 1 1.10383 28.9845 14.9034 10.5383
8 1 1 1.10383 7.5475 6.18832 4.3758
9 1 2 0.115889 18.266 5.48596 12.6084
10 1 2 0.115889 18.266 15.6058 2.30572
11 1 2 0.115888 18.266 13.716 0.969417
12 1 2 0.115888 18.266 7.37578 13.9447
13 1 2 0.11589 25.3934 11.4908 8.12521
14 1 2 0.11589 11.1386 9.60096 6.7889
15 1 2 0.115888 11.1386 11.4908 8.12521
16 1 2 0.115888 25.3934 9.60096 6.7889
17 1 2 0.115889 15.5206 8.96083 0.969417
18 1 2 0.115889 21.0114 12.1309 13.9447
19 1 2 0.115888 22.648 13.0758 12.6084
20 1 2 0.115888 13.884 8.01592 2.30572
21 1 2 0.115889 21.0114 3.90092 8.12521
22 1 2 0.115889 15.5206 17.1908 6.7889
23 1 2 0.115887 13.884 16.2459 8.12521
24 1 2 0.115887 22.648 4.84583 6.7889
25 1 2 0.115889 22.648 16.2459 8.12521
26 1 2 0.115889 13.884 4.84583 6.7889
27 1 2 0.115887 15.5206 3.90092 8.12521
28 1 2 0.115887 21.0114 17.1908 6.7889
29 1 2 0.115889 21.0114 8.96083 0.969417
30 1 2 0.115889 15.5206 12.1309 13.9447
31 1 2 0.115887 13.884 13.0758 12.6084
32 1 2 0.115887 22.648 8.01592 2.30572
33 1 3 0.671939 27.399 18.7442 13.2542
34 1 3 0.671939 9.13299 2.34751 1.65994
35 1 3 0.671939 27.399 12.8934 9.117
36 1 3 0.671939 9.13299 8.19836 5.79712
37 1 3 0.67194 24.8655 14.3561 13.2542
38 1 3 0.67194 11.6665 6.73565 1.65994
39 1 3 0.67194 29.9325 17.2815 9.117
40 1 3 0.67194 6.5995 3.81022 5.79712
41 1 3 0.67194 24.8655 17.2815 9.117
42 1 3 0.67194 11.6665 3.81022 5.79712
43 1 3 0.67194 29.9325 14.3561 13.2542
44 1 3 0.67194 6.5995 6.73565 1.65994
45 1 3 -0.11508 27.399 19.957 14.1117
46 1 3 -0.11508 9.13299 1.13474 0.802379
47 1 3 -0.11508 27.399 11.6806 8.25944
48 1 3 -0.11508 9.13299 9.41113 6.65468
49 1 3 -0.11508 23.8152 13.7497 14.1117
50 1 3 -0.11508 12.7168 7.34203 0.802379
51 1 3 -0.11508 30.9828 17.8879 8.25944
52 1 3 -0.11508 5.54921 3.20384 6.65468
53 1 3 -0.11508 23.8152 17.8879 8.25944
54 1 3 -0.11508 12.7168 3.20384 6.65468
55 1 3 -0.11508 30.9828 13.7497 14.1117
56 1 3 -0.11508 5.54921 7.34203 0.802379
57 1 3 -0.0559 18.266 5.39949 13.5316
58 1 3 -0.0559 18.266 15.6923 1.38254
59 1 3 -0.055903 18.266 14.5575 0.580159
60 1 3 -0.055903 18.266 6.53422 14.334
61 1 3 -0.0559 26.1971 11.1132 7.85825
62 1 3 -0.0559 10.3349 9.9785 7.05587
63 1 3 -0.055903 10.3349 11.1132 7.85825
64 1 3 -0.055903 26.1971 9.9785 7.05587
65 1 3 -0.0559 14.7918 8.54005 0.580159
66 1 3 -0.0559 21.7402 12.5517 14.334
67 1 3 -0.055903 22.7229 13.1191 13.5316
68 1 3 -0.055903 13.8091 7.97268 1.38254
69 1 3 -0.0559 21.7402 3.39366 7.85825
70 1 3 -0.0559 14.7918 17.6981 7.05587
71 1 3 -0.055903 13.8091 17.1307 7.85825
72 1 3 -0.055903 22.7229 3.96103 7.05587
73 1 3 -0.055901 22.7229 17.1307 7.85825
74 1 3 -0.055901 13.8091 3.96103 7.05587
75 1 3 -0.055903 14.7918 3.39366 7.85825
76 1 3 -0.055903 21.7402 17.6981 7.05587
77 1 3 -0.0559 21.7402 8.54005 0.580159
78 1 3 -0.0559 14.7918 12.5517 14.334
79 1 3 -0.055903 13.8091 13.1191 13.5316
80 1 3 -0.055903 22.7229 7.97268 1.38254
81 1 4 -1.26215 27.399 15.8188 11.1856
82 1 4 -1.26215 9.13299 5.27293 3.72853
83 1 4 -0.60118 27.399 18.9383 11.9641
84 1 4 -0.60118 9.13299 2.15347 2.95001
85 1 4 -0.601179 27.399 17.5926 13.8671
86 1 4 -0.601179 9.13299 3.49912 1.04697
87 1 4 -0.601179 26.2336 13.3722 9.45555
88 1 4 -0.601179 10.2984 7.71958 5.45857
89 1 4 -0.60118 28.5643 13.3722 9.45555
90 1 4 -0.60118 7.96762 7.71958 5.45857
91 1 4 -0.60118 25.8628 14.9319 13.8671
92 1 4 -0.60118 10.6692 6.15984 1.04697
93 1 4 -0.601179 24.6974 14.2591 11.9641
94 1 4 -0.601179 11.8345 6.83267 2.95001
95 1 4 -0.60118 28.9351 18.0514 9.45555
96 1 4 -0.60118 7.59682 3.04037 5.45857
97 1 4 -0.601179 30.1005 16.0329 9.45555
98 1 4 -0.601179 6.43145 5.05885 5.45857
99 1 4 -0.601179 24.6974 16.0329 9.45555
100 1 4 -0.601179 11.8345 5.05885 5.45857
101 1 4 -0.60118 25.8628 18.0514 9.45555
102 1 4 -0.60118 10.6692 3.04037 5.45857
103 1 4 -0.60118 28.9351 14.9319 13.8671
104 1 4 -0.60118 7.59682 6.15984 1.04697
105 1 4 -0.60118 30.1005 14.2591 11.9641
106 1 4 -0.60118 6.43145 6.83267 2.95001
ITEM: TIMESTEP
79000
ITEM: NUMBER OF ATOMS
106
ITEM: BOX BOUNDS xy xz yz pp pp pp
0.0000000000000000e+00 3.6531964750000000e+01 9.1329911900000003e+00
0.0000000000000000e+00 2.1091739680000000e+01 9.1329911900000003e+00
0.0000000000000000e+00 1.4914112149999999e+01 5.2729349200000000e+00
ITEM: ATOMS id mol type q x y z
1 1 1 1.10383 27.399 17.6496 10.5383
2 1 1 1.10383 9.13299 3.44217 4.3758
3 1 1 1.10383 27.399 15.8188 13.1274
4 1 1 1.10383 9.13299 5.27293 1.78671
5 1 1 1.10383 25.8135 14.9034 10.5383
6 1 1 1.10383 10.7185 6.18832 4.3758
7 1 1 1.10383 28.9845 14.9034 10.5383
8 1 1 1.10383 7.5475 6.18832 4.3758
9 1 2 0.115889 18.266 5.48596 12.6084
10 1 2 0.115889 18.266 15.6058 2.30572
11 1 2 0.115888 18.266 13.716 0.969417
12 1 2 0.115888 18.266 7.37578 13.9447
13 1 2 0.11589 25.3934 11.4908 8.12521
14 1 2 0.11589 11.1386 9.60096 6.7889
15 1 2 0.115888 11.1386 11.4908 8.12521
16 1 2 0.115888 25.3934 9.60096 6.7889
17 1 2 0.115889 15.5206 8.96083 0.969417
18 1 2 0.115889 21.0114 12.1309 13.9447
19 1 2 0.115888 22.648 13.0758 12.6084
20 1 2 0.115888 13.884 8.01592 2.30572
21 1 2 0.115889 21.0114 3.90092 8.12521
22 1 2 0.115889 15.5206 17.1908 6.7889
23 1 2 0.115887 13.884 16.2459 8.12521
24 1 2 0.115887 22.648 4.84583 6.7889
25 1 2 0.115889 22.648 16.2459 8.12521
26 1 2 0.115889 13.884 4.84583 6.7889
27 1 2 0.115887 15.5206 3.90092 8.12521
28 1 2 0.115887 21.0114 17.1908 6.7889
29 1 2 0.115889 21.0114 8.96083 0.969417
30 1 2 0.115889 15.5206 12.1309 13.9447
31 1 2 0.115887 13.884 13.0758 12.6084
32 1 2 0.115887 22.648 8.01592 2.30572
33 1 3 0.671939 27.399 18.7442 13.2542
34 1 3 0.671939 9.13299 2.34751 1.65994
35 1 3 0.671939 27.399 12.8934 9.117
36 1 3 0.671939 9.13299 8.19836 5.79712
37 1 3 0.67194 24.8655 14.3561 13.2542
38 1 3 0.67194 11.6665 6.73565 1.65994
39 1 3 0.67194 29.9325 17.2815 9.117
40 1 3 0.67194 6.5995 3.81022 5.79712
41 1 3 0.67194 24.8655 17.2815 9.117
42 1 3 0.67194 11.6665 3.81022 5.79712
43 1 3 0.67194 29.9325 14.3561 13.2542
44 1 3 0.67194 6.5995 6.73565 1.65994
45 1 3 -0.11508 27.399 19.957 14.1117
46 1 3 -0.11508 9.13299 1.13474 0.802379
47 1 3 -0.11508 27.399 11.6806 8.25944
48 1 3 -0.11508 9.13299 9.41113 6.65468
49 1 3 -0.11508 23.8152 13.7497 14.1117
50 1 3 -0.11508 12.7168 7.34203 0.802379
51 1 3 -0.11508 30.9828 17.8879 8.25944
52 1 3 -0.11508 5.54921 3.20384 6.65468
53 1 3 -0.11508 23.8152 17.8879 8.25944
54 1 3 -0.11508 12.7168 3.20384 6.65468
55 1 3 -0.11508 30.9828 13.7497 14.1117
56 1 3 -0.11508 5.54921 7.34203 0.802379
57 1 3 -0.0559 18.266 5.39949 13.5316
58 1 3 -0.0559 18.266 15.6923 1.38254
59 1 3 -0.055903 18.266 14.5575 0.580159
60 1 3 -0.055903 18.266 6.53422 14.334
61 1 3 -0.0559 26.1971 11.1132 7.85825
62 1 3 -0.0559 10.3349 9.9785 7.05587
63 1 3 -0.055903 10.3349 11.1132 7.85825
64 1 3 -0.055903 26.1971 9.9785 7.05587
65 1 3 -0.0559 14.7918 8.54005 0.580159
66 1 3 -0.0559 21.7402 12.5517 14.334
67 1 3 -0.055903 22.7229 13.1191 13.5316
68 1 3 -0.055903 13.8091 7.97268 1.38254
69 1 3 -0.0559 21.7402 3.39366 7.85825
70 1 3 -0.0559 14.7918 17.6981 7.05587
71 1 3 -0.055903 13.8091 17.1307 7.85825
72 1 3 -0.055903 22.7229 3.96103 7.05587
73 1 3 -0.055901 22.7229 17.1307 7.85825
74 1 3 -0.055901 13.8091 3.96103 7.05587
75 1 3 -0.055903 14.7918 3.39366 7.85825
76 1 3 -0.055903 21.7402 17.6981 7.05587
77 1 3 -0.0559 21.7402 8.54005 0.580159
78 1 3 -0.0559 14.7918 12.5517 14.334
79 1 3 -0.055903 13.8091 13.1191 13.5316
80 1 3 -0.055903 22.7229 7.97268 1.38254
81 1 4 -1.26215 27.399 15.8188 11.1856
82 1 4 -1.26215 9.13299 5.27293 3.72853
83 1 4 -0.60118 27.399 18.9383 11.9641
84 1 4 -0.60118 9.13299 2.15347 2.95001
85 1 4 -0.601179 27.399 17.5926 13.8671
86 1 4 -0.601179 9.13299 3.49912 1.04697
87 1 4 -0.601179 26.2336 13.3722 9.45555
88 1 4 -0.601179 10.2984 7.71958 5.45857
89 1 4 -0.60118 28.5643 13.3722 9.45555
90 1 4 -0.60118 7.96762 7.71958 5.45857
91 1 4 -0.60118 25.8628 14.9319 13.8671
92 1 4 -0.60118 10.6692 6.15984 1.04697
93 1 4 -0.601179 24.6974 14.2591 11.9641
94 1 4 -0.601179 11.8345 6.83267 2.95001
95 1 4 -0.60118 28.9351 18.0514 9.45555
96 1 4 -0.60118 7.59682 3.04037 5.45857
97 1 4 -0.601179 30.1005 16.0329 9.45555
98 1 4 -0.601179 6.43145 5.05885 5.45857
99 1 4 -0.601179 24.6974 16.0329 9.45555
100 1 4 -0.601179 11.8345 5.05885 5.45857
101 1 4 -0.60118 25.8628 18.0514 9.45555
102 1 4 -0.60118 10.6692 3.04037 5.45857
103 1 4 -0.60118 28.9351 14.9319 13.8671
104 1 4 -0.60118 7.59682 6.15984 1.04697
105 1 4 -0.60118 30.1005 14.2591 11.9641
106 1 4 -0.60118 6.43145 6.83267 2.95001
ITEM: TIMESTEP
80000
ITEM: NUMBER OF ATOMS
109
ITEM: BOX BOUNDS xy xz yz pp pp pp
0.0000000000000000e+00 3.6531964750000000e+01 9.1329911900000003e+00
0.0000000000000000e+00 2.1091739680000000e+01 9.1329911900000003e+00
0.0000000000000000e+00 1.4914112149999999e+01 5.2729349200000000e+00
ITEM: ATOMS id mol type q x y z
1 1 1 1.10383 27.399 17.6496 10.5383
2 1 1 1.10383 9.13299 3.44217 4.3758
3 1 1 1.10383 27.399 15.8188 13.1274
4 1 1 1.10383 9.13299 5.27293 1.78671
5 1 1 1.10383 25.8135 14.9034 10.5383
6 1 1 1.10383 10.7185 6.18832 4.3758
7 1 1 1.10383 28.9845 14.9034 10.5383
8 1 1 1.10383 7.5475 6.18832 4.3758
9 1 2 0.115889 18.266 5.48596 12.6084
10 1 2 0.115889 18.266 15.6058 2.30572
11 1 2 0.115888 18.266 13.716 0.969417
12 1 2 0.115888 18.266 7.37578 13.9447
13 1 2 0.11589 25.3934 11.4908 8.12521
14 1 2 0.11589 11.1386 9.60096 6.7889
15 1 2 0.115888 11.1386 11.4908 8.12521
16 1 2 0.115888 25.3934 9.60096 6.7889
17 1 2 0.115889 15.5206 8.96083 0.969417
18 1 2 0.115889 21.0114 12.1309 13.9447
19 1 2 0.115888 22.648 13.0758 12.6084
20 1 2 0.115888 13.884 8.01592 2.30572
21 1 2 0.115889 21.0114 3.90092 8.12521
22 1 2 0.115889 15.5206 17.1908 6.7889
23 1 2 0.115887 13.884 16.2459 8.12521
24 1 2 0.115887 22.648 4.84583 6.7889
25 1 2 0.115889 22.648 16.2459 8.12521
26 1 2 0.115889 13.884 4.84583 6.7889
27 1 2 0.115887 15.5206 3.90092 8.12521
28 1 2 0.115887 21.0114 17.1908 6.7889
29 1 2 0.115889 21.0114 8.96083 0.969417
30 1 2 0.115889 15.5206 12.1309 13.9447
31 1 2 0.115887 13.884 13.0758 12.6084
32 1 2 0.115887 22.648 8.01592 2.30572
33 1 3 0.671939 27.399 18.7442 13.2542
34 1 3 0.671939 9.13299 2.34751 1.65994
35 1 3 0.671939 27.399 12.8934 9.117
36 1 3 0.671939 9.13299 8.19836 5.79712
37 1 3 0.67194 24.8655 14.3561 13.2542
38 1 3 0.67194 11.6665 6.73565 1.65994
39 1 3 0.67194 29.9325 17.2815 9.117
40 1 3 0.67194 6.5995 3.81022 5.79712
41 1 3 0.67194 24.8655 17.2815 9.117
42 1 3 0.67194 11.6665 3.81022 5.79712
43 1 3 0.67194 29.9325 14.3561 13.2542
44 1 3 0.67194 6.5995 6.73565 1.65994
45 1 3 -0.11508 27.399 19.957 14.1117
46 1 3 -0.11508 9.13299 1.13474 0.802379
47 1 3 -0.11508 27.399 11.6806 8.25944
48 1 3 -0.11508 9.13299 9.41113 6.65468
49 1 3 -0.11508 23.8152 13.7497 14.1117
50 1 3 -0.11508 12.7168 7.34203 0.802379
51 1 3 -0.11508 30.9828 17.8879 8.25944
52 1 3 -0.11508 5.54921 3.20384 6.65468
53 1 3 -0.11508 23.8152 17.8879 8.25944
54 1 3 -0.11508 12.7168 3.20384 6.65468
55 1 3 -0.11508 30.9828 13.7497 14.1117
56 1 3 -0.11508 5.54921 7.34203 0.802379
57 1 3 -0.0559 18.266 5.39949 13.5316
58 1 3 -0.0559 18.266 15.6923 1.38254
59 1 3 -0.055903 18.266 14.5575 0.580159
60 1 3 -0.055903 18.266 6.53422 14.334
61 1 3 -0.0559 26.1971 11.1132 7.85825
62 1 3 -0.0559 10.3349 9.9785 7.05587
63 1 3 -0.055903 10.3349 11.1132 7.85825
64 1 3 -0.055903 26.1971 9.9785 7.05587
65 1 3 -0.0559 14.7918 8.54005 0.580159
66 1 3 -0.0559 21.7402 12.5517 14.334
67 1 3 -0.055903 22.7229 13.1191 13.5316
68 1 3 -0.055903 13.8091 7.97268 1.38254
69 1 3 -0.0559 21.7402 3.39366 7.85825
70 1 3 -0.0559 14.7918 17.6981 7.05587
71 1 3 -0.055903 13.8091 17.1307 7.85825
72 1 3 -0.055903 22.7229 3.96103 7.05587
73 1 3 -0.055901 22.7229 17.1307 7.85825
74 1 3 -0.055901 13.8091 3.96103 7.05587
75 1 3 -0.055903 14.7918 3.39366 7.85825
76 1 3 -0.055903 21.7402 17.6981 7.05587
77 1 3 -0.0559 21.7402 8.54005 0.580159
78 1 3 -0.0559 14.7918 12.5517 14.334
79 1 3 -0.055903 13.8091 13.1191 13.5316
80 1 3 -0.055903 22.7229 7.97268 1.38254
81 1 4 -1.26215 27.399 15.8188 11.1856
82 1 4 -1.26215 9.13299 5.27293 3.72853
83 1 4 -0.60118 27.399 18.9383 11.9641
84 1 4 -0.60118 9.13299 2.15347 2.95001
85 1 4 -0.601179 27.399 17.5926 13.8671
86 1 4 -0.601179 9.13299 3.49912 1.04697
87 1 4 -0.601179 26.2336 13.3722 9.45555
88 1 4 -0.601179 10.2984 7.71958 5.45857
89 1 4 -0.60118 28.5643 13.3722 9.45555
90 1 4 -0.60118 7.96762 7.71958 5.45857
91 1 4 -0.60118 25.8628 14.9319 13.8671
92 1 4 -0.60118 10.6692 6.15984 1.04697
93 1 4 -0.601179 24.6974 14.2591 11.9641
94 1 4 -0.601179 11.8345 6.83267 2.95001
95 1 4 -0.60118 28.9351 18.0514 9.45555
96 1 4 -0.60118 7.59682 3.04037 5.45857
97 1 4 -0.601179 30.1005 16.0329 9.45555
98 1 4 -0.601179 6.43145 5.05885 5.45857
99 1 4 -0.601179 24.6974 16.0329 9.45555
100 1 4 -0.601179 11.8345 5.05885 5.45857
101 1 4 -0.60118 25.8628 18.0514 9.45555
102 1 4 -0.60118 10.6692 3.04037 5.45857
103 1 4 -0.60118 28.9351 14.9319 13.8671
104 1 4 -0.60118 7.59682 6.15984 1.04697
105 1 4 -0.60118 30.1005 14.2591 11.9641
106 1 4 -0.60118 6.43145 6.83267 2.95001
107 2 5 -0.35 14.234 7.28 10.3671
108 2 6 0.7 13.7359 8.17221 9.8181
109 2 5 -0.35 13.2378 9.06443 9.26907
ITEM: TIMESTEP
81000
ITEM: NUMBER OF ATOMS
115
ITEM: BOX BOUNDS xy xz yz pp pp pp
0.0000000000000000e+00 3.6531964750000000e+01 9.1329911900000003e+00
0.0000000000000000e+00 2.1091739680000000e+01 9.1329911900000003e+00
0.0000000000000000e+00 1.4914112149999999e+01 5.2729349200000000e+00
ITEM: ATOMS id mol type q x y z
1 1 1 1.10383 27.399 17.6496 10.5383
2 1 1 1.10383 9.13299 3.44217 4.3758
3 1 1 1.10383 27.399 15.8188 13.1274
4 1 1 1.10383 9.13299 5.27293 1.78671
5 1 1 1.10383 25.8135 14.9034 10.5383
6 1 1 1.10383 10.7185 6.18832 4.3758
7 1 1 1.10383 28.9845 14.9034 10.5383
8 1 1 1.10383 7.5475 6.18832 4.3758
9 1 2 0.115889 18.266 5.48596 12.6084
10 1 2 0.115889 18.266 15.6058 2.30572
11 1 2 0.115888 18.266 13.716 0.969417
12 1 2 0.115888 18.266 7.37578 13.9447
13 1 2 0.11589 25.3934 11.4908 8.12521
14 1 2 0.11589 11.1386 9.60096 6.7889
15 1 2 0.115888 11.1386 11.4908 8.12521
16 1 2 0.115888 25.3934 9.60096 6.7889
17 1 2 0.115889 15.5206 8.96083 0.969417
18 1 2 0.115889 21.0114 12.1309 13.9447
19 1 2 0.115888 22.648 13.0758 12.6084
20 1 2 0.115888 13.884 8.01592 2.30572
21 1 2 0.115889 21.0114 3.90092 8.12521
22 1 2 0.115889 15.5206 17.1908 6.7889
23 1 2 0.115887 13.884 16.2459 8.12521
24 1 2 0.115887 22.648 4.84583 6.7889
25 1 2 0.115889 22.648 16.2459 8.12521
26 1 2 0.115889 13.884 4.84583 6.7889
27 1 2 0.115887 15.5206 3.90092 8.12521
28 1 2 0.115887 21.0114 17.1908 6.7889
29 1 2 0.115889 21.0114 8.96083 0.969417
30 1 2 0.115889 15.5206 12.1309 13.9447
31 1 2 0.115887 13.884 13.0758 12.6084
32 1 2 0.115887 22.648 8.01592 2.30572
33 1 3 0.671939 27.399 18.7442 13.2542
34 1 3 0.671939 9.13299 2.34751 1.65994
35 1 3 0.671939 27.399 12.8934 9.117
36 1 3 0.671939 9.13299 8.19836 5.79712
37 1 3 0.67194 24.8655 14.3561 13.2542
38 1 3 0.67194 11.6665 6.73565 1.65994
39 1 3 0.67194 29.9325 17.2815 9.117
40 1 3 0.67194 6.5995 3.81022 5.79712
41 1 3 0.67194 24.8655 17.2815 9.117
42 1 3 0.67194 11.6665 3.81022 5.79712
43 1 3 0.67194 29.9325 14.3561 13.2542
44 1 3 0.67194 6.5995 6.73565 1.65994
45 1 3 -0.11508 27.399 19.957 14.1117
46 1 3 -0.11508 9.13299 1.13474 0.802379
47 1 3 -0.11508 27.399 11.6806 8.25944
48 1 3 -0.11508 9.13299 9.41113 6.65468
49 1 3 -0.11508 23.8152 13.7497 14.1117
50 1 3 -0.11508 12.7168 7.34203 0.802379
51 1 3 -0.11508 30.9828 17.8879 8.25944
52 1 3 -0.11508 5.54921 3.20384 6.65468
53 1 3 -0.11508 23.8152 17.8879 8.25944
54 1 3 -0.11508 12.7168 3.20384 6.65468
55 1 3 -0.11508 30.9828 13.7497 14.1117
56 1 3 -0.11508 5.54921 7.34203 0.802379
57 1 3 -0.0559 18.266 5.39949 13.5316
58 1 3 -0.0559 18.266 15.6923 1.38254
59 1 3 -0.055903 18.266 14.5575 0.580159
60 1 3 -0.055903 18.266 6.53422 14.334
61 1 3 -0.0559 26.1971 11.1132 7.85825
62 1 3 -0.0559 10.3349 9.9785 7.05587
63 1 3 -0.055903 10.3349 11.1132 7.85825
64 1 3 -0.055903 26.1971 9.9785 7.05587
65 1 3 -0.0559 14.7918 8.54005 0.580159
66 1 3 -0.0559 21.7402 12.5517 14.334
67 1 3 -0.055903 22.7229 13.1191 13.5316
68 1 3 -0.055903 13.8091 7.97268 1.38254
69 1 3 -0.0559 21.7402 3.39366 7.85825
70 1 3 -0.0559 14.7918 17.6981 7.05587
71 1 3 -0.055903 13.8091 17.1307 7.85825
72 1 3 -0.055903 22.7229 3.96103 7.05587
73 1 3 -0.055901 22.7229 17.1307 7.85825
74 1 3 -0.055901 13.8091 3.96103 7.05587
75 1 3 -0.055903 14.7918 3.39366 7.85825
76 1 3 -0.055903 21.7402 17.6981 7.05587
77 1 3 -0.0559 21.7402 8.54005 0.580159
78 1 3 -0.0559 14.7918 12.5517 14.334
79 1 3 -0.055903 13.8091 13.1191 13.5316
80 1 3 -0.055903 22.7229 7.97268 1.38254
81 1 4 -1.26215 27.399 15.8188 11.1856
82 1 4 -1.26215 9.13299 5.27293 3.72853
83 1 4 -0.60118 27.399 18.9383 11.9641
84 1 4 -0.60118 9.13299 2.15347 2.95001
85 1 4 -0.601179 27.399 17.5926 13.8671
86 1 4 -0.601179 9.13299 3.49912 1.04697
87 1 4 -0.601179 26.2336 13.3722 9.45555
88 1 4 -0.601179 10.2984 7.71958 5.45857
89 1 4 -0.60118 28.5643 13.3722 9.45555
90 1 4 -0.60118 7.96762 7.71958 5.45857
91 1 4 -0.60118 25.8628 14.9319 13.8671
92 1 4 -0.60118 10.6692 6.15984 1.04697
93 1 4 -0.601179 24.6974 14.2591 11.9641
94 1 4 -0.601179 11.8345 6.83267 2.95001
95 1 4 -0.60118 28.9351 18.0514 9.45555
96 1 4 -0.60118 7.59682 3.04037 5.45857
97 1 4 -0.601179 30.1005 16.0329 9.45555
98 1 4 -0.601179 6.43145 5.05885 5.45857
99 1 4 -0.601179 24.6974 16.0329 9.45555
100 1 4 -0.601179 11.8345 5.05885 5.45857
101 1 4 -0.60118 25.8628 18.0514 9.45555
102 1 4 -0.60118 10.6692 3.04037 5.45857
103 1 4 -0.60118 28.9351 14.9319 13.8671
104 1 4 -0.60118 7.59682 6.15984 1.04697
105 1 4 -0.60118 30.1005 14.2591 11.9641
106 1 4 -0.60118 6.43145 6.83267 2.95001
116 5 5 -0.35 7.88481 9.62819 1.50065
117 5 6 0.7 7.21367 10.4286 0.996148
118 5 5 -0.35 24.8085 11.229 0.491644
122 7 5 -0.35 19.6197 14.6484 11.9984
123 7 6 0.7 20.0375 15.1364 11.0325
124 7 5 -0.35 20.4552 15.6245 10.0667
125 8 5 -0.35 23.1952 5.2621 13.8496
126 8 6 0.7 23.2328 5.03036 12.7136
127 8 5 -0.35 23.2704 4.79861 11.5776
ITEM: TIMESTEP
82000
ITEM: NUMBER OF ATOMS
109
ITEM: BOX BOUNDS xy xz yz pp pp pp
0.0000000000000000e+00 3.6531964750000000e+01 9.1329911900000003e+00
0.0000000000000000e+00 2.1091739680000000e+01 9.1329911900000003e+00
0.0000000000000000e+00 1.4914112149999999e+01 5.2729349200000000e+00
ITEM: ATOMS id mol type q x y z
1 1 1 1.10383 27.399 17.6496 10.5383
2 1 1 1.10383 9.13299 3.44217 4.3758
3 1 1 1.10383 27.399 15.8188 13.1274
4 1 1 1.10383 9.13299 5.27293 1.78671
5 1 1 1.10383 25.8135 14.9034 10.5383
6 1 1 1.10383 10.7185 6.18832 4.3758
7 1 1 1.10383 28.9845 14.9034 10.5383
8 1 1 1.10383 7.5475 6.18832 4.3758
9 1 2 0.115889 18.266 5.48596 12.6084
10 1 2 0.115889 18.266 15.6058 2.30572
11 1 2 0.115888 18.266 13.716 0.969417
12 1 2 0.115888 18.266 7.37578 13.9447
13 1 2 0.11589 25.3934 11.4908 8.12521
14 1 2 0.11589 11.1386 9.60096 6.7889
15 1 2 0.115888 11.1386 11.4908 8.12521
16 1 2 0.115888 25.3934 9.60096 6.7889
17 1 2 0.115889 15.5206 8.96083 0.969417
18 1 2 0.115889 21.0114 12.1309 13.9447
19 1 2 0.115888 22.648 13.0758 12.6084
20 1 2 0.115888 13.884 8.01592 2.30572
21 1 2 0.115889 21.0114 3.90092 8.12521
22 1 2 0.115889 15.5206 17.1908 6.7889
23 1 2 0.115887 13.884 16.2459 8.12521
24 1 2 0.115887 22.648 4.84583 6.7889
25 1 2 0.115889 22.648 16.2459 8.12521
26 1 2 0.115889 13.884 4.84583 6.7889
27 1 2 0.115887 15.5206 3.90092 8.12521
28 1 2 0.115887 21.0114 17.1908 6.7889
29 1 2 0.115889 21.0114 8.96083 0.969417
30 1 2 0.115889 15.5206 12.1309 13.9447
31 1 2 0.115887 13.884 13.0758 12.6084
32 1 2 0.115887 22.648 8.01592 2.30572
33 1 3 0.671939 27.399 18.7442 13.2542
34 1 3 0.671939 9.13299 2.34751 1.65994
35 1 3 0.671939 27.399 12.8934 9.117
36 1 3 0.671939 9.13299 8.19836 5.79712
37 1 3 0.67194 24.8655 14.3561 13.2542
38 1 3 0.67194 11.6665 6.73565 1.65994
39 1 3 0.67194 29.9325 17.2815 9.117
40 1 3 0.67194 6.5995 3.81022 5.79712
41 1 3 0.67194 24.8655 17.2815 9.117
42 1 3 0.67194 11.6665 3.81022 5.79712
43 1 3 0.67194 29.9325 14.3561 13.2542
44 1 3 0.67194 6.5995 6.73565 1.65994
45 1 3 -0.11508 27.399 19.957 14.1117
46 1 3 -0.11508 9.13299 1.13474 0.802379
47 1 3 -0.11508 27.399 11.6806 8.25944
48 1 3 -0.11508 9.13299 9.41113 6.65468
49 1 3 -0.11508 23.8152 13.7497 14.1117
50 1 3 -0.11508 12.7168 7.34203 0.802379
51 1 3 -0.11508 30.9828 17.8879 8.25944
52 1 3 -0.11508 5.54921 3.20384 6.65468
53 1 3 -0.11508 23.8152 17.8879 8.25944
54 1 3 -0.11508 12.7168 3.20384 6.65468
55 1 3 -0.11508 30.9828 13.7497 14.1117
56 1 3 -0.11508 5.54921 7.34203 0.802379
57 1 3 -0.0559 18.266 5.39949 13.5316
58 1 3 -0.0559 18.266 15.6923 1.38254
59 1 3 -0.055903 18.266 14.5575 0.580159
60 1 3 -0.055903 18.266 6.53422 14.334
61 1 3 -0.0559 26.1971 11.1132 7.85825
62 1 3 -0.0559 10.3349 9.9785 7.05587
63 1 3 -0.055903 10.3349 11.1132 7.85825
64 1 3 -0.055903 26.1971 9.9785 7.05587
65 1 3 -0.0559 14.7918 8.54005 0.580159
66 1 3 -0.0559 21.7402 12.5517 14.334
67 1 3 -0.055903 22.7229 13.1191 13.5316
68 1 3 -0.055903 13.8091 7.97268 1.38254
69 1 3 -0.0559 21.7402 3.39366 7.85825
70 1 3 -0.0559 14.7918 17.6981 7.05587
71 1 3 -0.055903 13.8091 17.1307 7.85825
72 1 3 -0.055903 22.7229 3.96103 7.05587
73 1 3 -0.055901 22.7229 17.1307 7.85825
74 1 3 -0.055901 13.8091 3.96103 7.05587
75 1 3 -0.055903 14.7918 3.39366 7.85825
76 1 3 -0.055903 21.7402 17.6981 7.05587
77 1 3 -0.0559 21.7402 8.54005 0.580159
78 1 3 -0.0559 14.7918 12.5517 14.334
79 1 3 -0.055903 13.8091 13.1191 13.5316
80 1 3 -0.055903 22.7229 7.97268 1.38254
81 1 4 -1.26215 27.399 15.8188 11.1856
82 1 4 -1.26215 9.13299 5.27293 3.72853
83 1 4 -0.60118 27.399 18.9383 11.9641
84 1 4 -0.60118 9.13299 2.15347 2.95001
85 1 4 -0.601179 27.399 17.5926 13.8671
86 1 4 -0.601179 9.13299 3.49912 1.04697
87 1 4 -0.601179 26.2336 13.3722 9.45555
88 1 4 -0.601179 10.2984 7.71958 5.45857
89 1 4 -0.60118 28.5643 13.3722 9.45555
90 1 4 -0.60118 7.96762 7.71958 5.45857
91 1 4 -0.60118 25.8628 14.9319 13.8671
92 1 4 -0.60118 10.6692 6.15984 1.04697
93 1 4 -0.601179 24.6974 14.2591 11.9641
94 1 4 -0.601179 11.8345 6.83267 2.95001
95 1 4 -0.60118 28.9351 18.0514 9.45555
96 1 4 -0.60118 7.59682 3.04037 5.45857
97 1 4 -0.601179 30.1005 16.0329 9.45555
98 1 4 -0.601179 6.43145 5.05885 5.45857
99 1 4 -0.601179 24.6974 16.0329 9.45555
100 1 4 -0.601179 11.8345 5.05885 5.45857
101 1 4 -0.60118 25.8628 18.0514 9.45555
102 1 4 -0.60118 10.6692 3.04037 5.45857
103 1 4 -0.60118 28.9351 14.9319 13.8671
104 1 4 -0.60118 7.59682 6.15984 1.04697
105 1 4 -0.60118 30.1005 14.2591 11.9641
106 1 4 -0.60118 6.43145 6.83267 2.95001
113 4 5 -0.35 25.2273 11.0589 13.0647
114 4 6 0.7 24.5154 10.7271 13.9184
115 4 5 -0.35 23.8036 10.3953 14.772
ITEM: TIMESTEP
83000
ITEM: NUMBER OF ATOMS
109
ITEM: BOX BOUNDS xy xz yz pp pp pp
0.0000000000000000e+00 3.6531964750000000e+01 9.1329911900000003e+00
0.0000000000000000e+00 2.1091739680000000e+01 9.1329911900000003e+00
0.0000000000000000e+00 1.4914112149999999e+01 5.2729349200000000e+00
ITEM: ATOMS id mol type q x y z
1 1 1 1.10383 27.399 17.6496 10.5383
2 1 1 1.10383 9.13299 3.44217 4.3758
3 1 1 1.10383 27.399 15.8188 13.1274
4 1 1 1.10383 9.13299 5.27293 1.78671
5 1 1 1.10383 25.8135 14.9034 10.5383
6 1 1 1.10383 10.7185 6.18832 4.3758
7 1 1 1.10383 28.9845 14.9034 10.5383
8 1 1 1.10383 7.5475 6.18832 4.3758
9 1 2 0.115889 18.266 5.48596 12.6084
10 1 2 0.115889 18.266 15.6058 2.30572
11 1 2 0.115888 18.266 13.716 0.969417
12 1 2 0.115888 18.266 7.37578 13.9447
13 1 2 0.11589 25.3934 11.4908 8.12521
14 1 2 0.11589 11.1386 9.60096 6.7889
15 1 2 0.115888 11.1386 11.4908 8.12521
16 1 2 0.115888 25.3934 9.60096 6.7889
17 1 2 0.115889 15.5206 8.96083 0.969417
18 1 2 0.115889 21.0114 12.1309 13.9447
19 1 2 0.115888 22.648 13.0758 12.6084
20 1 2 0.115888 13.884 8.01592 2.30572
21 1 2 0.115889 21.0114 3.90092 8.12521
22 1 2 0.115889 15.5206 17.1908 6.7889
23 1 2 0.115887 13.884 16.2459 8.12521
24 1 2 0.115887 22.648 4.84583 6.7889
25 1 2 0.115889 22.648 16.2459 8.12521
26 1 2 0.115889 13.884 4.84583 6.7889
27 1 2 0.115887 15.5206 3.90092 8.12521
28 1 2 0.115887 21.0114 17.1908 6.7889
29 1 2 0.115889 21.0114 8.96083 0.969417
30 1 2 0.115889 15.5206 12.1309 13.9447
31 1 2 0.115887 13.884 13.0758 12.6084
32 1 2 0.115887 22.648 8.01592 2.30572
33 1 3 0.671939 27.399 18.7442 13.2542
34 1 3 0.671939 9.13299 2.34751 1.65994
35 1 3 0.671939 27.399 12.8934 9.117
36 1 3 0.671939 9.13299 8.19836 5.79712
37 1 3 0.67194 24.8655 14.3561 13.2542
38 1 3 0.67194 11.6665 6.73565 1.65994
39 1 3 0.67194 29.9325 17.2815 9.117
40 1 3 0.67194 6.5995 3.81022 5.79712
41 1 3 0.67194 24.8655 17.2815 9.117
42 1 3 0.67194 11.6665 3.81022 5.79712
43 1 3 0.67194 29.9325 14.3561 13.2542
44 1 3 0.67194 6.5995 6.73565 1.65994
45 1 3 -0.11508 27.399 19.957 14.1117
46 1 3 -0.11508 9.13299 1.13474 0.802379
47 1 3 -0.11508 27.399 11.6806 8.25944
48 1 3 -0.11508 9.13299 9.41113 6.65468
49 1 3 -0.11508 23.8152 13.7497 14.1117
50 1 3 -0.11508 12.7168 7.34203 0.802379
51 1 3 -0.11508 30.9828 17.8879 8.25944
52 1 3 -0.11508 5.54921 3.20384 6.65468
53 1 3 -0.11508 23.8152 17.8879 8.25944
54 1 3 -0.11508 12.7168 3.20384 6.65468
55 1 3 -0.11508 30.9828 13.7497 14.1117
56 1 3 -0.11508 5.54921 7.34203 0.802379
57 1 3 -0.0559 18.266 5.39949 13.5316
58 1 3 -0.0559 18.266 15.6923 1.38254
59 1 3 -0.055903 18.266 14.5575 0.580159
60 1 3 -0.055903 18.266 6.53422 14.334
61 1 3 -0.0559 26.1971 11.1132 7.85825
62 1 3 -0.0559 10.3349 9.9785 7.05587
63 1 3 -0.055903 10.3349 11.1132 7.85825
64 1 3 -0.055903 26.1971 9.9785 7.05587
65 1 3 -0.0559 14.7918 8.54005 0.580159
66 1 3 -0.0559 21.7402 12.5517 14.334
67 1 3 -0.055903 22.7229 13.1191 13.5316
68 1 3 -0.055903 13.8091 7.97268 1.38254
69 1 3 -0.0559 21.7402 3.39366 7.85825
70 1 3 -0.0559 14.7918 17.6981 7.05587
71 1 3 -0.055903 13.8091 17.1307 7.85825
72 1 3 -0.055903 22.7229 3.96103 7.05587
73 1 3 -0.055901 22.7229 17.1307 7.85825
74 1 3 -0.055901 13.8091 3.96103 7.05587
75 1 3 -0.055903 14.7918 3.39366 7.85825
76 1 3 -0.055903 21.7402 17.6981 7.05587
77 1 3 -0.0559 21.7402 8.54005 0.580159
78 1 3 -0.0559 14.7918 12.5517 14.334
79 1 3 -0.055903 13.8091 13.1191 13.5316
80 1 3 -0.055903 22.7229 7.97268 1.38254
81 1 4 -1.26215 27.399 15.8188 11.1856
82 1 4 -1.26215 9.13299 5.27293 3.72853
83 1 4 -0.60118 27.399 18.9383 11.9641
84 1 4 -0.60118 9.13299 2.15347 2.95001
85 1 4 -0.601179 27.399 17.5926 13.8671
86 1 4 -0.601179 9.13299 3.49912 1.04697
87 1 4 -0.601179 26.2336 13.3722 9.45555
88 1 4 -0.601179 10.2984 7.71958 5.45857
89 1 4 -0.60118 28.5643 13.3722 9.45555
90 1 4 -0.60118 7.96762 7.71958 5.45857
91 1 4 -0.60118 25.8628 14.9319 13.8671
92 1 4 -0.60118 10.6692 6.15984 1.04697
93 1 4 -0.601179 24.6974 14.2591 11.9641
94 1 4 -0.601179 11.8345 6.83267 2.95001
95 1 4 -0.60118 28.9351 18.0514 9.45555
96 1 4 -0.60118 7.59682 3.04037 5.45857
97 1 4 -0.601179 30.1005 16.0329 9.45555
98 1 4 -0.601179 6.43145 5.05885 5.45857
99 1 4 -0.601179 24.6974 16.0329 9.45555
100 1 4 -0.601179 11.8345 5.05885 5.45857
101 1 4 -0.60118 25.8628 18.0514 9.45555
102 1 4 -0.60118 10.6692 3.04037 5.45857
103 1 4 -0.60118 28.9351 14.9319 13.8671
104 1 4 -0.60118 7.59682 6.15984 1.04697
105 1 4 -0.60118 30.1005 14.2591 11.9641
106 1 4 -0.60118 6.43145 6.83267 2.95001
107 2 5 -0.35 19.0029 5.18013 4.90112
108 2 6 0.7 18.6663 4.20182 4.37656
109 2 5 -0.35 18.3296 3.2235 3.852
ITEM: TIMESTEP
84000
ITEM: NUMBER OF ATOMS
112
ITEM: BOX BOUNDS xy xz yz pp pp pp
0.0000000000000000e+00 3.6531964750000000e+01 9.1329911900000003e+00
0.0000000000000000e+00 2.1091739680000000e+01 9.1329911900000003e+00
0.0000000000000000e+00 1.4914112149999999e+01 5.2729349200000000e+00
ITEM: ATOMS id mol type q x y z
1 1 1 1.10383 27.399 17.6496 10.5383
2 1 1 1.10383 9.13299 3.44217 4.3758
3 1 1 1.10383 27.399 15.8188 13.1274
4 1 1 1.10383 9.13299 5.27293 1.78671
5 1 1 1.10383 25.8135 14.9034 10.5383
6 1 1 1.10383 10.7185 6.18832 4.3758
7 1 1 1.10383 28.9845 14.9034 10.5383
8 1 1 1.10383 7.5475 6.18832 4.3758
9 1 2 0.115889 18.266 5.48596 12.6084
10 1 2 0.115889 18.266 15.6058 2.30572
11 1 2 0.115888 18.266 13.716 0.969417
12 1 2 0.115888 18.266 7.37578 13.9447
13 1 2 0.11589 25.3934 11.4908 8.12521
14 1 2 0.11589 11.1386 9.60096 6.7889
15 1 2 0.115888 11.1386 11.4908 8.12521
16 1 2 0.115888 25.3934 9.60096 6.7889
17 1 2 0.115889 15.5206 8.96083 0.969417
18 1 2 0.115889 21.0114 12.1309 13.9447
19 1 2 0.115888 22.648 13.0758 12.6084
20 1 2 0.115888 13.884 8.01592 2.30572
21 1 2 0.115889 21.0114 3.90092 8.12521
22 1 2 0.115889 15.5206 17.1908 6.7889
23 1 2 0.115887 13.884 16.2459 8.12521
24 1 2 0.115887 22.648 4.84583 6.7889
25 1 2 0.115889 22.648 16.2459 8.12521
26 1 2 0.115889 13.884 4.84583 6.7889
27 1 2 0.115887 15.5206 3.90092 8.12521
28 1 2 0.115887 21.0114 17.1908 6.7889
29 1 2 0.115889 21.0114 8.96083 0.969417
30 1 2 0.115889 15.5206 12.1309 13.9447
31 1 2 0.115887 13.884 13.0758 12.6084
32 1 2 0.115887 22.648 8.01592 2.30572
33 1 3 0.671939 27.399 18.7442 13.2542
34 1 3 0.671939 9.13299 2.34751 1.65994
35 1 3 0.671939 27.399 12.8934 9.117
36 1 3 0.671939 9.13299 8.19836 5.79712
37 1 3 0.67194 24.8655 14.3561 13.2542
38 1 3 0.67194 11.6665 6.73565 1.65994
39 1 3 0.67194 29.9325 17.2815 9.117
40 1 3 0.67194 6.5995 3.81022 5.79712
41 1 3 0.67194 24.8655 17.2815 9.117
42 1 3 0.67194 11.6665 3.81022 5.79712
43 1 3 0.67194 29.9325 14.3561 13.2542
44 1 3 0.67194 6.5995 6.73565 1.65994
45 1 3 -0.11508 27.399 19.957 14.1117
46 1 3 -0.11508 9.13299 1.13474 0.802379
47 1 3 -0.11508 27.399 11.6806 8.25944
48 1 3 -0.11508 9.13299 9.41113 6.65468
49 1 3 -0.11508 23.8152 13.7497 14.1117
50 1 3 -0.11508 12.7168 7.34203 0.802379
51 1 3 -0.11508 30.9828 17.8879 8.25944
52 1 3 -0.11508 5.54921 3.20384 6.65468
53 1 3 -0.11508 23.8152 17.8879 8.25944
54 1 3 -0.11508 12.7168 3.20384 6.65468
55 1 3 -0.11508 30.9828 13.7497 14.1117
56 1 3 -0.11508 5.54921 7.34203 0.802379
57 1 3 -0.0559 18.266 5.39949 13.5316
58 1 3 -0.0559 18.266 15.6923 1.38254
59 1 3 -0.055903 18.266 14.5575 0.580159
60 1 3 -0.055903 18.266 6.53422 14.334
61 1 3 -0.0559 26.1971 11.1132 7.85825
62 1 3 -0.0559 10.3349 9.9785 7.05587
63 1 3 -0.055903 10.3349 11.1132 7.85825
64 1 3 -0.055903 26.1971 9.9785 7.05587
65 1 3 -0.0559 14.7918 8.54005 0.580159
66 1 3 -0.0559 21.7402 12.5517 14.334
67 1 3 -0.055903 22.7229 13.1191 13.5316
68 1 3 -0.055903 13.8091 7.97268 1.38254
69 1 3 -0.0559 21.7402 3.39366 7.85825
70 1 3 -0.0559 14.7918 17.6981 7.05587
71 1 3 -0.055903 13.8091 17.1307 7.85825
72 1 3 -0.055903 22.7229 3.96103 7.05587
73 1 3 -0.055901 22.7229 17.1307 7.85825
74 1 3 -0.055901 13.8091 3.96103 7.05587
75 1 3 -0.055903 14.7918 3.39366 7.85825
76 1 3 -0.055903 21.7402 17.6981 7.05587
77 1 3 -0.0559 21.7402 8.54005 0.580159
78 1 3 -0.0559 14.7918 12.5517 14.334
79 1 3 -0.055903 13.8091 13.1191 13.5316
80 1 3 -0.055903 22.7229 7.97268 1.38254
81 1 4 -1.26215 27.399 15.8188 11.1856
82 1 4 -1.26215 9.13299 5.27293 3.72853
83 1 4 -0.60118 27.399 18.9383 11.9641
84 1 4 -0.60118 9.13299 2.15347 2.95001
85 1 4 -0.601179 27.399 17.5926 13.8671
86 1 4 -0.601179 9.13299 3.49912 1.04697
87 1 4 -0.601179 26.2336 13.3722 9.45555
88 1 4 -0.601179 10.2984 7.71958 5.45857
89 1 4 -0.60118 28.5643 13.3722 9.45555
90 1 4 -0.60118 7.96762 7.71958 5.45857
91 1 4 -0.60118 25.8628 14.9319 13.8671
92 1 4 -0.60118 10.6692 6.15984 1.04697
93 1 4 -0.601179 24.6974 14.2591 11.9641
94 1 4 -0.601179 11.8345 6.83267 2.95001
95 1 4 -0.60118 28.9351 18.0514 9.45555
96 1 4 -0.60118 7.59682 3.04037 5.45857
97 1 4 -0.601179 30.1005 16.0329 9.45555
98 1 4 -0.601179 6.43145 5.05885 5.45857
99 1 4 -0.601179 24.6974 16.0329 9.45555
100 1 4 -0.601179 11.8345 5.05885 5.45857
101 1 4 -0.60118 25.8628 18.0514 9.45555
102 1 4 -0.60118 10.6692 3.04037 5.45857
103 1 4 -0.60118 28.9351 14.9319 13.8671
104 1 4 -0.60118 7.59682 6.15984 1.04697
105 1 4 -0.60118 30.1005 14.2591 11.9641
106 1 4 -0.60118 6.43145 6.83267 2.95001
110 3 5 -0.35 27.5639 11.44 12.3492
111 3 6 0.7 27.8627 11.3918 13.469
112 3 5 -0.35 28.1615 11.3435 14.5888
119 6 5 -0.35 12.1471 11.4567 0.167766
120 6 6 0.7 22.2353 16.9142 14.4501
121 6 5 -0.35 23.1905 17.0989 13.8183
ITEM: TIMESTEP
85000
ITEM: NUMBER OF ATOMS
106
ITEM: BOX BOUNDS xy xz yz pp pp pp
0.0000000000000000e+00 3.6531964750000000e+01 9.1329911900000003e+00
0.0000000000000000e+00 2.1091739680000000e+01 9.1329911900000003e+00
0.0000000000000000e+00 1.4914112149999999e+01 5.2729349200000000e+00
ITEM: ATOMS id mol type q x y z
1 1 1 1.10383 27.399 17.6496 10.5383
2 1 1 1.10383 9.13299 3.44217 4.3758
3 1 1 1.10383 27.399 15.8188 13.1274
4 1 1 1.10383 9.13299 5.27293 1.78671
5 1 1 1.10383 25.8135 14.9034 10.5383
6 1 1 1.10383 10.7185 6.18832 4.3758
7 1 1 1.10383 28.9845 14.9034 10.5383
8 1 1 1.10383 7.5475 6.18832 4.3758
9 1 2 0.115889 18.266 5.48596 12.6084
10 1 2 0.115889 18.266 15.6058 2.30572
11 1 2 0.115888 18.266 13.716 0.969417
12 1 2 0.115888 18.266 7.37578 13.9447
13 1 2 0.11589 25.3934 11.4908 8.12521
14 1 2 0.11589 11.1386 9.60096 6.7889
15 1 2 0.115888 11.1386 11.4908 8.12521
16 1 2 0.115888 25.3934 9.60096 6.7889
17 1 2 0.115889 15.5206 8.96083 0.969417
18 1 2 0.115889 21.0114 12.1309 13.9447
19 1 2 0.115888 22.648 13.0758 12.6084
20 1 2 0.115888 13.884 8.01592 2.30572
21 1 2 0.115889 21.0114 3.90092 8.12521
22 1 2 0.115889 15.5206 17.1908 6.7889
23 1 2 0.115887 13.884 16.2459 8.12521
24 1 2 0.115887 22.648 4.84583 6.7889
25 1 2 0.115889 22.648 16.2459 8.12521
26 1 2 0.115889 13.884 4.84583 6.7889
27 1 2 0.115887 15.5206 3.90092 8.12521
28 1 2 0.115887 21.0114 17.1908 6.7889
29 1 2 0.115889 21.0114 8.96083 0.969417
30 1 2 0.115889 15.5206 12.1309 13.9447
31 1 2 0.115887 13.884 13.0758 12.6084
32 1 2 0.115887 22.648 8.01592 2.30572
33 1 3 0.671939 27.399 18.7442 13.2542
34 1 3 0.671939 9.13299 2.34751 1.65994
35 1 3 0.671939 27.399 12.8934 9.117
36 1 3 0.671939 9.13299 8.19836 5.79712
37 1 3 0.67194 24.8655 14.3561 13.2542
38 1 3 0.67194 11.6665 6.73565 1.65994
39 1 3 0.67194 29.9325 17.2815 9.117
40 1 3 0.67194 6.5995 3.81022 5.79712
41 1 3 0.67194 24.8655 17.2815 9.117
42 1 3 0.67194 11.6665 3.81022 5.79712
43 1 3 0.67194 29.9325 14.3561 13.2542
44 1 3 0.67194 6.5995 6.73565 1.65994
45 1 3 -0.11508 27.399 19.957 14.1117
46 1 3 -0.11508 9.13299 1.13474 0.802379
47 1 3 -0.11508 27.399 11.6806 8.25944
48 1 3 -0.11508 9.13299 9.41113 6.65468
49 1 3 -0.11508 23.8152 13.7497 14.1117
50 1 3 -0.11508 12.7168 7.34203 0.802379
51 1 3 -0.11508 30.9828 17.8879 8.25944
52 1 3 -0.11508 5.54921 3.20384 6.65468
53 1 3 -0.11508 23.8152 17.8879 8.25944
54 1 3 -0.11508 12.7168 3.20384 6.65468
55 1 3 -0.11508 30.9828 13.7497 14.1117
56 1 3 -0.11508 5.54921 7.34203 0.802379
57 1 3 -0.0559 18.266 5.39949 13.5316
58 1 3 -0.0559 18.266 15.6923 1.38254
59 1 3 -0.055903 18.266 14.5575 0.580159
60 1 3 -0.055903 18.266 6.53422 14.334
61 1 3 -0.0559 26.1971 11.1132 7.85825
62 1 3 -0.0559 10.3349 9.9785 7.05587
63 1 3 -0.055903 10.3349 11.1132 7.85825
64 1 3 -0.055903 26.1971 9.9785 7.05587
65 1 3 -0.0559 14.7918 8.54005 0.580159
66 1 3 -0.0559 21.7402 12.5517 14.334
67 1 3 -0.055903 22.7229 13.1191 13.5316
68 1 3 -0.055903 13.8091 7.97268 1.38254
69 1 3 -0.0559 21.7402 3.39366 7.85825
70 1 3 -0.0559 14.7918 17.6981 7.05587
71 1 3 -0.055903 13.8091 17.1307 7.85825
72 1 3 -0.055903 22.7229 3.96103 7.05587
73 1 3 -0.055901 22.7229 17.1307 7.85825
74 1 3 -0.055901 13.8091 3.96103 7.05587
75 1 3 -0.055903 14.7918 3.39366 7.85825
76 1 3 -0.055903 21.7402 17.6981 7.05587
77 1 3 -0.0559 21.7402 8.54005 0.580159
78 1 3 -0.0559 14.7918 12.5517 14.334
79 1 3 -0.055903 13.8091 13.1191 13.5316
80 1 3 -0.055903 22.7229 7.97268 1.38254
81 1 4 -1.26215 27.399 15.8188 11.1856
82 1 4 -1.26215 9.13299 5.27293 3.72853
83 1 4 -0.60118 27.399 18.9383 11.9641
84 1 4 -0.60118 9.13299 2.15347 2.95001
85 1 4 -0.601179 27.399 17.5926 13.8671
86 1 4 -0.601179 9.13299 3.49912 1.04697
87 1 4 -0.601179 26.2336 13.3722 9.45555
88 1 4 -0.601179 10.2984 7.71958 5.45857
89 1 4 -0.60118 28.5643 13.3722 9.45555
90 1 4 -0.60118 7.96762 7.71958 5.45857
91 1 4 -0.60118 25.8628 14.9319 13.8671
92 1 4 -0.60118 10.6692 6.15984 1.04697
93 1 4 -0.601179 24.6974 14.2591 11.9641
94 1 4 -0.601179 11.8345 6.83267 2.95001
95 1 4 -0.60118 28.9351 18.0514 9.45555
96 1 4 -0.60118 7.59682 3.04037 5.45857
97 1 4 -0.601179 30.1005 16.0329 9.45555
98 1 4 -0.601179 6.43145 5.05885 5.45857
99 1 4 -0.601179 24.6974 16.0329 9.45555
100 1 4 -0.601179 11.8345 5.05885 5.45857
101 1 4 -0.60118 25.8628 18.0514 9.45555
102 1 4 -0.60118 10.6692 3.04037 5.45857
103 1 4 -0.60118 28.9351 14.9319 13.8671
104 1 4 -0.60118 7.59682 6.15984 1.04697
105 1 4 -0.60118 30.1005 14.2591 11.9641
106 1 4 -0.60118 6.43145 6.83267 2.95001
ITEM: TIMESTEP
86000
ITEM: NUMBER OF ATOMS
109
ITEM: BOX BOUNDS xy xz yz pp pp pp
0.0000000000000000e+00 3.6531964750000000e+01 9.1329911900000003e+00
0.0000000000000000e+00 2.1091739680000000e+01 9.1329911900000003e+00
0.0000000000000000e+00 1.4914112149999999e+01 5.2729349200000000e+00
ITEM: ATOMS id mol type q x y z
1 1 1 1.10383 27.399 17.6496 10.5383
2 1 1 1.10383 9.13299 3.44217 4.3758
3 1 1 1.10383 27.399 15.8188 13.1274
4 1 1 1.10383 9.13299 5.27293 1.78671
5 1 1 1.10383 25.8135 14.9034 10.5383
6 1 1 1.10383 10.7185 6.18832 4.3758
7 1 1 1.10383 28.9845 14.9034 10.5383
8 1 1 1.10383 7.5475 6.18832 4.3758
9 1 2 0.115889 18.266 5.48596 12.6084
10 1 2 0.115889 18.266 15.6058 2.30572
11 1 2 0.115888 18.266 13.716 0.969417
12 1 2 0.115888 18.266 7.37578 13.9447
13 1 2 0.11589 25.3934 11.4908 8.12521
14 1 2 0.11589 11.1386 9.60096 6.7889
15 1 2 0.115888 11.1386 11.4908 8.12521
16 1 2 0.115888 25.3934 9.60096 6.7889
17 1 2 0.115889 15.5206 8.96083 0.969417
18 1 2 0.115889 21.0114 12.1309 13.9447
19 1 2 0.115888 22.648 13.0758 12.6084
20 1 2 0.115888 13.884 8.01592 2.30572
21 1 2 0.115889 21.0114 3.90092 8.12521
22 1 2 0.115889 15.5206 17.1908 6.7889
23 1 2 0.115887 13.884 16.2459 8.12521
24 1 2 0.115887 22.648 4.84583 6.7889
25 1 2 0.115889 22.648 16.2459 8.12521
26 1 2 0.115889 13.884 4.84583 6.7889
27 1 2 0.115887 15.5206 3.90092 8.12521
28 1 2 0.115887 21.0114 17.1908 6.7889
29 1 2 0.115889 21.0114 8.96083 0.969417
30 1 2 0.115889 15.5206 12.1309 13.9447
31 1 2 0.115887 13.884 13.0758 12.6084
32 1 2 0.115887 22.648 8.01592 2.30572
33 1 3 0.671939 27.399 18.7442 13.2542
34 1 3 0.671939 9.13299 2.34751 1.65994
35 1 3 0.671939 27.399 12.8934 9.117
36 1 3 0.671939 9.13299 8.19836 5.79712
37 1 3 0.67194 24.8655 14.3561 13.2542
38 1 3 0.67194 11.6665 6.73565 1.65994
39 1 3 0.67194 29.9325 17.2815 9.117
40 1 3 0.67194 6.5995 3.81022 5.79712
41 1 3 0.67194 24.8655 17.2815 9.117
42 1 3 0.67194 11.6665 3.81022 5.79712
43 1 3 0.67194 29.9325 14.3561 13.2542
44 1 3 0.67194 6.5995 6.73565 1.65994
45 1 3 -0.11508 27.399 19.957 14.1117
46 1 3 -0.11508 9.13299 1.13474 0.802379
47 1 3 -0.11508 27.399 11.6806 8.25944
48 1 3 -0.11508 9.13299 9.41113 6.65468
49 1 3 -0.11508 23.8152 13.7497 14.1117
50 1 3 -0.11508 12.7168 7.34203 0.802379
51 1 3 -0.11508 30.9828 17.8879 8.25944
52 1 3 -0.11508 5.54921 3.20384 6.65468
53 1 3 -0.11508 23.8152 17.8879 8.25944
54 1 3 -0.11508 12.7168 3.20384 6.65468
55 1 3 -0.11508 30.9828 13.7497 14.1117
56 1 3 -0.11508 5.54921 7.34203 0.802379
57 1 3 -0.0559 18.266 5.39949 13.5316
58 1 3 -0.0559 18.266 15.6923 1.38254
59 1 3 -0.055903 18.266 14.5575 0.580159
60 1 3 -0.055903 18.266 6.53422 14.334
61 1 3 -0.0559 26.1971 11.1132 7.85825
62 1 3 -0.0559 10.3349 9.9785 7.05587
63 1 3 -0.055903 10.3349 11.1132 7.85825
64 1 3 -0.055903 26.1971 9.9785 7.05587
65 1 3 -0.0559 14.7918 8.54005 0.580159
66 1 3 -0.0559 21.7402 12.5517 14.334
67 1 3 -0.055903 22.7229 13.1191 13.5316
68 1 3 -0.055903 13.8091 7.97268 1.38254
69 1 3 -0.0559 21.7402 3.39366 7.85825
70 1 3 -0.0559 14.7918 17.6981 7.05587
71 1 3 -0.055903 13.8091 17.1307 7.85825
72 1 3 -0.055903 22.7229 3.96103 7.05587
73 1 3 -0.055901 22.7229 17.1307 7.85825
74 1 3 -0.055901 13.8091 3.96103 7.05587
75 1 3 -0.055903 14.7918 3.39366 7.85825
76 1 3 -0.055903 21.7402 17.6981 7.05587
77 1 3 -0.0559 21.7402 8.54005 0.580159
78 1 3 -0.0559 14.7918 12.5517 14.334
79 1 3 -0.055903 13.8091 13.1191 13.5316
80 1 3 -0.055903 22.7229 7.97268 1.38254
81 1 4 -1.26215 27.399 15.8188 11.1856
82 1 4 -1.26215 9.13299 5.27293 3.72853
83 1 4 -0.60118 27.399 18.9383 11.9641
84 1 4 -0.60118 9.13299 2.15347 2.95001
85 1 4 -0.601179 27.399 17.5926 13.8671
86 1 4 -0.601179 9.13299 3.49912 1.04697
87 1 4 -0.601179 26.2336 13.3722 9.45555
88 1 4 -0.601179 10.2984 7.71958 5.45857
89 1 4 -0.60118 28.5643 13.3722 9.45555
90 1 4 -0.60118 7.96762 7.71958 5.45857
91 1 4 -0.60118 25.8628 14.9319 13.8671
92 1 4 -0.60118 10.6692 6.15984 1.04697
93 1 4 -0.601179 24.6974 14.2591 11.9641
94 1 4 -0.601179 11.8345 6.83267 2.95001
95 1 4 -0.60118 28.9351 18.0514 9.45555
96 1 4 -0.60118 7.59682 3.04037 5.45857
97 1 4 -0.601179 30.1005 16.0329 9.45555
98 1 4 -0.601179 6.43145 5.05885 5.45857
99 1 4 -0.601179 24.6974 16.0329 9.45555
100 1 4 -0.601179 11.8345 5.05885 5.45857
101 1 4 -0.60118 25.8628 18.0514 9.45555
102 1 4 -0.60118 10.6692 3.04037 5.45857
103 1 4 -0.60118 28.9351 14.9319 13.8671
104 1 4 -0.60118 7.59682 6.15984 1.04697
105 1 4 -0.60118 30.1005 14.2591 11.9641
106 1 4 -0.60118 6.43145 6.83267 2.95001
110 3 5 -0.35 28.9146 16.8637 3.53045
111 3 6 0.7 11.5623 16.5343 4.16472
112 3 5 -0.35 12.476 16.205 4.799
ITEM: TIMESTEP
87000
ITEM: NUMBER OF ATOMS
109
ITEM: BOX BOUNDS xy xz yz pp pp pp
0.0000000000000000e+00 3.6531964750000000e+01 9.1329911900000003e+00
0.0000000000000000e+00 2.1091739680000000e+01 9.1329911900000003e+00
0.0000000000000000e+00 1.4914112149999999e+01 5.2729349200000000e+00
ITEM: ATOMS id mol type q x y z
1 1 1 1.10383 27.399 17.6496 10.5383
2 1 1 1.10383 9.13299 3.44217 4.3758
3 1 1 1.10383 27.399 15.8188 13.1274
4 1 1 1.10383 9.13299 5.27293 1.78671
5 1 1 1.10383 25.8135 14.9034 10.5383
6 1 1 1.10383 10.7185 6.18832 4.3758
7 1 1 1.10383 28.9845 14.9034 10.5383
8 1 1 1.10383 7.5475 6.18832 4.3758
9 1 2 0.115889 18.266 5.48596 12.6084
10 1 2 0.115889 18.266 15.6058 2.30572
11 1 2 0.115888 18.266 13.716 0.969417
12 1 2 0.115888 18.266 7.37578 13.9447
13 1 2 0.11589 25.3934 11.4908 8.12521
14 1 2 0.11589 11.1386 9.60096 6.7889
15 1 2 0.115888 11.1386 11.4908 8.12521
16 1 2 0.115888 25.3934 9.60096 6.7889
17 1 2 0.115889 15.5206 8.96083 0.969417
18 1 2 0.115889 21.0114 12.1309 13.9447
19 1 2 0.115888 22.648 13.0758 12.6084
20 1 2 0.115888 13.884 8.01592 2.30572
21 1 2 0.115889 21.0114 3.90092 8.12521
22 1 2 0.115889 15.5206 17.1908 6.7889
23 1 2 0.115887 13.884 16.2459 8.12521
24 1 2 0.115887 22.648 4.84583 6.7889
25 1 2 0.115889 22.648 16.2459 8.12521
26 1 2 0.115889 13.884 4.84583 6.7889
27 1 2 0.115887 15.5206 3.90092 8.12521
28 1 2 0.115887 21.0114 17.1908 6.7889
29 1 2 0.115889 21.0114 8.96083 0.969417
30 1 2 0.115889 15.5206 12.1309 13.9447
31 1 2 0.115887 13.884 13.0758 12.6084
32 1 2 0.115887 22.648 8.01592 2.30572
33 1 3 0.671939 27.399 18.7442 13.2542
34 1 3 0.671939 9.13299 2.34751 1.65994
35 1 3 0.671939 27.399 12.8934 9.117
36 1 3 0.671939 9.13299 8.19836 5.79712
37 1 3 0.67194 24.8655 14.3561 13.2542
38 1 3 0.67194 11.6665 6.73565 1.65994
39 1 3 0.67194 29.9325 17.2815 9.117
40 1 3 0.67194 6.5995 3.81022 5.79712
41 1 3 0.67194 24.8655 17.2815 9.117
42 1 3 0.67194 11.6665 3.81022 5.79712
43 1 3 0.67194 29.9325 14.3561 13.2542
44 1 3 0.67194 6.5995 6.73565 1.65994
45 1 3 -0.11508 27.399 19.957 14.1117
46 1 3 -0.11508 9.13299 1.13474 0.802379
47 1 3 -0.11508 27.399 11.6806 8.25944
48 1 3 -0.11508 9.13299 9.41113 6.65468
49 1 3 -0.11508 23.8152 13.7497 14.1117
50 1 3 -0.11508 12.7168 7.34203 0.802379
51 1 3 -0.11508 30.9828 17.8879 8.25944
52 1 3 -0.11508 5.54921 3.20384 6.65468
53 1 3 -0.11508 23.8152 17.8879 8.25944
54 1 3 -0.11508 12.7168 3.20384 6.65468
55 1 3 -0.11508 30.9828 13.7497 14.1117
56 1 3 -0.11508 5.54921 7.34203 0.802379
57 1 3 -0.0559 18.266 5.39949 13.5316
58 1 3 -0.0559 18.266 15.6923 1.38254
59 1 3 -0.055903 18.266 14.5575 0.580159
60 1 3 -0.055903 18.266 6.53422 14.334
61 1 3 -0.0559 26.1971 11.1132 7.85825
62 1 3 -0.0559 10.3349 9.9785 7.05587
63 1 3 -0.055903 10.3349 11.1132 7.85825
64 1 3 -0.055903 26.1971 9.9785 7.05587
65 1 3 -0.0559 14.7918 8.54005 0.580159
66 1 3 -0.0559 21.7402 12.5517 14.334
67 1 3 -0.055903 22.7229 13.1191 13.5316
68 1 3 -0.055903 13.8091 7.97268 1.38254
69 1 3 -0.0559 21.7402 3.39366 7.85825
70 1 3 -0.0559 14.7918 17.6981 7.05587
71 1 3 -0.055903 13.8091 17.1307 7.85825
72 1 3 -0.055903 22.7229 3.96103 7.05587
73 1 3 -0.055901 22.7229 17.1307 7.85825
74 1 3 -0.055901 13.8091 3.96103 7.05587
75 1 3 -0.055903 14.7918 3.39366 7.85825
76 1 3 -0.055903 21.7402 17.6981 7.05587
77 1 3 -0.0559 21.7402 8.54005 0.580159
78 1 3 -0.0559 14.7918 12.5517 14.334
79 1 3 -0.055903 13.8091 13.1191 13.5316
80 1 3 -0.055903 22.7229 7.97268 1.38254
81 1 4 -1.26215 27.399 15.8188 11.1856
82 1 4 -1.26215 9.13299 5.27293 3.72853
83 1 4 -0.60118 27.399 18.9383 11.9641
84 1 4 -0.60118 9.13299 2.15347 2.95001
85 1 4 -0.601179 27.399 17.5926 13.8671
86 1 4 -0.601179 9.13299 3.49912 1.04697
87 1 4 -0.601179 26.2336 13.3722 9.45555
88 1 4 -0.601179 10.2984 7.71958 5.45857
89 1 4 -0.60118 28.5643 13.3722 9.45555
90 1 4 -0.60118 7.96762 7.71958 5.45857
91 1 4 -0.60118 25.8628 14.9319 13.8671
92 1 4 -0.60118 10.6692 6.15984 1.04697
93 1 4 -0.601179 24.6974 14.2591 11.9641
94 1 4 -0.601179 11.8345 6.83267 2.95001
95 1 4 -0.60118 28.9351 18.0514 9.45555
96 1 4 -0.60118 7.59682 3.04037 5.45857
97 1 4 -0.601179 30.1005 16.0329 9.45555
98 1 4 -0.601179 6.43145 5.05885 5.45857
99 1 4 -0.601179 24.6974 16.0329 9.45555
100 1 4 -0.601179 11.8345 5.05885 5.45857
101 1 4 -0.60118 25.8628 18.0514 9.45555
102 1 4 -0.60118 10.6692 3.04037 5.45857
103 1 4 -0.60118 28.9351 14.9319 13.8671
104 1 4 -0.60118 7.59682 6.15984 1.04697
105 1 4 -0.60118 30.1005 14.2591 11.9641
106 1 4 -0.60118 6.43145 6.83267 2.95001
107 2 5 -0.35 11.1097 8.69308 9.98306
108 2 6 0.7 10.2858 7.96536 9.61257
109 2 5 -0.35 9.46195 7.23763 9.24209
ITEM: TIMESTEP
88000
ITEM: NUMBER OF ATOMS
106
ITEM: BOX BOUNDS xy xz yz pp pp pp
0.0000000000000000e+00 3.6531964750000000e+01 9.1329911900000003e+00
0.0000000000000000e+00 2.1091739680000000e+01 9.1329911900000003e+00
0.0000000000000000e+00 1.4914112149999999e+01 5.2729349200000000e+00
ITEM: ATOMS id mol type q x y z
1 1 1 1.10383 27.399 17.6496 10.5383
2 1 1 1.10383 9.13299 3.44217 4.3758
3 1 1 1.10383 27.399 15.8188 13.1274
4 1 1 1.10383 9.13299 5.27293 1.78671
5 1 1 1.10383 25.8135 14.9034 10.5383
6 1 1 1.10383 10.7185 6.18832 4.3758
7 1 1 1.10383 28.9845 14.9034 10.5383
8 1 1 1.10383 7.5475 6.18832 4.3758
9 1 2 0.115889 18.266 5.48596 12.6084
10 1 2 0.115889 18.266 15.6058 2.30572
11 1 2 0.115888 18.266 13.716 0.969417
12 1 2 0.115888 18.266 7.37578 13.9447
13 1 2 0.11589 25.3934 11.4908 8.12521
14 1 2 0.11589 11.1386 9.60096 6.7889
15 1 2 0.115888 11.1386 11.4908 8.12521
16 1 2 0.115888 25.3934 9.60096 6.7889
17 1 2 0.115889 15.5206 8.96083 0.969417
18 1 2 0.115889 21.0114 12.1309 13.9447
19 1 2 0.115888 22.648 13.0758 12.6084
20 1 2 0.115888 13.884 8.01592 2.30572
21 1 2 0.115889 21.0114 3.90092 8.12521
22 1 2 0.115889 15.5206 17.1908 6.7889
23 1 2 0.115887 13.884 16.2459 8.12521
24 1 2 0.115887 22.648 4.84583 6.7889
25 1 2 0.115889 22.648 16.2459 8.12521
26 1 2 0.115889 13.884 4.84583 6.7889
27 1 2 0.115887 15.5206 3.90092 8.12521
28 1 2 0.115887 21.0114 17.1908 6.7889
29 1 2 0.115889 21.0114 8.96083 0.969417
30 1 2 0.115889 15.5206 12.1309 13.9447
31 1 2 0.115887 13.884 13.0758 12.6084
32 1 2 0.115887 22.648 8.01592 2.30572
33 1 3 0.671939 27.399 18.7442 13.2542
34 1 3 0.671939 9.13299 2.34751 1.65994
35 1 3 0.671939 27.399 12.8934 9.117
36 1 3 0.671939 9.13299 8.19836 5.79712
37 1 3 0.67194 24.8655 14.3561 13.2542
38 1 3 0.67194 11.6665 6.73565 1.65994
39 1 3 0.67194 29.9325 17.2815 9.117
40 1 3 0.67194 6.5995 3.81022 5.79712
41 1 3 0.67194 24.8655 17.2815 9.117
42 1 3 0.67194 11.6665 3.81022 5.79712
43 1 3 0.67194 29.9325 14.3561 13.2542
44 1 3 0.67194 6.5995 6.73565 1.65994
45 1 3 -0.11508 27.399 19.957 14.1117
46 1 3 -0.11508 9.13299 1.13474 0.802379
47 1 3 -0.11508 27.399 11.6806 8.25944
48 1 3 -0.11508 9.13299 9.41113 6.65468
49 1 3 -0.11508 23.8152 13.7497 14.1117
50 1 3 -0.11508 12.7168 7.34203 0.802379
51 1 3 -0.11508 30.9828 17.8879 8.25944
52 1 3 -0.11508 5.54921 3.20384 6.65468
53 1 3 -0.11508 23.8152 17.8879 8.25944
54 1 3 -0.11508 12.7168 3.20384 6.65468
55 1 3 -0.11508 30.9828 13.7497 14.1117
56 1 3 -0.11508 5.54921 7.34203 0.802379
57 1 3 -0.0559 18.266 5.39949 13.5316
58 1 3 -0.0559 18.266 15.6923 1.38254
59 1 3 -0.055903 18.266 14.5575 0.580159
60 1 3 -0.055903 18.266 6.53422 14.334
61 1 3 -0.0559 26.1971 11.1132 7.85825
62 1 3 -0.0559 10.3349 9.9785 7.05587
63 1 3 -0.055903 10.3349 11.1132 7.85825
64 1 3 -0.055903 26.1971 9.9785 7.05587
65 1 3 -0.0559 14.7918 8.54005 0.580159
66 1 3 -0.0559 21.7402 12.5517 14.334
67 1 3 -0.055903 22.7229 13.1191 13.5316
68 1 3 -0.055903 13.8091 7.97268 1.38254
69 1 3 -0.0559 21.7402 3.39366 7.85825
70 1 3 -0.0559 14.7918 17.6981 7.05587
71 1 3 -0.055903 13.8091 17.1307 7.85825
72 1 3 -0.055903 22.7229 3.96103 7.05587
73 1 3 -0.055901 22.7229 17.1307 7.85825
74 1 3 -0.055901 13.8091 3.96103 7.05587
75 1 3 -0.055903 14.7918 3.39366 7.85825
76 1 3 -0.055903 21.7402 17.6981 7.05587
77 1 3 -0.0559 21.7402 8.54005 0.580159
78 1 3 -0.0559 14.7918 12.5517 14.334
79 1 3 -0.055903 13.8091 13.1191 13.5316
80 1 3 -0.055903 22.7229 7.97268 1.38254
81 1 4 -1.26215 27.399 15.8188 11.1856
82 1 4 -1.26215 9.13299 5.27293 3.72853
83 1 4 -0.60118 27.399 18.9383 11.9641
84 1 4 -0.60118 9.13299 2.15347 2.95001
85 1 4 -0.601179 27.399 17.5926 13.8671
86 1 4 -0.601179 9.13299 3.49912 1.04697
87 1 4 -0.601179 26.2336 13.3722 9.45555
88 1 4 -0.601179 10.2984 7.71958 5.45857
89 1 4 -0.60118 28.5643 13.3722 9.45555
90 1 4 -0.60118 7.96762 7.71958 5.45857
91 1 4 -0.60118 25.8628 14.9319 13.8671
92 1 4 -0.60118 10.6692 6.15984 1.04697
93 1 4 -0.601179 24.6974 14.2591 11.9641
94 1 4 -0.601179 11.8345 6.83267 2.95001
95 1 4 -0.60118 28.9351 18.0514 9.45555
96 1 4 -0.60118 7.59682 3.04037 5.45857
97 1 4 -0.601179 30.1005 16.0329 9.45555
98 1 4 -0.601179 6.43145 5.05885 5.45857
99 1 4 -0.601179 24.6974 16.0329 9.45555
100 1 4 -0.601179 11.8345 5.05885 5.45857
101 1 4 -0.60118 25.8628 18.0514 9.45555
102 1 4 -0.60118 10.6692 3.04037 5.45857
103 1 4 -0.60118 28.9351 14.9319 13.8671
104 1 4 -0.60118 7.59682 6.15984 1.04697
105 1 4 -0.60118 30.1005 14.2591 11.9641
106 1 4 -0.60118 6.43145 6.83267 2.95001
ITEM: TIMESTEP
89000
ITEM: NUMBER OF ATOMS
115
ITEM: BOX BOUNDS xy xz yz pp pp pp
0.0000000000000000e+00 3.6531964750000000e+01 9.1329911900000003e+00
0.0000000000000000e+00 2.1091739680000000e+01 9.1329911900000003e+00
0.0000000000000000e+00 1.4914112149999999e+01 5.2729349200000000e+00
ITEM: ATOMS id mol type q x y z
1 1 1 1.10383 27.399 17.6496 10.5383
2 1 1 1.10383 9.13299 3.44217 4.3758
3 1 1 1.10383 27.399 15.8188 13.1274
4 1 1 1.10383 9.13299 5.27293 1.78671
5 1 1 1.10383 25.8135 14.9034 10.5383
6 1 1 1.10383 10.7185 6.18832 4.3758
7 1 1 1.10383 28.9845 14.9034 10.5383
8 1 1 1.10383 7.5475 6.18832 4.3758
9 1 2 0.115889 18.266 5.48596 12.6084
10 1 2 0.115889 18.266 15.6058 2.30572
11 1 2 0.115888 18.266 13.716 0.969417
12 1 2 0.115888 18.266 7.37578 13.9447
13 1 2 0.11589 25.3934 11.4908 8.12521
14 1 2 0.11589 11.1386 9.60096 6.7889
15 1 2 0.115888 11.1386 11.4908 8.12521
16 1 2 0.115888 25.3934 9.60096 6.7889
17 1 2 0.115889 15.5206 8.96083 0.969417
18 1 2 0.115889 21.0114 12.1309 13.9447
19 1 2 0.115888 22.648 13.0758 12.6084
20 1 2 0.115888 13.884 8.01592 2.30572
21 1 2 0.115889 21.0114 3.90092 8.12521
22 1 2 0.115889 15.5206 17.1908 6.7889
23 1 2 0.115887 13.884 16.2459 8.12521
24 1 2 0.115887 22.648 4.84583 6.7889
25 1 2 0.115889 22.648 16.2459 8.12521
26 1 2 0.115889 13.884 4.84583 6.7889
27 1 2 0.115887 15.5206 3.90092 8.12521
28 1 2 0.115887 21.0114 17.1908 6.7889
29 1 2 0.115889 21.0114 8.96083 0.969417
30 1 2 0.115889 15.5206 12.1309 13.9447
31 1 2 0.115887 13.884 13.0758 12.6084
32 1 2 0.115887 22.648 8.01592 2.30572
33 1 3 0.671939 27.399 18.7442 13.2542
34 1 3 0.671939 9.13299 2.34751 1.65994
35 1 3 0.671939 27.399 12.8934 9.117
36 1 3 0.671939 9.13299 8.19836 5.79712
37 1 3 0.67194 24.8655 14.3561 13.2542
38 1 3 0.67194 11.6665 6.73565 1.65994
39 1 3 0.67194 29.9325 17.2815 9.117
40 1 3 0.67194 6.5995 3.81022 5.79712
41 1 3 0.67194 24.8655 17.2815 9.117
42 1 3 0.67194 11.6665 3.81022 5.79712
43 1 3 0.67194 29.9325 14.3561 13.2542
44 1 3 0.67194 6.5995 6.73565 1.65994
45 1 3 -0.11508 27.399 19.957 14.1117
46 1 3 -0.11508 9.13299 1.13474 0.802379
47 1 3 -0.11508 27.399 11.6806 8.25944
48 1 3 -0.11508 9.13299 9.41113 6.65468
49 1 3 -0.11508 23.8152 13.7497 14.1117
50 1 3 -0.11508 12.7168 7.34203 0.802379
51 1 3 -0.11508 30.9828 17.8879 8.25944
52 1 3 -0.11508 5.54921 3.20384 6.65468
53 1 3 -0.11508 23.8152 17.8879 8.25944
54 1 3 -0.11508 12.7168 3.20384 6.65468
55 1 3 -0.11508 30.9828 13.7497 14.1117
56 1 3 -0.11508 5.54921 7.34203 0.802379
57 1 3 -0.0559 18.266 5.39949 13.5316
58 1 3 -0.0559 18.266 15.6923 1.38254
59 1 3 -0.055903 18.266 14.5575 0.580159
60 1 3 -0.055903 18.266 6.53422 14.334
61 1 3 -0.0559 26.1971 11.1132 7.85825
62 1 3 -0.0559 10.3349 9.9785 7.05587
63 1 3 -0.055903 10.3349 11.1132 7.85825
64 1 3 -0.055903 26.1971 9.9785 7.05587
65 1 3 -0.0559 14.7918 8.54005 0.580159
66 1 3 -0.0559 21.7402 12.5517 14.334
67 1 3 -0.055903 22.7229 13.1191 13.5316
68 1 3 -0.055903 13.8091 7.97268 1.38254
69 1 3 -0.0559 21.7402 3.39366 7.85825
70 1 3 -0.0559 14.7918 17.6981 7.05587
71 1 3 -0.055903 13.8091 17.1307 7.85825
72 1 3 -0.055903 22.7229 3.96103 7.05587
73 1 3 -0.055901 22.7229 17.1307 7.85825
74 1 3 -0.055901 13.8091 3.96103 7.05587
75 1 3 -0.055903 14.7918 3.39366 7.85825
76 1 3 -0.055903 21.7402 17.6981 7.05587
77 1 3 -0.0559 21.7402 8.54005 0.580159
78 1 3 -0.0559 14.7918 12.5517 14.334
79 1 3 -0.055903 13.8091 13.1191 13.5316
80 1 3 -0.055903 22.7229 7.97268 1.38254
81 1 4 -1.26215 27.399 15.8188 11.1856
82 1 4 -1.26215 9.13299 5.27293 3.72853
83 1 4 -0.60118 27.399 18.9383 11.9641
84 1 4 -0.60118 9.13299 2.15347 2.95001
85 1 4 -0.601179 27.399 17.5926 13.8671
86 1 4 -0.601179 9.13299 3.49912 1.04697
87 1 4 -0.601179 26.2336 13.3722 9.45555
88 1 4 -0.601179 10.2984 7.71958 5.45857
89 1 4 -0.60118 28.5643 13.3722 9.45555
90 1 4 -0.60118 7.96762 7.71958 5.45857
91 1 4 -0.60118 25.8628 14.9319 13.8671
92 1 4 -0.60118 10.6692 6.15984 1.04697
93 1 4 -0.601179 24.6974 14.2591 11.9641
94 1 4 -0.601179 11.8345 6.83267 2.95001
95 1 4 -0.60118 28.9351 18.0514 9.45555
96 1 4 -0.60118 7.59682 3.04037 5.45857
97 1 4 -0.601179 30.1005 16.0329 9.45555
98 1 4 -0.601179 6.43145 5.05885 5.45857
99 1 4 -0.601179 24.6974 16.0329 9.45555
100 1 4 -0.601179 11.8345 5.05885 5.45857
101 1 4 -0.60118 25.8628 18.0514 9.45555
102 1 4 -0.60118 10.6692 3.04037 5.45857
103 1 4 -0.60118 28.9351 14.9319 13.8671
104 1 4 -0.60118 7.59682 6.15984 1.04697
105 1 4 -0.60118 30.1005 14.2591 11.9641
106 1 4 -0.60118 6.43145 6.83267 2.95001
116 5 5 -0.35 13.1043 3.73856 1.88635
117 5 6 0.7 14.1261 4.1373 2.26399
118 5 5 -0.35 15.1478 4.53605 2.64163
119 6 5 -0.35 7.91502 9.62458 2.73705
120 6 6 0.7 25.397 10.061 3.47215
121 6 5 -0.35 24.6129 10.4975 4.20726
122 7 5 -0.35 21.2607 16.8202 13.251
123 7 6 0.7 22.0743 17.3515 12.6175
124 7 5 -0.35 22.888 17.8828 11.984
ITEM: TIMESTEP
90000
ITEM: NUMBER OF ATOMS
109
ITEM: BOX BOUNDS xy xz yz pp pp pp
0.0000000000000000e+00 3.6531964750000000e+01 9.1329911900000003e+00
0.0000000000000000e+00 2.1091739680000000e+01 9.1329911900000003e+00
0.0000000000000000e+00 1.4914112149999999e+01 5.2729349200000000e+00
ITEM: ATOMS id mol type q x y z
1 1 1 1.10383 27.399 17.6496 10.5383
2 1 1 1.10383 9.13299 3.44217 4.3758
3 1 1 1.10383 27.399 15.8188 13.1274
4 1 1 1.10383 9.13299 5.27293 1.78671
5 1 1 1.10383 25.8135 14.9034 10.5383
6 1 1 1.10383 10.7185 6.18832 4.3758
7 1 1 1.10383 28.9845 14.9034 10.5383
8 1 1 1.10383 7.5475 6.18832 4.3758
9 1 2 0.115889 18.266 5.48596 12.6084
10 1 2 0.115889 18.266 15.6058 2.30572
11 1 2 0.115888 18.266 13.716 0.969417
12 1 2 0.115888 18.266 7.37578 13.9447
13 1 2 0.11589 25.3934 11.4908 8.12521
14 1 2 0.11589 11.1386 9.60096 6.7889
15 1 2 0.115888 11.1386 11.4908 8.12521
16 1 2 0.115888 25.3934 9.60096 6.7889
17 1 2 0.115889 15.5206 8.96083 0.969417
18 1 2 0.115889 21.0114 12.1309 13.9447
19 1 2 0.115888 22.648 13.0758 12.6084
20 1 2 0.115888 13.884 8.01592 2.30572
21 1 2 0.115889 21.0114 3.90092 8.12521
22 1 2 0.115889 15.5206 17.1908 6.7889
23 1 2 0.115887 13.884 16.2459 8.12521
24 1 2 0.115887 22.648 4.84583 6.7889
25 1 2 0.115889 22.648 16.2459 8.12521
26 1 2 0.115889 13.884 4.84583 6.7889
27 1 2 0.115887 15.5206 3.90092 8.12521
28 1 2 0.115887 21.0114 17.1908 6.7889
29 1 2 0.115889 21.0114 8.96083 0.969417
30 1 2 0.115889 15.5206 12.1309 13.9447
31 1 2 0.115887 13.884 13.0758 12.6084
32 1 2 0.115887 22.648 8.01592 2.30572
33 1 3 0.671939 27.399 18.7442 13.2542
34 1 3 0.671939 9.13299 2.34751 1.65994
35 1 3 0.671939 27.399 12.8934 9.117
36 1 3 0.671939 9.13299 8.19836 5.79712
37 1 3 0.67194 24.8655 14.3561 13.2542
38 1 3 0.67194 11.6665 6.73565 1.65994
39 1 3 0.67194 29.9325 17.2815 9.117
40 1 3 0.67194 6.5995 3.81022 5.79712
41 1 3 0.67194 24.8655 17.2815 9.117
42 1 3 0.67194 11.6665 3.81022 5.79712
43 1 3 0.67194 29.9325 14.3561 13.2542
44 1 3 0.67194 6.5995 6.73565 1.65994
45 1 3 -0.11508 27.399 19.957 14.1117
46 1 3 -0.11508 9.13299 1.13474 0.802379
47 1 3 -0.11508 27.399 11.6806 8.25944
48 1 3 -0.11508 9.13299 9.41113 6.65468
49 1 3 -0.11508 23.8152 13.7497 14.1117
50 1 3 -0.11508 12.7168 7.34203 0.802379
51 1 3 -0.11508 30.9828 17.8879 8.25944
52 1 3 -0.11508 5.54921 3.20384 6.65468
53 1 3 -0.11508 23.8152 17.8879 8.25944
54 1 3 -0.11508 12.7168 3.20384 6.65468
55 1 3 -0.11508 30.9828 13.7497 14.1117
56 1 3 -0.11508 5.54921 7.34203 0.802379
57 1 3 -0.0559 18.266 5.39949 13.5316
58 1 3 -0.0559 18.266 15.6923 1.38254
59 1 3 -0.055903 18.266 14.5575 0.580159
60 1 3 -0.055903 18.266 6.53422 14.334
61 1 3 -0.0559 26.1971 11.1132 7.85825
62 1 3 -0.0559 10.3349 9.9785 7.05587
63 1 3 -0.055903 10.3349 11.1132 7.85825
64 1 3 -0.055903 26.1971 9.9785 7.05587
65 1 3 -0.0559 14.7918 8.54005 0.580159
66 1 3 -0.0559 21.7402 12.5517 14.334
67 1 3 -0.055903 22.7229 13.1191 13.5316
68 1 3 -0.055903 13.8091 7.97268 1.38254
69 1 3 -0.0559 21.7402 3.39366 7.85825
70 1 3 -0.0559 14.7918 17.6981 7.05587
71 1 3 -0.055903 13.8091 17.1307 7.85825
72 1 3 -0.055903 22.7229 3.96103 7.05587
73 1 3 -0.055901 22.7229 17.1307 7.85825
74 1 3 -0.055901 13.8091 3.96103 7.05587
75 1 3 -0.055903 14.7918 3.39366 7.85825
76 1 3 -0.055903 21.7402 17.6981 7.05587
77 1 3 -0.0559 21.7402 8.54005 0.580159
78 1 3 -0.0559 14.7918 12.5517 14.334
79 1 3 -0.055903 13.8091 13.1191 13.5316
80 1 3 -0.055903 22.7229 7.97268 1.38254
81 1 4 -1.26215 27.399 15.8188 11.1856
82 1 4 -1.26215 9.13299 5.27293 3.72853
83 1 4 -0.60118 27.399 18.9383 11.9641
84 1 4 -0.60118 9.13299 2.15347 2.95001
85 1 4 -0.601179 27.399 17.5926 13.8671
86 1 4 -0.601179 9.13299 3.49912 1.04697
87 1 4 -0.601179 26.2336 13.3722 9.45555
88 1 4 -0.601179 10.2984 7.71958 5.45857
89 1 4 -0.60118 28.5643 13.3722 9.45555
90 1 4 -0.60118 7.96762 7.71958 5.45857
91 1 4 -0.60118 25.8628 14.9319 13.8671
92 1 4 -0.60118 10.6692 6.15984 1.04697
93 1 4 -0.601179 24.6974 14.2591 11.9641
94 1 4 -0.601179 11.8345 6.83267 2.95001
95 1 4 -0.60118 28.9351 18.0514 9.45555
96 1 4 -0.60118 7.59682 3.04037 5.45857
97 1 4 -0.601179 30.1005 16.0329 9.45555
98 1 4 -0.601179 6.43145 5.05885 5.45857
99 1 4 -0.601179 24.6974 16.0329 9.45555
100 1 4 -0.601179 11.8345 5.05885 5.45857
101 1 4 -0.60118 25.8628 18.0514 9.45555
102 1 4 -0.60118 10.6692 3.04037 5.45857
103 1 4 -0.60118 28.9351 14.9319 13.8671
104 1 4 -0.60118 7.59682 6.15984 1.04697
105 1 4 -0.60118 30.1005 14.2591 11.9641
106 1 4 -0.60118 6.43145 6.83267 2.95001
107 2 5 -0.35 10.4118 12.9648 4.62042
108 2 6 0.7 10.4024 13.3802 3.53735
109 2 5 -0.35 10.393 13.7955 2.45429
ITEM: TIMESTEP
91000
ITEM: NUMBER OF ATOMS
112
ITEM: BOX BOUNDS xy xz yz pp pp pp
0.0000000000000000e+00 3.6531964750000000e+01 9.1329911900000003e+00
0.0000000000000000e+00 2.1091739680000000e+01 9.1329911900000003e+00
0.0000000000000000e+00 1.4914112149999999e+01 5.2729349200000000e+00
ITEM: ATOMS id mol type q x y z
1 1 1 1.10383 27.399 17.6496 10.5383
2 1 1 1.10383 9.13299 3.44217 4.3758
3 1 1 1.10383 27.399 15.8188 13.1274
4 1 1 1.10383 9.13299 5.27293 1.78671
5 1 1 1.10383 25.8135 14.9034 10.5383
6 1 1 1.10383 10.7185 6.18832 4.3758
7 1 1 1.10383 28.9845 14.9034 10.5383
8 1 1 1.10383 7.5475 6.18832 4.3758
9 1 2 0.115889 18.266 5.48596 12.6084
10 1 2 0.115889 18.266 15.6058 2.30572
11 1 2 0.115888 18.266 13.716 0.969417
12 1 2 0.115888 18.266 7.37578 13.9447
13 1 2 0.11589 25.3934 11.4908 8.12521
14 1 2 0.11589 11.1386 9.60096 6.7889
15 1 2 0.115888 11.1386 11.4908 8.12521
16 1 2 0.115888 25.3934 9.60096 6.7889
17 1 2 0.115889 15.5206 8.96083 0.969417
18 1 2 0.115889 21.0114 12.1309 13.9447
19 1 2 0.115888 22.648 13.0758 12.6084
20 1 2 0.115888 13.884 8.01592 2.30572
21 1 2 0.115889 21.0114 3.90092 8.12521
22 1 2 0.115889 15.5206 17.1908 6.7889
23 1 2 0.115887 13.884 16.2459 8.12521
24 1 2 0.115887 22.648 4.84583 6.7889
25 1 2 0.115889 22.648 16.2459 8.12521
26 1 2 0.115889 13.884 4.84583 6.7889
27 1 2 0.115887 15.5206 3.90092 8.12521
28 1 2 0.115887 21.0114 17.1908 6.7889
29 1 2 0.115889 21.0114 8.96083 0.969417
30 1 2 0.115889 15.5206 12.1309 13.9447
31 1 2 0.115887 13.884 13.0758 12.6084
32 1 2 0.115887 22.648 8.01592 2.30572
33 1 3 0.671939 27.399 18.7442 13.2542
34 1 3 0.671939 9.13299 2.34751 1.65994
35 1 3 0.671939 27.399 12.8934 9.117
36 1 3 0.671939 9.13299 8.19836 5.79712
37 1 3 0.67194 24.8655 14.3561 13.2542
38 1 3 0.67194 11.6665 6.73565 1.65994
39 1 3 0.67194 29.9325 17.2815 9.117
40 1 3 0.67194 6.5995 3.81022 5.79712
41 1 3 0.67194 24.8655 17.2815 9.117
42 1 3 0.67194 11.6665 3.81022 5.79712
43 1 3 0.67194 29.9325 14.3561 13.2542
44 1 3 0.67194 6.5995 6.73565 1.65994
45 1 3 -0.11508 27.399 19.957 14.1117
46 1 3 -0.11508 9.13299 1.13474 0.802379
47 1 3 -0.11508 27.399 11.6806 8.25944
48 1 3 -0.11508 9.13299 9.41113 6.65468
49 1 3 -0.11508 23.8152 13.7497 14.1117
50 1 3 -0.11508 12.7168 7.34203 0.802379
51 1 3 -0.11508 30.9828 17.8879 8.25944
52 1 3 -0.11508 5.54921 3.20384 6.65468
53 1 3 -0.11508 23.8152 17.8879 8.25944
54 1 3 -0.11508 12.7168 3.20384 6.65468
55 1 3 -0.11508 30.9828 13.7497 14.1117
56 1 3 -0.11508 5.54921 7.34203 0.802379
57 1 3 -0.0559 18.266 5.39949 13.5316
58 1 3 -0.0559 18.266 15.6923 1.38254
59 1 3 -0.055903 18.266 14.5575 0.580159
60 1 3 -0.055903 18.266 6.53422 14.334
61 1 3 -0.0559 26.1971 11.1132 7.85825
62 1 3 -0.0559 10.3349 9.9785 7.05587
63 1 3 -0.055903 10.3349 11.1132 7.85825
64 1 3 -0.055903 26.1971 9.9785 7.05587
65 1 3 -0.0559 14.7918 8.54005 0.580159
66 1 3 -0.0559 21.7402 12.5517 14.334
67 1 3 -0.055903 22.7229 13.1191 13.5316
68 1 3 -0.055903 13.8091 7.97268 1.38254
69 1 3 -0.0559 21.7402 3.39366 7.85825
70 1 3 -0.0559 14.7918 17.6981 7.05587
71 1 3 -0.055903 13.8091 17.1307 7.85825
72 1 3 -0.055903 22.7229 3.96103 7.05587
73 1 3 -0.055901 22.7229 17.1307 7.85825
74 1 3 -0.055901 13.8091 3.96103 7.05587
75 1 3 -0.055903 14.7918 3.39366 7.85825
76 1 3 -0.055903 21.7402 17.6981 7.05587
77 1 3 -0.0559 21.7402 8.54005 0.580159
78 1 3 -0.0559 14.7918 12.5517 14.334
79 1 3 -0.055903 13.8091 13.1191 13.5316
80 1 3 -0.055903 22.7229 7.97268 1.38254
81 1 4 -1.26215 27.399 15.8188 11.1856
82 1 4 -1.26215 9.13299 5.27293 3.72853
83 1 4 -0.60118 27.399 18.9383 11.9641
84 1 4 -0.60118 9.13299 2.15347 2.95001
85 1 4 -0.601179 27.399 17.5926 13.8671
86 1 4 -0.601179 9.13299 3.49912 1.04697
87 1 4 -0.601179 26.2336 13.3722 9.45555
88 1 4 -0.601179 10.2984 7.71958 5.45857
89 1 4 -0.60118 28.5643 13.3722 9.45555
90 1 4 -0.60118 7.96762 7.71958 5.45857
91 1 4 -0.60118 25.8628 14.9319 13.8671
92 1 4 -0.60118 10.6692 6.15984 1.04697
93 1 4 -0.601179 24.6974 14.2591 11.9641
94 1 4 -0.601179 11.8345 6.83267 2.95001
95 1 4 -0.60118 28.9351 18.0514 9.45555
96 1 4 -0.60118 7.59682 3.04037 5.45857
97 1 4 -0.601179 30.1005 16.0329 9.45555
98 1 4 -0.601179 6.43145 5.05885 5.45857
99 1 4 -0.601179 24.6974 16.0329 9.45555
100 1 4 -0.601179 11.8345 5.05885 5.45857
101 1 4 -0.60118 25.8628 18.0514 9.45555
102 1 4 -0.60118 10.6692 3.04037 5.45857
103 1 4 -0.60118 28.9351 14.9319 13.8671
104 1 4 -0.60118 7.59682 6.15984 1.04697
105 1 4 -0.60118 30.1005 14.2591 11.9641
106 1 4 -0.60118 6.43145 6.83267 2.95001
122 7 5 -0.35 21.0611 4.84561 10.8113
123 7 6 0.7 20.0437 5.0237 10.2834
124 7 5 -0.35 19.0263 5.20179 9.75538
125 8 5 -0.35 9.85835 5.56854 11.2588
126 8 6 0.7 10.0623 6.70711 11.1712
127 8 5 -0.35 10.2662 7.84568 11.0837
ITEM: TIMESTEP
92000
ITEM: NUMBER OF ATOMS
106
ITEM: BOX BOUNDS xy xz yz pp pp pp
0.0000000000000000e+00 3.6531964750000000e+01 9.1329911900000003e+00
0.0000000000000000e+00 2.1091739680000000e+01 9.1329911900000003e+00
0.0000000000000000e+00 1.4914112149999999e+01 5.2729349200000000e+00
ITEM: ATOMS id mol type q x y z
1 1 1 1.10383 27.399 17.6496 10.5383
2 1 1 1.10383 9.13299 3.44217 4.3758
3 1 1 1.10383 27.399 15.8188 13.1274
4 1 1 1.10383 9.13299 5.27293 1.78671
5 1 1 1.10383 25.8135 14.9034 10.5383
6 1 1 1.10383 10.7185 6.18832 4.3758
7 1 1 1.10383 28.9845 14.9034 10.5383
8 1 1 1.10383 7.5475 6.18832 4.3758
9 1 2 0.115889 18.266 5.48596 12.6084
10 1 2 0.115889 18.266 15.6058 2.30572
11 1 2 0.115888 18.266 13.716 0.969417
12 1 2 0.115888 18.266 7.37578 13.9447
13 1 2 0.11589 25.3934 11.4908 8.12521
14 1 2 0.11589 11.1386 9.60096 6.7889
15 1 2 0.115888 11.1386 11.4908 8.12521
16 1 2 0.115888 25.3934 9.60096 6.7889
17 1 2 0.115889 15.5206 8.96083 0.969417
18 1 2 0.115889 21.0114 12.1309 13.9447
19 1 2 0.115888 22.648 13.0758 12.6084
20 1 2 0.115888 13.884 8.01592 2.30572
21 1 2 0.115889 21.0114 3.90092 8.12521
22 1 2 0.115889 15.5206 17.1908 6.7889
23 1 2 0.115887 13.884 16.2459 8.12521
24 1 2 0.115887 22.648 4.84583 6.7889
25 1 2 0.115889 22.648 16.2459 8.12521
26 1 2 0.115889 13.884 4.84583 6.7889
27 1 2 0.115887 15.5206 3.90092 8.12521
28 1 2 0.115887 21.0114 17.1908 6.7889
29 1 2 0.115889 21.0114 8.96083 0.969417
30 1 2 0.115889 15.5206 12.1309 13.9447
31 1 2 0.115887 13.884 13.0758 12.6084
32 1 2 0.115887 22.648 8.01592 2.30572
33 1 3 0.671939 27.399 18.7442 13.2542
34 1 3 0.671939 9.13299 2.34751 1.65994
35 1 3 0.671939 27.399 12.8934 9.117
36 1 3 0.671939 9.13299 8.19836 5.79712
37 1 3 0.67194 24.8655 14.3561 13.2542
38 1 3 0.67194 11.6665 6.73565 1.65994
39 1 3 0.67194 29.9325 17.2815 9.117
40 1 3 0.67194 6.5995 3.81022 5.79712
41 1 3 0.67194 24.8655 17.2815 9.117
42 1 3 0.67194 11.6665 3.81022 5.79712
43 1 3 0.67194 29.9325 14.3561 13.2542
44 1 3 0.67194 6.5995 6.73565 1.65994
45 1 3 -0.11508 27.399 19.957 14.1117
46 1 3 -0.11508 9.13299 1.13474 0.802379
47 1 3 -0.11508 27.399 11.6806 8.25944
48 1 3 -0.11508 9.13299 9.41113 6.65468
49 1 3 -0.11508 23.8152 13.7497 14.1117
50 1 3 -0.11508 12.7168 7.34203 0.802379
51 1 3 -0.11508 30.9828 17.8879 8.25944
52 1 3 -0.11508 5.54921 3.20384 6.65468
53 1 3 -0.11508 23.8152 17.8879 8.25944
54 1 3 -0.11508 12.7168 3.20384 6.65468
55 1 3 -0.11508 30.9828 13.7497 14.1117
56 1 3 -0.11508 5.54921 7.34203 0.802379
57 1 3 -0.0559 18.266 5.39949 13.5316
58 1 3 -0.0559 18.266 15.6923 1.38254
59 1 3 -0.055903 18.266 14.5575 0.580159
60 1 3 -0.055903 18.266 6.53422 14.334
61 1 3 -0.0559 26.1971 11.1132 7.85825
62 1 3 -0.0559 10.3349 9.9785 7.05587
63 1 3 -0.055903 10.3349 11.1132 7.85825
64 1 3 -0.055903 26.1971 9.9785 7.05587
65 1 3 -0.0559 14.7918 8.54005 0.580159
66 1 3 -0.0559 21.7402 12.5517 14.334
67 1 3 -0.055903 22.7229 13.1191 13.5316
68 1 3 -0.055903 13.8091 7.97268 1.38254
69 1 3 -0.0559 21.7402 3.39366 7.85825
70 1 3 -0.0559 14.7918 17.6981 7.05587
71 1 3 -0.055903 13.8091 17.1307 7.85825
72 1 3 -0.055903 22.7229 3.96103 7.05587
73 1 3 -0.055901 22.7229 17.1307 7.85825
74 1 3 -0.055901 13.8091 3.96103 7.05587
75 1 3 -0.055903 14.7918 3.39366 7.85825
76 1 3 -0.055903 21.7402 17.6981 7.05587
77 1 3 -0.0559 21.7402 8.54005 0.580159
78 1 3 -0.0559 14.7918 12.5517 14.334
79 1 3 -0.055903 13.8091 13.1191 13.5316
80 1 3 -0.055903 22.7229 7.97268 1.38254
81 1 4 -1.26215 27.399 15.8188 11.1856
82 1 4 -1.26215 9.13299 5.27293 3.72853
83 1 4 -0.60118 27.399 18.9383 11.9641
84 1 4 -0.60118 9.13299 2.15347 2.95001
85 1 4 -0.601179 27.399 17.5926 13.8671
86 1 4 -0.601179 9.13299 3.49912 1.04697
87 1 4 -0.601179 26.2336 13.3722 9.45555
88 1 4 -0.601179 10.2984 7.71958 5.45857
89 1 4 -0.60118 28.5643 13.3722 9.45555
90 1 4 -0.60118 7.96762 7.71958 5.45857
91 1 4 -0.60118 25.8628 14.9319 13.8671
92 1 4 -0.60118 10.6692 6.15984 1.04697
93 1 4 -0.601179 24.6974 14.2591 11.9641
94 1 4 -0.601179 11.8345 6.83267 2.95001
95 1 4 -0.60118 28.9351 18.0514 9.45555
96 1 4 -0.60118 7.59682 3.04037 5.45857
97 1 4 -0.601179 30.1005 16.0329 9.45555
98 1 4 -0.601179 6.43145 5.05885 5.45857
99 1 4 -0.601179 24.6974 16.0329 9.45555
100 1 4 -0.601179 11.8345 5.05885 5.45857
101 1 4 -0.60118 25.8628 18.0514 9.45555
102 1 4 -0.60118 10.6692 3.04037 5.45857
103 1 4 -0.60118 28.9351 14.9319 13.8671
104 1 4 -0.60118 7.59682 6.15984 1.04697
105 1 4 -0.60118 30.1005 14.2591 11.9641
106 1 4 -0.60118 6.43145 6.83267 2.95001
ITEM: TIMESTEP
93000
ITEM: NUMBER OF ATOMS
109
ITEM: BOX BOUNDS xy xz yz pp pp pp
0.0000000000000000e+00 3.6531964750000000e+01 9.1329911900000003e+00
0.0000000000000000e+00 2.1091739680000000e+01 9.1329911900000003e+00
0.0000000000000000e+00 1.4914112149999999e+01 5.2729349200000000e+00
ITEM: ATOMS id mol type q x y z
1 1 1 1.10383 27.399 17.6496 10.5383
2 1 1 1.10383 9.13299 3.44217 4.3758
3 1 1 1.10383 27.399 15.8188 13.1274
4 1 1 1.10383 9.13299 5.27293 1.78671
5 1 1 1.10383 25.8135 14.9034 10.5383
6 1 1 1.10383 10.7185 6.18832 4.3758
7 1 1 1.10383 28.9845 14.9034 10.5383
8 1 1 1.10383 7.5475 6.18832 4.3758
9 1 2 0.115889 18.266 5.48596 12.6084
10 1 2 0.115889 18.266 15.6058 2.30572
11 1 2 0.115888 18.266 13.716 0.969417
12 1 2 0.115888 18.266 7.37578 13.9447
13 1 2 0.11589 25.3934 11.4908 8.12521
14 1 2 0.11589 11.1386 9.60096 6.7889
15 1 2 0.115888 11.1386 11.4908 8.12521
16 1 2 0.115888 25.3934 9.60096 6.7889
17 1 2 0.115889 15.5206 8.96083 0.969417
18 1 2 0.115889 21.0114 12.1309 13.9447
19 1 2 0.115888 22.648 13.0758 12.6084
20 1 2 0.115888 13.884 8.01592 2.30572
21 1 2 0.115889 21.0114 3.90092 8.12521
22 1 2 0.115889 15.5206 17.1908 6.7889
23 1 2 0.115887 13.884 16.2459 8.12521
24 1 2 0.115887 22.648 4.84583 6.7889
25 1 2 0.115889 22.648 16.2459 8.12521
26 1 2 0.115889 13.884 4.84583 6.7889
27 1 2 0.115887 15.5206 3.90092 8.12521
28 1 2 0.115887 21.0114 17.1908 6.7889
29 1 2 0.115889 21.0114 8.96083 0.969417
30 1 2 0.115889 15.5206 12.1309 13.9447
31 1 2 0.115887 13.884 13.0758 12.6084
32 1 2 0.115887 22.648 8.01592 2.30572
33 1 3 0.671939 27.399 18.7442 13.2542
34 1 3 0.671939 9.13299 2.34751 1.65994
35 1 3 0.671939 27.399 12.8934 9.117
36 1 3 0.671939 9.13299 8.19836 5.79712
37 1 3 0.67194 24.8655 14.3561 13.2542
38 1 3 0.67194 11.6665 6.73565 1.65994
39 1 3 0.67194 29.9325 17.2815 9.117
40 1 3 0.67194 6.5995 3.81022 5.79712
41 1 3 0.67194 24.8655 17.2815 9.117
42 1 3 0.67194 11.6665 3.81022 5.79712
43 1 3 0.67194 29.9325 14.3561 13.2542
44 1 3 0.67194 6.5995 6.73565 1.65994
45 1 3 -0.11508 27.399 19.957 14.1117
46 1 3 -0.11508 9.13299 1.13474 0.802379
47 1 3 -0.11508 27.399 11.6806 8.25944
48 1 3 -0.11508 9.13299 9.41113 6.65468
49 1 3 -0.11508 23.8152 13.7497 14.1117
50 1 3 -0.11508 12.7168 7.34203 0.802379
51 1 3 -0.11508 30.9828 17.8879 8.25944
52 1 3 -0.11508 5.54921 3.20384 6.65468
53 1 3 -0.11508 23.8152 17.8879 8.25944
54 1 3 -0.11508 12.7168 3.20384 6.65468
55 1 3 -0.11508 30.9828 13.7497 14.1117
56 1 3 -0.11508 5.54921 7.34203 0.802379
57 1 3 -0.0559 18.266 5.39949 13.5316
58 1 3 -0.0559 18.266 15.6923 1.38254
59 1 3 -0.055903 18.266 14.5575 0.580159
60 1 3 -0.055903 18.266 6.53422 14.334
61 1 3 -0.0559 26.1971 11.1132 7.85825
62 1 3 -0.0559 10.3349 9.9785 7.05587
63 1 3 -0.055903 10.3349 11.1132 7.85825
64 1 3 -0.055903 26.1971 9.9785 7.05587
65 1 3 -0.0559 14.7918 8.54005 0.580159
66 1 3 -0.0559 21.7402 12.5517 14.334
67 1 3 -0.055903 22.7229 13.1191 13.5316
68 1 3 -0.055903 13.8091 7.97268 1.38254
69 1 3 -0.0559 21.7402 3.39366 7.85825
70 1 3 -0.0559 14.7918 17.6981 7.05587
71 1 3 -0.055903 13.8091 17.1307 7.85825
72 1 3 -0.055903 22.7229 3.96103 7.05587
73 1 3 -0.055901 22.7229 17.1307 7.85825
74 1 3 -0.055901 13.8091 3.96103 7.05587
75 1 3 -0.055903 14.7918 3.39366 7.85825
76 1 3 -0.055903 21.7402 17.6981 7.05587
77 1 3 -0.0559 21.7402 8.54005 0.580159
78 1 3 -0.0559 14.7918 12.5517 14.334
79 1 3 -0.055903 13.8091 13.1191 13.5316
80 1 3 -0.055903 22.7229 7.97268 1.38254
81 1 4 -1.26215 27.399 15.8188 11.1856
82 1 4 -1.26215 9.13299 5.27293 3.72853
83 1 4 -0.60118 27.399 18.9383 11.9641
84 1 4 -0.60118 9.13299 2.15347 2.95001
85 1 4 -0.601179 27.399 17.5926 13.8671
86 1 4 -0.601179 9.13299 3.49912 1.04697
87 1 4 -0.601179 26.2336 13.3722 9.45555
88 1 4 -0.601179 10.2984 7.71958 5.45857
89 1 4 -0.60118 28.5643 13.3722 9.45555
90 1 4 -0.60118 7.96762 7.71958 5.45857
91 1 4 -0.60118 25.8628 14.9319 13.8671
92 1 4 -0.60118 10.6692 6.15984 1.04697
93 1 4 -0.601179 24.6974 14.2591 11.9641
94 1 4 -0.601179 11.8345 6.83267 2.95001
95 1 4 -0.60118 28.9351 18.0514 9.45555
96 1 4 -0.60118 7.59682 3.04037 5.45857
97 1 4 -0.601179 30.1005 16.0329 9.45555
98 1 4 -0.601179 6.43145 5.05885 5.45857
99 1 4 -0.601179 24.6974 16.0329 9.45555
100 1 4 -0.601179 11.8345 5.05885 5.45857
101 1 4 -0.60118 25.8628 18.0514 9.45555
102 1 4 -0.60118 10.6692 3.04037 5.45857
103 1 4 -0.60118 28.9351 14.9319 13.8671
104 1 4 -0.60118 7.59682 6.15984 1.04697
105 1 4 -0.60118 30.1005 14.2591 11.9641
106 1 4 -0.60118 6.43145 6.83267 2.95001
110 3 5 -0.35 18.2042 13.6606 7.3354
111 3 6 0.7 18.1175 13.6166 6.17948
112 3 5 -0.35 18.0309 13.5725 5.02356
ITEM: TIMESTEP
94000
ITEM: NUMBER OF ATOMS
124
ITEM: BOX BOUNDS xy xz yz pp pp pp
0.0000000000000000e+00 3.6531964750000000e+01 9.1329911900000003e+00
0.0000000000000000e+00 2.1091739680000000e+01 9.1329911900000003e+00
0.0000000000000000e+00 1.4914112149999999e+01 5.2729349200000000e+00
ITEM: ATOMS id mol type q x y z
1 1 1 1.10383 27.399 17.6496 10.5383
2 1 1 1.10383 9.13299 3.44217 4.3758
3 1 1 1.10383 27.399 15.8188 13.1274
4 1 1 1.10383 9.13299 5.27293 1.78671
5 1 1 1.10383 25.8135 14.9034 10.5383
6 1 1 1.10383 10.7185 6.18832 4.3758
7 1 1 1.10383 28.9845 14.9034 10.5383
8 1 1 1.10383 7.5475 6.18832 4.3758
9 1 2 0.115889 18.266 5.48596 12.6084
10 1 2 0.115889 18.266 15.6058 2.30572
11 1 2 0.115888 18.266 13.716 0.969417
12 1 2 0.115888 18.266 7.37578 13.9447
13 1 2 0.11589 25.3934 11.4908 8.12521
14 1 2 0.11589 11.1386 9.60096 6.7889
15 1 2 0.115888 11.1386 11.4908 8.12521
16 1 2 0.115888 25.3934 9.60096 6.7889
17 1 2 0.115889 15.5206 8.96083 0.969417
18 1 2 0.115889 21.0114 12.1309 13.9447
19 1 2 0.115888 22.648 13.0758 12.6084
20 1 2 0.115888 13.884 8.01592 2.30572
21 1 2 0.115889 21.0114 3.90092 8.12521
22 1 2 0.115889 15.5206 17.1908 6.7889
23 1 2 0.115887 13.884 16.2459 8.12521
24 1 2 0.115887 22.648 4.84583 6.7889
25 1 2 0.115889 22.648 16.2459 8.12521
26 1 2 0.115889 13.884 4.84583 6.7889
27 1 2 0.115887 15.5206 3.90092 8.12521
28 1 2 0.115887 21.0114 17.1908 6.7889
29 1 2 0.115889 21.0114 8.96083 0.969417
30 1 2 0.115889 15.5206 12.1309 13.9447
31 1 2 0.115887 13.884 13.0758 12.6084
32 1 2 0.115887 22.648 8.01592 2.30572
33 1 3 0.671939 27.399 18.7442 13.2542
34 1 3 0.671939 9.13299 2.34751 1.65994
35 1 3 0.671939 27.399 12.8934 9.117
36 1 3 0.671939 9.13299 8.19836 5.79712
37 1 3 0.67194 24.8655 14.3561 13.2542
38 1 3 0.67194 11.6665 6.73565 1.65994
39 1 3 0.67194 29.9325 17.2815 9.117
40 1 3 0.67194 6.5995 3.81022 5.79712
41 1 3 0.67194 24.8655 17.2815 9.117
42 1 3 0.67194 11.6665 3.81022 5.79712
43 1 3 0.67194 29.9325 14.3561 13.2542
44 1 3 0.67194 6.5995 6.73565 1.65994
45 1 3 -0.11508 27.399 19.957 14.1117
46 1 3 -0.11508 9.13299 1.13474 0.802379
47 1 3 -0.11508 27.399 11.6806 8.25944
48 1 3 -0.11508 9.13299 9.41113 6.65468
49 1 3 -0.11508 23.8152 13.7497 14.1117
50 1 3 -0.11508 12.7168 7.34203 0.802379
51 1 3 -0.11508 30.9828 17.8879 8.25944
52 1 3 -0.11508 5.54921 3.20384 6.65468
53 1 3 -0.11508 23.8152 17.8879 8.25944
54 1 3 -0.11508 12.7168 3.20384 6.65468
55 1 3 -0.11508 30.9828 13.7497 14.1117
56 1 3 -0.11508 5.54921 7.34203 0.802379
57 1 3 -0.0559 18.266 5.39949 13.5316
58 1 3 -0.0559 18.266 15.6923 1.38254
59 1 3 -0.055903 18.266 14.5575 0.580159
60 1 3 -0.055903 18.266 6.53422 14.334
61 1 3 -0.0559 26.1971 11.1132 7.85825
62 1 3 -0.0559 10.3349 9.9785 7.05587
63 1 3 -0.055903 10.3349 11.1132 7.85825
64 1 3 -0.055903 26.1971 9.9785 7.05587
65 1 3 -0.0559 14.7918 8.54005 0.580159
66 1 3 -0.0559 21.7402 12.5517 14.334
67 1 3 -0.055903 22.7229 13.1191 13.5316
68 1 3 -0.055903 13.8091 7.97268 1.38254
69 1 3 -0.0559 21.7402 3.39366 7.85825
70 1 3 -0.0559 14.7918 17.6981 7.05587
71 1 3 -0.055903 13.8091 17.1307 7.85825
72 1 3 -0.055903 22.7229 3.96103 7.05587
73 1 3 -0.055901 22.7229 17.1307 7.85825
74 1 3 -0.055901 13.8091 3.96103 7.05587
75 1 3 -0.055903 14.7918 3.39366 7.85825
76 1 3 -0.055903 21.7402 17.6981 7.05587
77 1 3 -0.0559 21.7402 8.54005 0.580159
78 1 3 -0.0559 14.7918 12.5517 14.334
79 1 3 -0.055903 13.8091 13.1191 13.5316
80 1 3 -0.055903 22.7229 7.97268 1.38254
81 1 4 -1.26215 27.399 15.8188 11.1856
82 1 4 -1.26215 9.13299 5.27293 3.72853
83 1 4 -0.60118 27.399 18.9383 11.9641
84 1 4 -0.60118 9.13299 2.15347 2.95001
85 1 4 -0.601179 27.399 17.5926 13.8671
86 1 4 -0.601179 9.13299 3.49912 1.04697
87 1 4 -0.601179 26.2336 13.3722 9.45555
88 1 4 -0.601179 10.2984 7.71958 5.45857
89 1 4 -0.60118 28.5643 13.3722 9.45555
90 1 4 -0.60118 7.96762 7.71958 5.45857
91 1 4 -0.60118 25.8628 14.9319 13.8671
92 1 4 -0.60118 10.6692 6.15984 1.04697
93 1 4 -0.601179 24.6974 14.2591 11.9641
94 1 4 -0.601179 11.8345 6.83267 2.95001
95 1 4 -0.60118 28.9351 18.0514 9.45555
96 1 4 -0.60118 7.59682 3.04037 5.45857
97 1 4 -0.601179 30.1005 16.0329 9.45555
98 1 4 -0.601179 6.43145 5.05885 5.45857
99 1 4 -0.601179 24.6974 16.0329 9.45555
100 1 4 -0.601179 11.8345 5.05885 5.45857
101 1 4 -0.60118 25.8628 18.0514 9.45555
102 1 4 -0.60118 10.6692 3.04037 5.45857
103 1 4 -0.60118 28.9351 14.9319 13.8671
104 1 4 -0.60118 7.59682 6.15984 1.04697
105 1 4 -0.60118 30.1005 14.2591 11.9641
106 1 4 -0.60118 6.43145 6.83267 2.95001
116 5 5 -0.35 32.1466 18.7518 12.8074
117 5 6 0.7 31.2593 18.0172 12.6705
118 5 5 -0.35 30.372 17.2827 12.5336
122 7 5 -0.35 12.2958 8.87985 11.4862
123 7 6 0.7 12.5459 9.99253 11.2741
124 7 5 -0.35 12.7959 11.1052 11.062
128 9 5 -0.35 20.8505 11.2203 6.34583
129 9 6 0.7 21.265 10.4218 5.61355
130 9 5 -0.35 21.6795 9.62333 4.88128
131 10 5 -0.35 11.3823 8.21321 14.8707
132 10 6 0.7 3.06286 2.26022 0.426957
133 10 5 -0.35 3.87642 1.58016 0.897326
134 11 5 -0.35 26.5832 9.65923 11.9945
135 11 6 0.7 26.3101 8.58826 12.3468
136 11 5 -0.35 26.037 7.51729 12.699
137 12 5 -0.35 13.9713 5.01163 13.8692
138 12 6 0.7 23.4493 19.8903 13.2838
139 12 5 -0.35 23.7943 18.9501 12.6984
ITEM: TIMESTEP
95000
ITEM: NUMBER OF ATOMS
115
ITEM: BOX BOUNDS xy xz yz pp pp pp
0.0000000000000000e+00 3.6531964750000000e+01 9.1329911900000003e+00
0.0000000000000000e+00 2.1091739680000000e+01 9.1329911900000003e+00
0.0000000000000000e+00 1.4914112149999999e+01 5.2729349200000000e+00
ITEM: ATOMS id mol type q x y z
1 1 1 1.10383 27.399 17.6496 10.5383
2 1 1 1.10383 9.13299 3.44217 4.3758
3 1 1 1.10383 27.399 15.8188 13.1274
4 1 1 1.10383 9.13299 5.27293 1.78671
5 1 1 1.10383 25.8135 14.9034 10.5383
6 1 1 1.10383 10.7185 6.18832 4.3758
7 1 1 1.10383 28.9845 14.9034 10.5383
8 1 1 1.10383 7.5475 6.18832 4.3758
9 1 2 0.115889 18.266 5.48596 12.6084
10 1 2 0.115889 18.266 15.6058 2.30572
11 1 2 0.115888 18.266 13.716 0.969417
12 1 2 0.115888 18.266 7.37578 13.9447
13 1 2 0.11589 25.3934 11.4908 8.12521
14 1 2 0.11589 11.1386 9.60096 6.7889
15 1 2 0.115888 11.1386 11.4908 8.12521
16 1 2 0.115888 25.3934 9.60096 6.7889
17 1 2 0.115889 15.5206 8.96083 0.969417
18 1 2 0.115889 21.0114 12.1309 13.9447
19 1 2 0.115888 22.648 13.0758 12.6084
20 1 2 0.115888 13.884 8.01592 2.30572
21 1 2 0.115889 21.0114 3.90092 8.12521
22 1 2 0.115889 15.5206 17.1908 6.7889
23 1 2 0.115887 13.884 16.2459 8.12521
24 1 2 0.115887 22.648 4.84583 6.7889
25 1 2 0.115889 22.648 16.2459 8.12521
26 1 2 0.115889 13.884 4.84583 6.7889
27 1 2 0.115887 15.5206 3.90092 8.12521
28 1 2 0.115887 21.0114 17.1908 6.7889
29 1 2 0.115889 21.0114 8.96083 0.969417
30 1 2 0.115889 15.5206 12.1309 13.9447
31 1 2 0.115887 13.884 13.0758 12.6084
32 1 2 0.115887 22.648 8.01592 2.30572
33 1 3 0.671939 27.399 18.7442 13.2542
34 1 3 0.671939 9.13299 2.34751 1.65994
35 1 3 0.671939 27.399 12.8934 9.117
36 1 3 0.671939 9.13299 8.19836 5.79712
37 1 3 0.67194 24.8655 14.3561 13.2542
38 1 3 0.67194 11.6665 6.73565 1.65994
39 1 3 0.67194 29.9325 17.2815 9.117
40 1 3 0.67194 6.5995 3.81022 5.79712
41 1 3 0.67194 24.8655 17.2815 9.117
42 1 3 0.67194 11.6665 3.81022 5.79712
43 1 3 0.67194 29.9325 14.3561 13.2542
44 1 3 0.67194 6.5995 6.73565 1.65994
45 1 3 -0.11508 27.399 19.957 14.1117
46 1 3 -0.11508 9.13299 1.13474 0.802379
47 1 3 -0.11508 27.399 11.6806 8.25944
48 1 3 -0.11508 9.13299 9.41113 6.65468
49 1 3 -0.11508 23.8152 13.7497 14.1117
50 1 3 -0.11508 12.7168 7.34203 0.802379
51 1 3 -0.11508 30.9828 17.8879 8.25944
52 1 3 -0.11508 5.54921 3.20384 6.65468
53 1 3 -0.11508 23.8152 17.8879 8.25944
54 1 3 -0.11508 12.7168 3.20384 6.65468
55 1 3 -0.11508 30.9828 13.7497 14.1117
56 1 3 -0.11508 5.54921 7.34203 0.802379
57 1 3 -0.0559 18.266 5.39949 13.5316
58 1 3 -0.0559 18.266 15.6923 1.38254
59 1 3 -0.055903 18.266 14.5575 0.580159
60 1 3 -0.055903 18.266 6.53422 14.334
61 1 3 -0.0559 26.1971 11.1132 7.85825
62 1 3 -0.0559 10.3349 9.9785 7.05587
63 1 3 -0.055903 10.3349 11.1132 7.85825
64 1 3 -0.055903 26.1971 9.9785 7.05587
65 1 3 -0.0559 14.7918 8.54005 0.580159
66 1 3 -0.0559 21.7402 12.5517 14.334
67 1 3 -0.055903 22.7229 13.1191 13.5316
68 1 3 -0.055903 13.8091 7.97268 1.38254
69 1 3 -0.0559 21.7402 3.39366 7.85825
70 1 3 -0.0559 14.7918 17.6981 7.05587
71 1 3 -0.055903 13.8091 17.1307 7.85825
72 1 3 -0.055903 22.7229 3.96103 7.05587
73 1 3 -0.055901 22.7229 17.1307 7.85825
74 1 3 -0.055901 13.8091 3.96103 7.05587
75 1 3 -0.055903 14.7918 3.39366 7.85825
76 1 3 -0.055903 21.7402 17.6981 7.05587
77 1 3 -0.0559 21.7402 8.54005 0.580159
78 1 3 -0.0559 14.7918 12.5517 14.334
79 1 3 -0.055903 13.8091 13.1191 13.5316
80 1 3 -0.055903 22.7229 7.97268 1.38254
81 1 4 -1.26215 27.399 15.8188 11.1856
82 1 4 -1.26215 9.13299 5.27293 3.72853
83 1 4 -0.60118 27.399 18.9383 11.9641
84 1 4 -0.60118 9.13299 2.15347 2.95001
85 1 4 -0.601179 27.399 17.5926 13.8671
86 1 4 -0.601179 9.13299 3.49912 1.04697
87 1 4 -0.601179 26.2336 13.3722 9.45555
88 1 4 -0.601179 10.2984 7.71958 5.45857
89 1 4 -0.60118 28.5643 13.3722 9.45555
90 1 4 -0.60118 7.96762 7.71958 5.45857
91 1 4 -0.60118 25.8628 14.9319 13.8671
92 1 4 -0.60118 10.6692 6.15984 1.04697
93 1 4 -0.601179 24.6974 14.2591 11.9641
94 1 4 -0.601179 11.8345 6.83267 2.95001
95 1 4 -0.60118 28.9351 18.0514 9.45555
96 1 4 -0.60118 7.59682 3.04037 5.45857
97 1 4 -0.601179 30.1005 16.0329 9.45555
98 1 4 -0.601179 6.43145 5.05885 5.45857
99 1 4 -0.601179 24.6974 16.0329 9.45555
100 1 4 -0.601179 11.8345 5.05885 5.45857
101 1 4 -0.60118 25.8628 18.0514 9.45555
102 1 4 -0.60118 10.6692 3.04037 5.45857
103 1 4 -0.60118 28.9351 14.9319 13.8671
104 1 4 -0.60118 7.59682 6.15984 1.04697
105 1 4 -0.60118 30.1005 14.2591 11.9641
106 1 4 -0.60118 6.43145 6.83267 2.95001
107 2 5 -0.35 21.1838 5.28357 2.65878
108 2 6 0.7 21.35 4.79867 1.61819
109 2 5 -0.35 3.25031 4.31377 0.577593
110 3 5 -0.35 25.4108 15.2337 5.55527
111 3 6 0.7 24.6051 16.0042 5.23465
112 3 5 -0.35 23.7995 16.7747 4.91403
113 4 5 -0.35 9.72729 5.66497 11.1139
114 4 6 0.7 9.40495 6.30497 10.2017
115 4 5 -0.35 9.08261 6.94496 9.28947
ITEM: TIMESTEP
96000
ITEM: NUMBER OF ATOMS
109
ITEM: BOX BOUNDS xy xz yz pp pp pp
0.0000000000000000e+00 3.6531964750000000e+01 9.1329911900000003e+00
0.0000000000000000e+00 2.1091739680000000e+01 9.1329911900000003e+00
0.0000000000000000e+00 1.4914112149999999e+01 5.2729349200000000e+00
ITEM: ATOMS id mol type q x y z
1 1 1 1.10383 27.399 17.6496 10.5383
2 1 1 1.10383 9.13299 3.44217 4.3758
3 1 1 1.10383 27.399 15.8188 13.1274
4 1 1 1.10383 9.13299 5.27293 1.78671
5 1 1 1.10383 25.8135 14.9034 10.5383
6 1 1 1.10383 10.7185 6.18832 4.3758
7 1 1 1.10383 28.9845 14.9034 10.5383
8 1 1 1.10383 7.5475 6.18832 4.3758
9 1 2 0.115889 18.266 5.48596 12.6084
10 1 2 0.115889 18.266 15.6058 2.30572
11 1 2 0.115888 18.266 13.716 0.969417
12 1 2 0.115888 18.266 7.37578 13.9447
13 1 2 0.11589 25.3934 11.4908 8.12521
14 1 2 0.11589 11.1386 9.60096 6.7889
15 1 2 0.115888 11.1386 11.4908 8.12521
16 1 2 0.115888 25.3934 9.60096 6.7889
17 1 2 0.115889 15.5206 8.96083 0.969417
18 1 2 0.115889 21.0114 12.1309 13.9447
19 1 2 0.115888 22.648 13.0758 12.6084
20 1 2 0.115888 13.884 8.01592 2.30572
21 1 2 0.115889 21.0114 3.90092 8.12521
22 1 2 0.115889 15.5206 17.1908 6.7889
23 1 2 0.115887 13.884 16.2459 8.12521
24 1 2 0.115887 22.648 4.84583 6.7889
25 1 2 0.115889 22.648 16.2459 8.12521
26 1 2 0.115889 13.884 4.84583 6.7889
27 1 2 0.115887 15.5206 3.90092 8.12521
28 1 2 0.115887 21.0114 17.1908 6.7889
29 1 2 0.115889 21.0114 8.96083 0.969417
30 1 2 0.115889 15.5206 12.1309 13.9447
31 1 2 0.115887 13.884 13.0758 12.6084
32 1 2 0.115887 22.648 8.01592 2.30572
33 1 3 0.671939 27.399 18.7442 13.2542
34 1 3 0.671939 9.13299 2.34751 1.65994
35 1 3 0.671939 27.399 12.8934 9.117
36 1 3 0.671939 9.13299 8.19836 5.79712
37 1 3 0.67194 24.8655 14.3561 13.2542
38 1 3 0.67194 11.6665 6.73565 1.65994
39 1 3 0.67194 29.9325 17.2815 9.117
40 1 3 0.67194 6.5995 3.81022 5.79712
41 1 3 0.67194 24.8655 17.2815 9.117
42 1 3 0.67194 11.6665 3.81022 5.79712
43 1 3 0.67194 29.9325 14.3561 13.2542
44 1 3 0.67194 6.5995 6.73565 1.65994
45 1 3 -0.11508 27.399 19.957 14.1117
46 1 3 -0.11508 9.13299 1.13474 0.802379
47 1 3 -0.11508 27.399 11.6806 8.25944
48 1 3 -0.11508 9.13299 9.41113 6.65468
49 1 3 -0.11508 23.8152 13.7497 14.1117
50 1 3 -0.11508 12.7168 7.34203 0.802379
51 1 3 -0.11508 30.9828 17.8879 8.25944
52 1 3 -0.11508 5.54921 3.20384 6.65468
53 1 3 -0.11508 23.8152 17.8879 8.25944
54 1 3 -0.11508 12.7168 3.20384 6.65468
55 1 3 -0.11508 30.9828 13.7497 14.1117
56 1 3 -0.11508 5.54921 7.34203 0.802379
57 1 3 -0.0559 18.266 5.39949 13.5316
58 1 3 -0.0559 18.266 15.6923 1.38254
59 1 3 -0.055903 18.266 14.5575 0.580159
60 1 3 -0.055903 18.266 6.53422 14.334
61 1 3 -0.0559 26.1971 11.1132 7.85825
62 1 3 -0.0559 10.3349 9.9785 7.05587
63 1 3 -0.055903 10.3349 11.1132 7.85825
64 1 3 -0.055903 26.1971 9.9785 7.05587
65 1 3 -0.0559 14.7918 8.54005 0.580159
66 1 3 -0.0559 21.7402 12.5517 14.334
67 1 3 -0.055903 22.7229 13.1191 13.5316
68 1 3 -0.055903 13.8091 7.97268 1.38254
69 1 3 -0.0559 21.7402 3.39366 7.85825
70 1 3 -0.0559 14.7918 17.6981 7.05587
71 1 3 -0.055903 13.8091 17.1307 7.85825
72 1 3 -0.055903 22.7229 3.96103 7.05587
73 1 3 -0.055901 22.7229 17.1307 7.85825
74 1 3 -0.055901 13.8091 3.96103 7.05587
75 1 3 -0.055903 14.7918 3.39366 7.85825
76 1 3 -0.055903 21.7402 17.6981 7.05587
77 1 3 -0.0559 21.7402 8.54005 0.580159
78 1 3 -0.0559 14.7918 12.5517 14.334
79 1 3 -0.055903 13.8091 13.1191 13.5316
80 1 3 -0.055903 22.7229 7.97268 1.38254
81 1 4 -1.26215 27.399 15.8188 11.1856
82 1 4 -1.26215 9.13299 5.27293 3.72853
83 1 4 -0.60118 27.399 18.9383 11.9641
84 1 4 -0.60118 9.13299 2.15347 2.95001
85 1 4 -0.601179 27.399 17.5926 13.8671
86 1 4 -0.601179 9.13299 3.49912 1.04697
87 1 4 -0.601179 26.2336 13.3722 9.45555
88 1 4 -0.601179 10.2984 7.71958 5.45857
89 1 4 -0.60118 28.5643 13.3722 9.45555
90 1 4 -0.60118 7.96762 7.71958 5.45857
91 1 4 -0.60118 25.8628 14.9319 13.8671
92 1 4 -0.60118 10.6692 6.15984 1.04697
93 1 4 -0.601179 24.6974 14.2591 11.9641
94 1 4 -0.601179 11.8345 6.83267 2.95001
95 1 4 -0.60118 28.9351 18.0514 9.45555
96 1 4 -0.60118 7.59682 3.04037 5.45857
97 1 4 -0.601179 30.1005 16.0329 9.45555
98 1 4 -0.601179 6.43145 5.05885 5.45857
99 1 4 -0.601179 24.6974 16.0329 9.45555
100 1 4 -0.601179 11.8345 5.05885 5.45857
101 1 4 -0.60118 25.8628 18.0514 9.45555
102 1 4 -0.60118 10.6692 3.04037 5.45857
103 1 4 -0.60118 28.9351 14.9319 13.8671
104 1 4 -0.60118 7.59682 6.15984 1.04697
105 1 4 -0.60118 30.1005 14.2591 11.9641
106 1 4 -0.60118 6.43145 6.83267 2.95001
107 2 5 -0.35 23.2821 13.9251 3.0104
108 2 6 0.7 23.6821 13.2037 2.19475
109 2 5 -0.35 24.0821 12.4824 1.37909
ITEM: TIMESTEP
97000
ITEM: NUMBER OF ATOMS
106
ITEM: BOX BOUNDS xy xz yz pp pp pp
0.0000000000000000e+00 3.6531964750000000e+01 9.1329911900000003e+00
0.0000000000000000e+00 2.1091739680000000e+01 9.1329911900000003e+00
0.0000000000000000e+00 1.4914112149999999e+01 5.2729349200000000e+00
ITEM: ATOMS id mol type q x y z
1 1 1 1.10383 27.399 17.6496 10.5383
2 1 1 1.10383 9.13299 3.44217 4.3758
3 1 1 1.10383 27.399 15.8188 13.1274
4 1 1 1.10383 9.13299 5.27293 1.78671
5 1 1 1.10383 25.8135 14.9034 10.5383
6 1 1 1.10383 10.7185 6.18832 4.3758
7 1 1 1.10383 28.9845 14.9034 10.5383
8 1 1 1.10383 7.5475 6.18832 4.3758
9 1 2 0.115889 18.266 5.48596 12.6084
10 1 2 0.115889 18.266 15.6058 2.30572
11 1 2 0.115888 18.266 13.716 0.969417
12 1 2 0.115888 18.266 7.37578 13.9447
13 1 2 0.11589 25.3934 11.4908 8.12521
14 1 2 0.11589 11.1386 9.60096 6.7889
15 1 2 0.115888 11.1386 11.4908 8.12521
16 1 2 0.115888 25.3934 9.60096 6.7889
17 1 2 0.115889 15.5206 8.96083 0.969417
18 1 2 0.115889 21.0114 12.1309 13.9447
19 1 2 0.115888 22.648 13.0758 12.6084
20 1 2 0.115888 13.884 8.01592 2.30572
21 1 2 0.115889 21.0114 3.90092 8.12521
22 1 2 0.115889 15.5206 17.1908 6.7889
23 1 2 0.115887 13.884 16.2459 8.12521
24 1 2 0.115887 22.648 4.84583 6.7889
25 1 2 0.115889 22.648 16.2459 8.12521
26 1 2 0.115889 13.884 4.84583 6.7889
27 1 2 0.115887 15.5206 3.90092 8.12521
28 1 2 0.115887 21.0114 17.1908 6.7889
29 1 2 0.115889 21.0114 8.96083 0.969417
30 1 2 0.115889 15.5206 12.1309 13.9447
31 1 2 0.115887 13.884 13.0758 12.6084
32 1 2 0.115887 22.648 8.01592 2.30572
33 1 3 0.671939 27.399 18.7442 13.2542
34 1 3 0.671939 9.13299 2.34751 1.65994
35 1 3 0.671939 27.399 12.8934 9.117
36 1 3 0.671939 9.13299 8.19836 5.79712
37 1 3 0.67194 24.8655 14.3561 13.2542
38 1 3 0.67194 11.6665 6.73565 1.65994
39 1 3 0.67194 29.9325 17.2815 9.117
40 1 3 0.67194 6.5995 3.81022 5.79712
41 1 3 0.67194 24.8655 17.2815 9.117
42 1 3 0.67194 11.6665 3.81022 5.79712
43 1 3 0.67194 29.9325 14.3561 13.2542
44 1 3 0.67194 6.5995 6.73565 1.65994
45 1 3 -0.11508 27.399 19.957 14.1117
46 1 3 -0.11508 9.13299 1.13474 0.802379
47 1 3 -0.11508 27.399 11.6806 8.25944
48 1 3 -0.11508 9.13299 9.41113 6.65468
49 1 3 -0.11508 23.8152 13.7497 14.1117
50 1 3 -0.11508 12.7168 7.34203 0.802379
51 1 3 -0.11508 30.9828 17.8879 8.25944
52 1 3 -0.11508 5.54921 3.20384 6.65468
53 1 3 -0.11508 23.8152 17.8879 8.25944
54 1 3 -0.11508 12.7168 3.20384 6.65468
55 1 3 -0.11508 30.9828 13.7497 14.1117
56 1 3 -0.11508 5.54921 7.34203 0.802379
57 1 3 -0.0559 18.266 5.39949 13.5316
58 1 3 -0.0559 18.266 15.6923 1.38254
59 1 3 -0.055903 18.266 14.5575 0.580159
60 1 3 -0.055903 18.266 6.53422 14.334
61 1 3 -0.0559 26.1971 11.1132 7.85825
62 1 3 -0.0559 10.3349 9.9785 7.05587
63 1 3 -0.055903 10.3349 11.1132 7.85825
64 1 3 -0.055903 26.1971 9.9785 7.05587
65 1 3 -0.0559 14.7918 8.54005 0.580159
66 1 3 -0.0559 21.7402 12.5517 14.334
67 1 3 -0.055903 22.7229 13.1191 13.5316
68 1 3 -0.055903 13.8091 7.97268 1.38254
69 1 3 -0.0559 21.7402 3.39366 7.85825
70 1 3 -0.0559 14.7918 17.6981 7.05587
71 1 3 -0.055903 13.8091 17.1307 7.85825
72 1 3 -0.055903 22.7229 3.96103 7.05587
73 1 3 -0.055901 22.7229 17.1307 7.85825
74 1 3 -0.055901 13.8091 3.96103 7.05587
75 1 3 -0.055903 14.7918 3.39366 7.85825
76 1 3 -0.055903 21.7402 17.6981 7.05587
77 1 3 -0.0559 21.7402 8.54005 0.580159
78 1 3 -0.0559 14.7918 12.5517 14.334
79 1 3 -0.055903 13.8091 13.1191 13.5316
80 1 3 -0.055903 22.7229 7.97268 1.38254
81 1 4 -1.26215 27.399 15.8188 11.1856
82 1 4 -1.26215 9.13299 5.27293 3.72853
83 1 4 -0.60118 27.399 18.9383 11.9641
84 1 4 -0.60118 9.13299 2.15347 2.95001
85 1 4 -0.601179 27.399 17.5926 13.8671
86 1 4 -0.601179 9.13299 3.49912 1.04697
87 1 4 -0.601179 26.2336 13.3722 9.45555
88 1 4 -0.601179 10.2984 7.71958 5.45857
89 1 4 -0.60118 28.5643 13.3722 9.45555
90 1 4 -0.60118 7.96762 7.71958 5.45857
91 1 4 -0.60118 25.8628 14.9319 13.8671
92 1 4 -0.60118 10.6692 6.15984 1.04697
93 1 4 -0.601179 24.6974 14.2591 11.9641
94 1 4 -0.601179 11.8345 6.83267 2.95001
95 1 4 -0.60118 28.9351 18.0514 9.45555
96 1 4 -0.60118 7.59682 3.04037 5.45857
97 1 4 -0.601179 30.1005 16.0329 9.45555
98 1 4 -0.601179 6.43145 5.05885 5.45857
99 1 4 -0.601179 24.6974 16.0329 9.45555
100 1 4 -0.601179 11.8345 5.05885 5.45857
101 1 4 -0.60118 25.8628 18.0514 9.45555
102 1 4 -0.60118 10.6692 3.04037 5.45857
103 1 4 -0.60118 28.9351 14.9319 13.8671
104 1 4 -0.60118 7.59682 6.15984 1.04697
105 1 4 -0.60118 30.1005 14.2591 11.9641
106 1 4 -0.60118 6.43145 6.83267 2.95001
ITEM: TIMESTEP
98000
ITEM: NUMBER OF ATOMS
112
ITEM: BOX BOUNDS xy xz yz pp pp pp
0.0000000000000000e+00 3.6531964750000000e+01 9.1329911900000003e+00
0.0000000000000000e+00 2.1091739680000000e+01 9.1329911900000003e+00
0.0000000000000000e+00 1.4914112149999999e+01 5.2729349200000000e+00
ITEM: ATOMS id mol type q x y z
1 1 1 1.10383 27.399 17.6496 10.5383
2 1 1 1.10383 9.13299 3.44217 4.3758
3 1 1 1.10383 27.399 15.8188 13.1274
4 1 1 1.10383 9.13299 5.27293 1.78671
5 1 1 1.10383 25.8135 14.9034 10.5383
6 1 1 1.10383 10.7185 6.18832 4.3758
7 1 1 1.10383 28.9845 14.9034 10.5383
8 1 1 1.10383 7.5475 6.18832 4.3758
9 1 2 0.115889 18.266 5.48596 12.6084
10 1 2 0.115889 18.266 15.6058 2.30572
11 1 2 0.115888 18.266 13.716 0.969417
12 1 2 0.115888 18.266 7.37578 13.9447
13 1 2 0.11589 25.3934 11.4908 8.12521
14 1 2 0.11589 11.1386 9.60096 6.7889
15 1 2 0.115888 11.1386 11.4908 8.12521
16 1 2 0.115888 25.3934 9.60096 6.7889
17 1 2 0.115889 15.5206 8.96083 0.969417
18 1 2 0.115889 21.0114 12.1309 13.9447
19 1 2 0.115888 22.648 13.0758 12.6084
20 1 2 0.115888 13.884 8.01592 2.30572
21 1 2 0.115889 21.0114 3.90092 8.12521
22 1 2 0.115889 15.5206 17.1908 6.7889
23 1 2 0.115887 13.884 16.2459 8.12521
24 1 2 0.115887 22.648 4.84583 6.7889
25 1 2 0.115889 22.648 16.2459 8.12521
26 1 2 0.115889 13.884 4.84583 6.7889
27 1 2 0.115887 15.5206 3.90092 8.12521
28 1 2 0.115887 21.0114 17.1908 6.7889
29 1 2 0.115889 21.0114 8.96083 0.969417
30 1 2 0.115889 15.5206 12.1309 13.9447
31 1 2 0.115887 13.884 13.0758 12.6084
32 1 2 0.115887 22.648 8.01592 2.30572
33 1 3 0.671939 27.399 18.7442 13.2542
34 1 3 0.671939 9.13299 2.34751 1.65994
35 1 3 0.671939 27.399 12.8934 9.117
36 1 3 0.671939 9.13299 8.19836 5.79712
37 1 3 0.67194 24.8655 14.3561 13.2542
38 1 3 0.67194 11.6665 6.73565 1.65994
39 1 3 0.67194 29.9325 17.2815 9.117
40 1 3 0.67194 6.5995 3.81022 5.79712
41 1 3 0.67194 24.8655 17.2815 9.117
42 1 3 0.67194 11.6665 3.81022 5.79712
43 1 3 0.67194 29.9325 14.3561 13.2542
44 1 3 0.67194 6.5995 6.73565 1.65994
45 1 3 -0.11508 27.399 19.957 14.1117
46 1 3 -0.11508 9.13299 1.13474 0.802379
47 1 3 -0.11508 27.399 11.6806 8.25944
48 1 3 -0.11508 9.13299 9.41113 6.65468
49 1 3 -0.11508 23.8152 13.7497 14.1117
50 1 3 -0.11508 12.7168 7.34203 0.802379
51 1 3 -0.11508 30.9828 17.8879 8.25944
52 1 3 -0.11508 5.54921 3.20384 6.65468
53 1 3 -0.11508 23.8152 17.8879 8.25944
54 1 3 -0.11508 12.7168 3.20384 6.65468
55 1 3 -0.11508 30.9828 13.7497 14.1117
56 1 3 -0.11508 5.54921 7.34203 0.802379
57 1 3 -0.0559 18.266 5.39949 13.5316
58 1 3 -0.0559 18.266 15.6923 1.38254
59 1 3 -0.055903 18.266 14.5575 0.580159
60 1 3 -0.055903 18.266 6.53422 14.334
61 1 3 -0.0559 26.1971 11.1132 7.85825
62 1 3 -0.0559 10.3349 9.9785 7.05587
63 1 3 -0.055903 10.3349 11.1132 7.85825
64 1 3 -0.055903 26.1971 9.9785 7.05587
65 1 3 -0.0559 14.7918 8.54005 0.580159
66 1 3 -0.0559 21.7402 12.5517 14.334
67 1 3 -0.055903 22.7229 13.1191 13.5316
68 1 3 -0.055903 13.8091 7.97268 1.38254
69 1 3 -0.0559 21.7402 3.39366 7.85825
70 1 3 -0.0559 14.7918 17.6981 7.05587
71 1 3 -0.055903 13.8091 17.1307 7.85825
72 1 3 -0.055903 22.7229 3.96103 7.05587
73 1 3 -0.055901 22.7229 17.1307 7.85825
74 1 3 -0.055901 13.8091 3.96103 7.05587
75 1 3 -0.055903 14.7918 3.39366 7.85825
76 1 3 -0.055903 21.7402 17.6981 7.05587
77 1 3 -0.0559 21.7402 8.54005 0.580159
78 1 3 -0.0559 14.7918 12.5517 14.334
79 1 3 -0.055903 13.8091 13.1191 13.5316
80 1 3 -0.055903 22.7229 7.97268 1.38254
81 1 4 -1.26215 27.399 15.8188 11.1856
82 1 4 -1.26215 9.13299 5.27293 3.72853
83 1 4 -0.60118 27.399 18.9383 11.9641
84 1 4 -0.60118 9.13299 2.15347 2.95001
85 1 4 -0.601179 27.399 17.5926 13.8671
86 1 4 -0.601179 9.13299 3.49912 1.04697
87 1 4 -0.601179 26.2336 13.3722 9.45555
88 1 4 -0.601179 10.2984 7.71958 5.45857
89 1 4 -0.60118 28.5643 13.3722 9.45555
90 1 4 -0.60118 7.96762 7.71958 5.45857
91 1 4 -0.60118 25.8628 14.9319 13.8671
92 1 4 -0.60118 10.6692 6.15984 1.04697
93 1 4 -0.601179 24.6974 14.2591 11.9641
94 1 4 -0.601179 11.8345 6.83267 2.95001
95 1 4 -0.60118 28.9351 18.0514 9.45555
96 1 4 -0.60118 7.59682 3.04037 5.45857
97 1 4 -0.601179 30.1005 16.0329 9.45555
98 1 4 -0.601179 6.43145 5.05885 5.45857
99 1 4 -0.601179 24.6974 16.0329 9.45555
100 1 4 -0.601179 11.8345 5.05885 5.45857
101 1 4 -0.60118 25.8628 18.0514 9.45555
102 1 4 -0.60118 10.6692 3.04037 5.45857
103 1 4 -0.60118 28.9351 14.9319 13.8671
104 1 4 -0.60118 7.59682 6.15984 1.04697
105 1 4 -0.60118 30.1005 14.2591 11.9641
106 1 4 -0.60118 6.43145 6.83267 2.95001
107 2 5 -0.35 15.599 5.19063 12.3185
108 2 6 0.7 14.8156 4.88731 11.5186
109 2 5 -0.35 14.0321 4.584 10.7187
110 3 5 -0.35 12.9636 10.059 13.4654
111 3 6 0.7 13.1071 9.55367 12.4312
112 3 5 -0.35 13.2507 9.04829 11.397
ITEM: TIMESTEP
99000
ITEM: NUMBER OF ATOMS
115
ITEM: BOX BOUNDS xy xz yz pp pp pp
0.0000000000000000e+00 3.6531964750000000e+01 9.1329911900000003e+00
0.0000000000000000e+00 2.1091739680000000e+01 9.1329911900000003e+00
0.0000000000000000e+00 1.4914112149999999e+01 5.2729349200000000e+00
ITEM: ATOMS id mol type q x y z
1 1 1 1.10383 27.399 17.6496 10.5383
2 1 1 1.10383 9.13299 3.44217 4.3758
3 1 1 1.10383 27.399 15.8188 13.1274
4 1 1 1.10383 9.13299 5.27293 1.78671
5 1 1 1.10383 25.8135 14.9034 10.5383
6 1 1 1.10383 10.7185 6.18832 4.3758
7 1 1 1.10383 28.9845 14.9034 10.5383
8 1 1 1.10383 7.5475 6.18832 4.3758
9 1 2 0.115889 18.266 5.48596 12.6084
10 1 2 0.115889 18.266 15.6058 2.30572
11 1 2 0.115888 18.266 13.716 0.969417
12 1 2 0.115888 18.266 7.37578 13.9447
13 1 2 0.11589 25.3934 11.4908 8.12521
14 1 2 0.11589 11.1386 9.60096 6.7889
15 1 2 0.115888 11.1386 11.4908 8.12521
16 1 2 0.115888 25.3934 9.60096 6.7889
17 1 2 0.115889 15.5206 8.96083 0.969417
18 1 2 0.115889 21.0114 12.1309 13.9447
19 1 2 0.115888 22.648 13.0758 12.6084
20 1 2 0.115888 13.884 8.01592 2.30572
21 1 2 0.115889 21.0114 3.90092 8.12521
22 1 2 0.115889 15.5206 17.1908 6.7889
23 1 2 0.115887 13.884 16.2459 8.12521
24 1 2 0.115887 22.648 4.84583 6.7889
25 1 2 0.115889 22.648 16.2459 8.12521
26 1 2 0.115889 13.884 4.84583 6.7889
27 1 2 0.115887 15.5206 3.90092 8.12521
28 1 2 0.115887 21.0114 17.1908 6.7889
29 1 2 0.115889 21.0114 8.96083 0.969417
30 1 2 0.115889 15.5206 12.1309 13.9447
31 1 2 0.115887 13.884 13.0758 12.6084
32 1 2 0.115887 22.648 8.01592 2.30572
33 1 3 0.671939 27.399 18.7442 13.2542
34 1 3 0.671939 9.13299 2.34751 1.65994
35 1 3 0.671939 27.399 12.8934 9.117
36 1 3 0.671939 9.13299 8.19836 5.79712
37 1 3 0.67194 24.8655 14.3561 13.2542
38 1 3 0.67194 11.6665 6.73565 1.65994
39 1 3 0.67194 29.9325 17.2815 9.117
40 1 3 0.67194 6.5995 3.81022 5.79712
41 1 3 0.67194 24.8655 17.2815 9.117
42 1 3 0.67194 11.6665 3.81022 5.79712
43 1 3 0.67194 29.9325 14.3561 13.2542
44 1 3 0.67194 6.5995 6.73565 1.65994
45 1 3 -0.11508 27.399 19.957 14.1117
46 1 3 -0.11508 9.13299 1.13474 0.802379
47 1 3 -0.11508 27.399 11.6806 8.25944
48 1 3 -0.11508 9.13299 9.41113 6.65468
49 1 3 -0.11508 23.8152 13.7497 14.1117
50 1 3 -0.11508 12.7168 7.34203 0.802379
51 1 3 -0.11508 30.9828 17.8879 8.25944
52 1 3 -0.11508 5.54921 3.20384 6.65468
53 1 3 -0.11508 23.8152 17.8879 8.25944
54 1 3 -0.11508 12.7168 3.20384 6.65468
55 1 3 -0.11508 30.9828 13.7497 14.1117
56 1 3 -0.11508 5.54921 7.34203 0.802379
57 1 3 -0.0559 18.266 5.39949 13.5316
58 1 3 -0.0559 18.266 15.6923 1.38254
59 1 3 -0.055903 18.266 14.5575 0.580159
60 1 3 -0.055903 18.266 6.53422 14.334
61 1 3 -0.0559 26.1971 11.1132 7.85825
62 1 3 -0.0559 10.3349 9.9785 7.05587
63 1 3 -0.055903 10.3349 11.1132 7.85825
64 1 3 -0.055903 26.1971 9.9785 7.05587
65 1 3 -0.0559 14.7918 8.54005 0.580159
66 1 3 -0.0559 21.7402 12.5517 14.334
67 1 3 -0.055903 22.7229 13.1191 13.5316
68 1 3 -0.055903 13.8091 7.97268 1.38254
69 1 3 -0.0559 21.7402 3.39366 7.85825
70 1 3 -0.0559 14.7918 17.6981 7.05587
71 1 3 -0.055903 13.8091 17.1307 7.85825
72 1 3 -0.055903 22.7229 3.96103 7.05587
73 1 3 -0.055901 22.7229 17.1307 7.85825
74 1 3 -0.055901 13.8091 3.96103 7.05587
75 1 3 -0.055903 14.7918 3.39366 7.85825
76 1 3 -0.055903 21.7402 17.6981 7.05587
77 1 3 -0.0559 21.7402 8.54005 0.580159
78 1 3 -0.0559 14.7918 12.5517 14.334
79 1 3 -0.055903 13.8091 13.1191 13.5316
80 1 3 -0.055903 22.7229 7.97268 1.38254
81 1 4 -1.26215 27.399 15.8188 11.1856
82 1 4 -1.26215 9.13299 5.27293 3.72853
83 1 4 -0.60118 27.399 18.9383 11.9641
84 1 4 -0.60118 9.13299 2.15347 2.95001
85 1 4 -0.601179 27.399 17.5926 13.8671
86 1 4 -0.601179 9.13299 3.49912 1.04697
87 1 4 -0.601179 26.2336 13.3722 9.45555
88 1 4 -0.601179 10.2984 7.71958 5.45857
89 1 4 -0.60118 28.5643 13.3722 9.45555
90 1 4 -0.60118 7.96762 7.71958 5.45857
91 1 4 -0.60118 25.8628 14.9319 13.8671
92 1 4 -0.60118 10.6692 6.15984 1.04697
93 1 4 -0.601179 24.6974 14.2591 11.9641
94 1 4 -0.601179 11.8345 6.83267 2.95001
95 1 4 -0.60118 28.9351 18.0514 9.45555
96 1 4 -0.60118 7.59682 3.04037 5.45857
97 1 4 -0.601179 30.1005 16.0329 9.45555
98 1 4 -0.601179 6.43145 5.05885 5.45857
99 1 4 -0.601179 24.6974 16.0329 9.45555
100 1 4 -0.601179 11.8345 5.05885 5.45857
101 1 4 -0.60118 25.8628 18.0514 9.45555
102 1 4 -0.60118 10.6692 3.04037 5.45857
103 1 4 -0.60118 28.9351 14.9319 13.8671
104 1 4 -0.60118 7.59682 6.15984 1.04697
105 1 4 -0.60118 30.1005 14.2591 11.9641
106 1 4 -0.60118 6.43145 6.83267 2.95001
113 4 5 -0.35 28.3963 15.4248 6.50783
114 4 6 0.7 28.938 14.4029 6.41954
115 4 5 -0.35 11.2137 13.3809 6.33124
119 6 5 -0.35 23.7851 18.7804 11.6537
120 6 6 0.7 23.8918 19.8676 12.0439
121 6 5 -0.35 14.8654 5.13604 12.434
122 7 5 -0.35 18.0997 14.7438 13.7683
123 7 6 0.7 18.3593 14.7857 12.6385
124 7 5 -0.35 18.6189 14.8276 11.5087
ITEM: TIMESTEP
100000
ITEM: NUMBER OF ATOMS
115
ITEM: BOX BOUNDS xy xz yz pp pp pp
0.0000000000000000e+00 3.6531964750000000e+01 9.1329911900000003e+00
0.0000000000000000e+00 2.1091739680000000e+01 9.1329911900000003e+00
0.0000000000000000e+00 1.4914112149999999e+01 5.2729349200000000e+00
ITEM: ATOMS id mol type q x y z
1 1 1 1.10383 27.399 17.6496 10.5383
2 1 1 1.10383 9.13299 3.44217 4.3758
3 1 1 1.10383 27.399 15.8188 13.1274
4 1 1 1.10383 9.13299 5.27293 1.78671
5 1 1 1.10383 25.8135 14.9034 10.5383
6 1 1 1.10383 10.7185 6.18832 4.3758
7 1 1 1.10383 28.9845 14.9034 10.5383
8 1 1 1.10383 7.5475 6.18832 4.3758
9 1 2 0.115889 18.266 5.48596 12.6084
10 1 2 0.115889 18.266 15.6058 2.30572
11 1 2 0.115888 18.266 13.716 0.969417
12 1 2 0.115888 18.266 7.37578 13.9447
13 1 2 0.11589 25.3934 11.4908 8.12521
14 1 2 0.11589 11.1386 9.60096 6.7889
15 1 2 0.115888 11.1386 11.4908 8.12521
16 1 2 0.115888 25.3934 9.60096 6.7889
17 1 2 0.115889 15.5206 8.96083 0.969417
18 1 2 0.115889 21.0114 12.1309 13.9447
19 1 2 0.115888 22.648 13.0758 12.6084
20 1 2 0.115888 13.884 8.01592 2.30572
21 1 2 0.115889 21.0114 3.90092 8.12521
22 1 2 0.115889 15.5206 17.1908 6.7889
23 1 2 0.115887 13.884 16.2459 8.12521
24 1 2 0.115887 22.648 4.84583 6.7889
25 1 2 0.115889 22.648 16.2459 8.12521
26 1 2 0.115889 13.884 4.84583 6.7889
27 1 2 0.115887 15.5206 3.90092 8.12521
28 1 2 0.115887 21.0114 17.1908 6.7889
29 1 2 0.115889 21.0114 8.96083 0.969417
30 1 2 0.115889 15.5206 12.1309 13.9447
31 1 2 0.115887 13.884 13.0758 12.6084
32 1 2 0.115887 22.648 8.01592 2.30572
33 1 3 0.671939 27.399 18.7442 13.2542
34 1 3 0.671939 9.13299 2.34751 1.65994
35 1 3 0.671939 27.399 12.8934 9.117
36 1 3 0.671939 9.13299 8.19836 5.79712
37 1 3 0.67194 24.8655 14.3561 13.2542
38 1 3 0.67194 11.6665 6.73565 1.65994
39 1 3 0.67194 29.9325 17.2815 9.117
40 1 3 0.67194 6.5995 3.81022 5.79712
41 1 3 0.67194 24.8655 17.2815 9.117
42 1 3 0.67194 11.6665 3.81022 5.79712
43 1 3 0.67194 29.9325 14.3561 13.2542
44 1 3 0.67194 6.5995 6.73565 1.65994
45 1 3 -0.11508 27.399 19.957 14.1117
46 1 3 -0.11508 9.13299 1.13474 0.802379
47 1 3 -0.11508 27.399 11.6806 8.25944
48 1 3 -0.11508 9.13299 9.41113 6.65468
49 1 3 -0.11508 23.8152 13.7497 14.1117
50 1 3 -0.11508 12.7168 7.34203 0.802379
51 1 3 -0.11508 30.9828 17.8879 8.25944
52 1 3 -0.11508 5.54921 3.20384 6.65468
53 1 3 -0.11508 23.8152 17.8879 8.25944
54 1 3 -0.11508 12.7168 3.20384 6.65468
55 1 3 -0.11508 30.9828 13.7497 14.1117
56 1 3 -0.11508 5.54921 7.34203 0.802379
57 1 3 -0.0559 18.266 5.39949 13.5316
58 1 3 -0.0559 18.266 15.6923 1.38254
59 1 3 -0.055903 18.266 14.5575 0.580159
60 1 3 -0.055903 18.266 6.53422 14.334
61 1 3 -0.0559 26.1971 11.1132 7.85825
62 1 3 -0.0559 10.3349 9.9785 7.05587
63 1 3 -0.055903 10.3349 11.1132 7.85825
64 1 3 -0.055903 26.1971 9.9785 7.05587
65 1 3 -0.0559 14.7918 8.54005 0.580159
66 1 3 -0.0559 21.7402 12.5517 14.334
67 1 3 -0.055903 22.7229 13.1191 13.5316
68 1 3 -0.055903 13.8091 7.97268 1.38254
69 1 3 -0.0559 21.7402 3.39366 7.85825
70 1 3 -0.0559 14.7918 17.6981 7.05587
71 1 3 -0.055903 13.8091 17.1307 7.85825
72 1 3 -0.055903 22.7229 3.96103 7.05587
73 1 3 -0.055901 22.7229 17.1307 7.85825
74 1 3 -0.055901 13.8091 3.96103 7.05587
75 1 3 -0.055903 14.7918 3.39366 7.85825
76 1 3 -0.055903 21.7402 17.6981 7.05587
77 1 3 -0.0559 21.7402 8.54005 0.580159
78 1 3 -0.0559 14.7918 12.5517 14.334
79 1 3 -0.055903 13.8091 13.1191 13.5316
80 1 3 -0.055903 22.7229 7.97268 1.38254
81 1 4 -1.26215 27.399 15.8188 11.1856
82 1 4 -1.26215 9.13299 5.27293 3.72853
83 1 4 -0.60118 27.399 18.9383 11.9641
84 1 4 -0.60118 9.13299 2.15347 2.95001
85 1 4 -0.601179 27.399 17.5926 13.8671
86 1 4 -0.601179 9.13299 3.49912 1.04697
87 1 4 -0.601179 26.2336 13.3722 9.45555
88 1 4 -0.601179 10.2984 7.71958 5.45857
89 1 4 -0.60118 28.5643 13.3722 9.45555
90 1 4 -0.60118 7.96762 7.71958 5.45857
91 1 4 -0.60118 25.8628 14.9319 13.8671
92 1 4 -0.60118 10.6692 6.15984 1.04697
93 1 4 -0.601179 24.6974 14.2591 11.9641
94 1 4 -0.601179 11.8345 6.83267 2.95001
95 1 4 -0.60118 28.9351 18.0514 9.45555
96 1 4 -0.60118 7.59682 3.04037 5.45857
97 1 4 -0.601179 30.1005 16.0329 9.45555
98 1 4 -0.601179 6.43145 5.05885 5.45857
99 1 4 -0.601179 24.6974 16.0329 9.45555
100 1 4 -0.601179 11.8345 5.05885 5.45857
101 1 4 -0.60118 25.8628 18.0514 9.45555
102 1 4 -0.60118 10.6692 3.04037 5.45857
103 1 4 -0.60118 28.9351 14.9319 13.8671
104 1 4 -0.60118 7.59682 6.15984 1.04697
105 1 4 -0.60118 30.1005 14.2591 11.9641
106 1 4 -0.60118 6.43145 6.83267 2.95001
107 2 5 -0.35 7.66289 6.69404 8.76897
108 2 6 0.7 8.27986 5.95516 8.12165
109 2 5 -0.35 8.89682 5.21629 7.47434
110 3 5 -0.35 22.8534 17.3635 11.741
111 3 6 0.7 21.9334 16.7528 11.3858
112 3 5 -0.35 21.0133 16.1421 11.0305
113 4 5 -0.35 22.8447 16.6964 14.7239
114 4 6 0.7 14.2187 12.0378 0.653145
115 4 5 -0.35 14.7256 12.6522 1.49647
