ITEM: TIMESTEP
0
ITEM: NUMBER OF ATOMS
106
ITEM: BOX BOUNDS xy xz yz pp pp pp
0.0000000000000000e+00 3.6531964750000000e+01 9.1329911900000003e+00
0.0000000000000000e+00 2.1091739680000000e+01 9.1329911900000003e+00
0.0000000000000000e+00 1.4914112149999999e+01 5.2729349200000000e+00
ITEM: ATOMS id mol type q x y z
1 1 1 1.10383 27.399 17.6496 10.5383
2 1 1 1.10383 9.13299 3.44217 4.3758
3 1 1 1.10383 27.399 15.8188 13.1274
4 1 1 1.10383 9.13299 5.27293 1.78671
5 1 1 1.10383 25.8135 14.9034 10.5383
6 1 1 1.10383 10.7185 6.18832 4.3758
7 1 1 1.10383 28.9845 14.9034 10.5383
8 1 1 1.10383 7.5475 6.18832 4.3758
9 1 2 0.115889 18.266 5.48596 12.6084
10 1 2 0.115889 18.266 15.6058 2.30572
11 1 2 0.115888 18.266 13.716 0.969417
12 1 2 0.115888 18.266 7.37578 13.9447
13 1 2 0.11589 25.3934 11.4908 8.12521
14 1 2 0.11589 11.1386 9.60096 6.7889
15 1 2 0.115888 11.1386 11.4908 8.12521
16 1 2 0.115888 25.3934 9.60096 6.7889
17 1 2 0.115889 15.5206 8.96083 0.969417
18 1 2 0.115889 21.0114 12.1309 13.9447
19 1 2 0.115888 22.648 13.0758 12.6084
20 1 2 0.115888 13.884 8.01592 2.30572
21 1 2 0.115889 21.0114 3.90092 8.12521
22 1 2 0.115889 15.5206 17.1908 6.7889
23 1 2 0.115887 13.884 16.2459 8.12521
24 1 2 0.115887 22.648 4.84583 6.7889
25 1 2 0.115889 22.648 16.2459 8.12521
26 1 2 0.115889 13.884 4.84583 6.7889
27 1 2 0.115887 15.5206 3.90092 8.12521
28 1 2 0.115887 21.0114 17.1908 6.7889
29 1 2 0.115889 21.0114 8.96083 0.969417
30 1 2 0.115889 15.5206 12.1309 13.9447
31 1 2 0.115887 13.884 13.0758 12.6084
32 1 2 0.115887 22.648 8.01592 2.30572
33 1 3 0.671939 27.399 18.7442 13.2542
34 1 3 0.671939 9.13299 2.34751 1.65994
35 1 3 0.671939 27.399 12.8934 9.117
36 1 3 0.671939 9.13299 8.19836 5.79712
37 1 3 0.67194 24.8655 14.3561 13.2542
38 1 3 0.67194 11.6665 6.73565 1.65994
39 1 3 0.67194 29.9325 17.2815 9.117
40 1 3 0.67194 6.5995 3.81022 5.79712
41 1 3 0.67194 24.8655 17.2815 9.117
42 1 3 0.67194 11.6665 3.81022 5.79712
43 1 3 0.67194 29.9325 14.3561 13.2542
44 1 3 0.67194 6.5995 6.73565 1.65994
45 1 3 -0.11508 27.399 19.957 14.1117
46 1 3 -0.11508 9.13299 1.13474 0.802379
47 1 3 -0.11508 27.399 11.6806 8.25944
48 1 3 -0.11508 9.13299 9.41113 6.65468
49 1 3 -0.11508 23.8152 13.7497 14.1117
50 1 3 -0.11508 12.7168 7.34203 0.802379
51 1 3 -0.11508 30.9828 17.8879 8.25944
52 1 3 -0.11508 5.54921 3.20384 6.65468
53 1 3 -0.11508 23.8152 17.8879 8.25944
54 1 3 -0.11508 12.7168 3.20384 6.65468
55 1 3 -0.11508 30.9828 13.7497 14.1117
56 1 3 -0.11508 5.54921 7.34203 0.802379
57 1 3 -0.0559 18.266 5.39949 13.5316
58 1 3 -0.0559 18.266 15.6923 1.38254
59 1 3 -0.055903 18.266 14.5575 0.580159
60 1 3 -0.055903 18.266 6.53422 14.334
61 1 3 -0.0559 26.1971 11.1132 7.85825
62 1 3 -0.0559 10.3349 9.9785 7.05587
63 1 3 -0.055903 10.3349 11.1132 7.85825
64 1 3 -0.055903 26.1971 9.9785 7.05587
65 1 3 -0.0559 14.7918 8.54005 0.580159
66 1 3 -0.0559 21.7402 12.5517 14.334
67 1 3 -0.055903 22.7229 13.1191 13.5316
68 1 3 -0.055903 13.8091 7.97268 1.38254
69 1 3 -0.0559 21.7402 3.39366 7.85825
70 1 3 -0.0559 14.7918 17.6981 7.05587
71 1 3 -0.055903 13.8091 17.1307 7.85825
72 1 3 -0.055903 22.7229 3.96103 7.05587
73 1 3 -0.055901 22.7229 17.1307 7.85825
74 1 3 -0.055901 13.8091 3.96103 7.05587
75 1 3 -0.055903 14.7918 3.39366 7.85825
76 1 3 -0.055903 21.7402 17.6981 7.05587
77 1 3 -0.0559 21.7402 8.54005 0.580159
78 1 3 -0.0559 14.7918 12.5517 14.334
79 1 3 -0.055903 13.8091 13.1191 13.5316
80 1 3 -0.055903 22.7229 7.97268 1.38254
81 1 4 -1.26215 27.399 15.8188 11.1856
82 1 4 -1.26215 9.13299 5.27293 3.72853
83 1 4 -0.60118 27.399 18.9383 11.9641
84 1 4 -0.60118 9.13299 2.15347 2.95001
85 1 4 -0.601179 27.399 17.5926 13.8671
86 1 4 -0.601179 9.13299 3.49912 1.04697
87 1 4 -0.601179 26.2336 13.3722 9.45555
88 1 4 -0.601179 10.2984 7.71958 5.45857
89 1 4 -0.60118 28.5643 13.3722 9.45555
90 1 4 -0.60118 7.96762 7.71958 5.45857
91 1 4 -0.60118 25.8628 14.9319 13.8671
92 1 4 -0.60118 10.6692 6.15984 1.04697
93 1 4 -0.601179 24.6974 14.2591 11.9641
94 1 4 -0.601179 11.8345 6.83267 2.95001
95 1 4 -0.60118 28.9351 18.0514 9.45555
96 1 4 -0.60118 7.59682 3.04037 5.45857
97 1 4 -0.601179 30.1005 16.0329 9.45555
98 1 4 -0.601179 6.43145 5.05885 5.45857
99 1 4 -0.601179 24.6974 16.0329 9.45555
100 1 4 -0.601179 11.8345 5.05885 5.45857
101 1 4 -0.60118 25.8628 18.0514 9.45555
102 1 4 -0.60118 10.6692 3.04037 5.45857
103 1 4 -0.60118 28.9351 14.9319 13.8671
104 1 4 -0.60118 7.59682 6.15984 1.04697
105 1 4 -0.60118 30.1005 14.2591 11.9641
106 1 4 -0.60118 6.43145 6.83267 2.95001
ITEM: TIMESTEP
1000
ITEM: NUMBER OF ATOMS
106
ITEM: BOX BOUNDS xy xz yz pp pp pp
0.0000000000000000e+00 3.6531964750000000e+01 9.1329911900000003e+00
0.0000000000000000e+00 2.1091739680000000e+01 9.1329911900000003e+00
0.0000000000000000e+00 1.4914112149999999e+01 5.2729349200000000e+00
ITEM: ATOMS id mol type q x y z
1 1 1 1.10383 27.399 17.6496 10.5383
2 1 1 1.10383 9.13299 3.44217 4.3758
3 1 1 1.10383 27.399 15.8188 13.1274
4 1 1 1.10383 9.13299 5.27293 1.78671
5 1 1 1.10383 25.8135 14.9034 10.5383
6 1 1 1.10383 10.7185 6.18832 4.3758
7 1 1 1.10383 28.9845 14.9034 10.5383
8 1 1 1.10383 7.5475 6.18832 4.3758
9 1 2 0.115889 18.266 5.48596 12.6084
10 1 2 0.115889 18.266 15.6058 2.30572
11 1 2 0.115888 18.266 13.716 0.969417
12 1 2 0.115888 18.266 7.37578 13.9447
13 1 2 0.11589 25.3934 11.4908 8.12521
14 1 2 0.11589 11.1386 9.60096 6.7889
15 1 2 0.115888 11.1386 11.4908 8.12521
16 1 2 0.115888 25.3934 9.60096 6.7889
17 1 2 0.115889 15.5206 8.96083 0.969417
18 1 2 0.115889 21.0114 12.1309 13.9447
19 1 2 0.115888 22.648 13.0758 12.6084
20 1 2 0.115888 13.884 8.01592 2.30572
21 1 2 0.115889 21.0114 3.90092 8.12521
22 1 2 0.115889 15.5206 17.1908 6.7889
23 1 2 0.115887 13.884 16.2459 8.12521
24 1 2 0.115887 22.648 4.84583 6.7889
25 1 2 0.115889 22.648 16.2459 8.12521
26 1 2 0.115889 13.884 4.84583 6.7889
27 1 2 0.115887 15.5206 3.90092 8.12521
28 1 2 0.115887 21.0114 17.1908 6.7889
29 1 2 0.115889 21.0114 8.96083 0.969417
30 1 2 0.115889 15.5206 12.1309 13.9447
31 1 2 0.115887 13.884 13.0758 12.6084
32 1 2 0.115887 22.648 8.01592 2.30572
33 1 3 0.671939 27.399 18.7442 13.2542
34 1 3 0.671939 9.13299 2.34751 1.65994
35 1 3 0.671939 27.399 12.8934 9.117
36 1 3 0.671939 9.13299 8.19836 5.79712
37 1 3 0.67194 24.8655 14.3561 13.2542
38 1 3 0.67194 11.6665 6.73565 1.65994
39 1 3 0.67194 29.9325 17.2815 9.117
40 1 3 0.67194 6.5995 3.81022 5.79712
41 1 3 0.67194 24.8655 17.2815 9.117
42 1 3 0.67194 11.6665 3.81022 5.79712
43 1 3 0.67194 29.9325 14.3561 13.2542
44 1 3 0.67194 6.5995 6.73565 1.65994
45 1 3 -0.11508 27.399 19.957 14.1117
46 1 3 -0.11508 9.13299 1.13474 0.802379
47 1 3 -0.11508 27.399 11.6806 8.25944
48 1 3 -0.11508 9.13299 9.41113 6.65468
49 1 3 -0.11508 23.8152 13.7497 14.1117
50 1 3 -0.11508 12.7168 7.34203 0.802379
51 1 3 -0.11508 30.9828 17.8879 8.25944
52 1 3 -0.11508 5.54921 3.20384 6.65468
53 1 3 -0.11508 23.8152 17.8879 8.25944
54 1 3 -0.11508 12.7168 3.20384 6.65468
55 1 3 -0.11508 30.9828 13.7497 14.1117
56 1 3 -0.11508 5.54921 7.34203 0.802379
57 1 3 -0.0559 18.266 5.39949 13.5316
58 1 3 -0.0559 18.266 15.6923 1.38254
59 1 3 -0.055903 18.266 14.5575 0.580159
60 1 3 -0.055903 18.266 6.53422 14.334
61 1 3 -0.0559 26.1971 11.1132 7.85825
62 1 3 -0.0559 10.3349 9.9785 7.05587
63 1 3 -0.055903 10.3349 11.1132 7.85825
64 1 3 -0.055903 26.1971 9.9785 7.05587
65 1 3 -0.0559 14.7918 8.54005 0.580159
66 1 3 -0.0559 21.7402 12.5517 14.334
67 1 3 -0.055903 22.7229 13.1191 13.5316
68 1 3 -0.055903 13.8091 7.97268 1.38254
69 1 3 -0.0559 21.7402 3.39366 7.85825
70 1 3 -0.0559 14.7918 17.6981 7.05587
71 1 3 -0.055903 13.8091 17.1307 7.85825
72 1 3 -0.055903 22.7229 3.96103 7.05587
73 1 3 -0.055901 22.7229 17.1307 7.85825
74 1 3 -0.055901 13.8091 3.96103 7.05587
75 1 3 -0.055903 14.7918 3.39366 7.85825
76 1 3 -0.055903 21.7402 17.6981 7.05587
77 1 3 -0.0559 21.7402 8.54005 0.580159
78 1 3 -0.0559 14.7918 12.5517 14.334
79 1 3 -0.055903 13.8091 13.1191 13.5316
80 1 3 -0.055903 22.7229 7.97268 1.38254
81 1 4 -1.26215 27.399 15.8188 11.1856
82 1 4 -1.26215 9.13299 5.27293 3.72853
83 1 4 -0.60118 27.399 18.9383 11.9641
84 1 4 -0.60118 9.13299 2.15347 2.95001
85 1 4 -0.601179 27.399 17.5926 13.8671
86 1 4 -0.601179 9.13299 3.49912 1.04697
87 1 4 -0.601179 26.2336 13.3722 9.45555
88 1 4 -0.601179 10.2984 7.71958 5.45857
89 1 4 -0.60118 28.5643 13.3722 9.45555
90 1 4 -0.60118 7.96762 7.71958 5.45857
91 1 4 -0.60118 25.8628 14.9319 13.8671
92 1 4 -0.60118 10.6692 6.15984 1.04697
93 1 4 -0.601179 24.6974 14.2591 11.9641
94 1 4 -0.601179 11.8345 6.83267 2.95001
95 1 4 -0.60118 28.9351 18.0514 9.45555
96 1 4 -0.60118 7.59682 3.04037 5.45857
97 1 4 -0.601179 30.1005 16.0329 9.45555
98 1 4 -0.601179 6.43145 5.05885 5.45857
99 1 4 -0.601179 24.6974 16.0329 9.45555
100 1 4 -0.601179 11.8345 5.05885 5.45857
101 1 4 -0.60118 25.8628 18.0514 9.45555
102 1 4 -0.60118 10.6692 3.04037 5.45857
103 1 4 -0.60118 28.9351 14.9319 13.8671
104 1 4 -0.60118 7.59682 6.15984 1.04697
105 1 4 -0.60118 30.1005 14.2591 11.9641
106 1 4 -0.60118 6.43145 6.83267 2.95001
ITEM: TIMESTEP
2000
ITEM: NUMBER OF ATOMS
109
ITEM: BOX BOUNDS xy xz yz pp pp pp
0.0000000000000000e+00 3.6531964750000000e+01 9.1329911900000003e+00
0.0000000000000000e+00 2.1091739680000000e+01 9.1329911900000003e+00
0.0000000000000000e+00 1.4914112149999999e+01 5.2729349200000000e+00
ITEM: ATOMS id mol type q x y z
1 1 1 1.10383 27.399 17.6496 10.5383
2 1 1 1.10383 9.13299 3.44217 4.3758
3 1 1 1.10383 27.399 15.8188 13.1274
4 1 1 1.10383 9.13299 5.27293 1.78671
5 1 1 1.10383 25.8135 14.9034 10.5383
6 1 1 1.10383 10.7185 6.18832 4.3758
7 1 1 1.10383 28.9845 14.9034 10.5383
8 1 1 1.10383 7.5475 6.18832 4.3758
9 1 2 0.115889 18.266 5.48596 12.6084
10 1 2 0.115889 18.266 15.6058 2.30572
11 1 2 0.115888 18.266 13.716 0.969417
12 1 2 0.115888 18.266 7.37578 13.9447
13 1 2 0.11589 25.3934 11.4908 8.12521
14 1 2 0.11589 11.1386 9.60096 6.7889
15 1 2 0.115888 11.1386 11.4908 8.12521
16 1 2 0.115888 25.3934 9.60096 6.7889
17 1 2 0.115889 15.5206 8.96083 0.969417
18 1 2 0.115889 21.0114 12.1309 13.9447
19 1 2 0.115888 22.648 13.0758 12.6084
20 1 2 0.115888 13.884 8.01592 2.30572
21 1 2 0.115889 21.0114 3.90092 8.12521
22 1 2 0.115889 15.5206 17.1908 6.7889
23 1 2 0.115887 13.884 16.2459 8.12521
24 1 2 0.115887 22.648 4.84583 6.7889
25 1 2 0.115889 22.648 16.2459 8.12521
26 1 2 0.115889 13.884 4.84583 6.7889
27 1 2 0.115887 15.5206 3.90092 8.12521
28 1 2 0.115887 21.0114 17.1908 6.7889
29 1 2 0.115889 21.0114 8.96083 0.969417
30 1 2 0.115889 15.5206 12.1309 13.9447
31 1 2 0.115887 13.884 13.0758 12.6084
32 1 2 0.115887 22.648 8.01592 2.30572
33 1 3 0.671939 27.399 18.7442 13.2542
34 1 3 0.671939 9.13299 2.34751 1.65994
35 1 3 0.671939 27.399 12.8934 9.117
36 1 3 0.671939 9.13299 8.19836 5.79712
37 1 3 0.67194 24.8655 14.3561 13.2542
38 1 3 0.67194 11.6665 6.73565 1.65994
39 1 3 0.67194 29.9325 17.2815 9.117
40 1 3 0.67194 6.5995 3.81022 5.79712
41 1 3 0.67194 24.8655 17.2815 9.117
42 1 3 0.67194 11.6665 3.81022 5.79712
43 1 3 0.67194 29.9325 14.3561 13.2542
44 1 3 0.67194 6.5995 6.73565 1.65994
45 1 3 -0.11508 27.399 19.957 14.1117
46 1 3 -0.11508 9.13299 1.13474 0.802379
47 1 3 -0.11508 27.399 11.6806 8.25944
48 1 3 -0.11508 9.13299 9.41113 6.65468
49 1 3 -0.11508 23.8152 13.7497 14.1117
50 1 3 -0.11508 12.7168 7.34203 0.802379
51 1 3 -0.11508 30.9828 17.8879 8.25944
52 1 3 -0.11508 5.54921 3.20384 6.65468
53 1 3 -0.11508 23.8152 17.8879 8.25944
54 1 3 -0.11508 12.7168 3.20384 6.65468
55 1 3 -0.11508 30.9828 13.7497 14.1117
56 1 3 -0.11508 5.54921 7.34203 0.802379
57 1 3 -0.0559 18.266 5.39949 13.5316
58 1 3 -0.0559 18.266 15.6923 1.38254
59 1 3 -0.055903 18.266 14.5575 0.580159
60 1 3 -0.055903 18.266 6.53422 14.334
61 1 3 -0.0559 26.1971 11.1132 7.85825
62 1 3 -0.0559 10.3349 9.9785 7.05587
63 1 3 -0.055903 10.3349 11.1132 7.85825
64 1 3 -0.055903 26.1971 9.9785 7.05587
65 1 3 -0.0559 14.7918 8.54005 0.580159
66 1 3 -0.0559 21.7402 12.5517 14.334
67 1 3 -0.055903 22.7229 13.1191 13.5316
68 1 3 -0.055903 13.8091 7.97268 1.38254
69 1 3 -0.0559 21.7402 3.39366 7.85825
70 1 3 -0.0559 14.7918 17.6981 7.05587
71 1 3 -0.055903 13.8091 17.1307 7.85825
72 1 3 -0.055903 22.7229 3.96103 7.05587
73 1 3 -0.055901 22.7229 17.1307 7.85825
74 1 3 -0.055901 13.8091 3.96103 7.05587
75 1 3 -0.055903 14.7918 3.39366 7.85825
76 1 3 -0.055903 21.7402 17.6981 7.05587
77 1 3 -0.0559 21.7402 8.54005 0.580159
78 1 3 -0.0559 14.7918 12.5517 14.334
79 1 3 -0.055903 13.8091 13.1191 13.5316
80 1 3 -0.055903 22.7229 7.97268 1.38254
81 1 4 -1.26215 27.399 15.8188 11.1856
82 1 4 -1.26215 9.13299 5.27293 3.72853
83 1 4 -0.60118 27.399 18.9383 11.9641
84 1 4 -0.60118 9.13299 2.15347 2.95001
85 1 4 -0.601179 27.399 17.5926 13.8671
86 1 4 -0.601179 9.13299 3.49912 1.04697
87 1 4 -0.601179 26.2336 13.3722 9.45555
88 1 4 -0.601179 10.2984 7.71958 5.45857
89 1 4 -0.60118 28.5643 13.3722 9.45555
90 1 4 -0.60118 7.96762 7.71958 5.45857
91 1 4 -0.60118 25.8628 14.9319 13.8671
92 1 4 -0.60118 10.6692 6.15984 1.04697
93 1 4 -0.601179 24.6974 14.2591 11.9641
94 1 4 -0.601179 11.8345 6.83267 2.95001
95 1 4 -0.60118 28.9351 18.0514 9.45555
96 1 4 -0.60118 7.59682 3.04037 5.45857
97 1 4 -0.601179 30.1005 16.0329 9.45555
98 1 4 -0.601179 6.43145 5.05885 5.45857
99 1 4 -0.601179 24.6974 16.0329 9.45555
100 1 4 -0.601179 11.8345 5.05885 5.45857
101 1 4 -0.60118 25.8628 18.0514 9.45555
102 1 4 -0.60118 10.6692 3.04037 5.45857
103 1 4 -0.60118 28.9351 14.9319 13.8671
104 1 4 -0.60118 7.59682 6.15984 1.04697
105 1 4 -0.60118 30.1005 14.2591 11.9641
106 1 4 -0.60118 6.43145 6.83267 2.95001
107 2 5 -0.35 10.5091 12.9814 5.16728
108 2 6 0.7 10.7878 11.9649 4.68281
109 2 5 -0.35 11.0665 10.9485 4.19833
ITEM: TIMESTEP
3000
ITEM: NUMBER OF ATOMS
106
ITEM: BOX BOUNDS xy xz yz pp pp pp
0.0000000000000000e+00 3.6531964750000000e+01 9.1329911900000003e+00
0.0000000000000000e+00 2.1091739680000000e+01 9.1329911900000003e+00
0.0000000000000000e+00 1.4914112149999999e+01 5.2729349200000000e+00
ITEM: ATOMS id mol type q x y z
1 1 1 1.10383 27.399 17.6496 10.5383
2 1 1 1.10383 9.13299 3.44217 4.3758
3 1 1 1.10383 27.399 15.8188 13.1274
4 1 1 1.10383 9.13299 5.27293 1.78671
5 1 1 1.10383 25.8135 14.9034 10.5383
6 1 1 1.10383 10.7185 6.18832 4.3758
7 1 1 1.10383 28.9845 14.9034 10.5383
8 1 1 1.10383 7.5475 6.18832 4.3758
9 1 2 0.115889 18.266 5.48596 12.6084
10 1 2 0.115889 18.266 15.6058 2.30572
11 1 2 0.115888 18.266 13.716 0.969417
12 1 2 0.115888 18.266 7.37578 13.9447
13 1 2 0.11589 25.3934 11.4908 8.12521
14 1 2 0.11589 11.1386 9.60096 6.7889
15 1 2 0.115888 11.1386 11.4908 8.12521
16 1 2 0.115888 25.3934 9.60096 6.7889
17 1 2 0.115889 15.5206 8.96083 0.969417
18 1 2 0.115889 21.0114 12.1309 13.9447
19 1 2 0.115888 22.648 13.0758 12.6084
20 1 2 0.115888 13.884 8.01592 2.30572
21 1 2 0.115889 21.0114 3.90092 8.12521
22 1 2 0.115889 15.5206 17.1908 6.7889
23 1 2 0.115887 13.884 16.2459 8.12521
24 1 2 0.115887 22.648 4.84583 6.7889
25 1 2 0.115889 22.648 16.2459 8.12521
26 1 2 0.115889 13.884 4.84583 6.7889
27 1 2 0.115887 15.5206 3.90092 8.12521
28 1 2 0.115887 21.0114 17.1908 6.7889
29 1 2 0.115889 21.0114 8.96083 0.969417
30 1 2 0.115889 15.5206 12.1309 13.9447
31 1 2 0.115887 13.884 13.0758 12.6084
32 1 2 0.115887 22.648 8.01592 2.30572
33 1 3 0.671939 27.399 18.7442 13.2542
34 1 3 0.671939 9.13299 2.34751 1.65994
35 1 3 0.671939 27.399 12.8934 9.117
36 1 3 0.671939 9.13299 8.19836 5.79712
37 1 3 0.67194 24.8655 14.3561 13.2542
38 1 3 0.67194 11.6665 6.73565 1.65994
39 1 3 0.67194 29.9325 17.2815 9.117
40 1 3 0.67194 6.5995 3.81022 5.79712
41 1 3 0.67194 24.8655 17.2815 9.117
42 1 3 0.67194 11.6665 3.81022 5.79712
43 1 3 0.67194 29.9325 14.3561 13.2542
44 1 3 0.67194 6.5995 6.73565 1.65994
45 1 3 -0.11508 27.399 19.957 14.1117
46 1 3 -0.11508 9.13299 1.13474 0.802379
47 1 3 -0.11508 27.399 11.6806 8.25944
48 1 3 -0.11508 9.13299 9.41113 6.65468
49 1 3 -0.11508 23.8152 13.7497 14.1117
50 1 3 -0.11508 12.7168 7.34203 0.802379
51 1 3 -0.11508 30.9828 17.8879 8.25944
52 1 3 -0.11508 5.54921 3.20384 6.65468
53 1 3 -0.11508 23.8152 17.8879 8.25944
54 1 3 -0.11508 12.7168 3.20384 6.65468
55 1 3 -0.11508 30.9828 13.7497 14.1117
56 1 3 -0.11508 5.54921 7.34203 0.802379
57 1 3 -0.0559 18.266 5.39949 13.5316
58 1 3 -0.0559 18.266 15.6923 1.38254
59 1 3 -0.055903 18.266 14.5575 0.580159
60 1 3 -0.055903 18.266 6.53422 14.334
61 1 3 -0.0559 26.1971 11.1132 7.85825
62 1 3 -0.0559 10.3349 9.9785 7.05587
63 1 3 -0.055903 10.3349 11.1132 7.85825
64 1 3 -0.055903 26.1971 9.9785 7.05587
65 1 3 -0.0559 14.7918 8.54005 0.580159
66 1 3 -0.0559 21.7402 12.5517 14.334
67 1 3 -0.055903 22.7229 13.1191 13.5316
68 1 3 -0.055903 13.8091 7.97268 1.38254
69 1 3 -0.0559 21.7402 3.39366 7.85825
70 1 3 -0.0559 14.7918 17.6981 7.05587
71 1 3 -0.055903 13.8091 17.1307 7.85825
72 1 3 -0.055903 22.7229 3.96103 7.05587
73 1 3 -0.055901 22.7229 17.1307 7.85825
74 1 3 -0.055901 13.8091 3.96103 7.05587
75 1 3 -0.055903 14.7918 3.39366 7.85825
76 1 3 -0.055903 21.7402 17.6981 7.05587
77 1 3 -0.0559 21.7402 8.54005 0.580159
78 1 3 -0.0559 14.7918 12.5517 14.334
79 1 3 -0.055903 13.8091 13.1191 13.5316
80 1 3 -0.055903 22.7229 7.97268 1.38254
81 1 4 -1.26215 27.399 15.8188 11.1856
82 1 4 -1.26215 9.13299 5.27293 3.72853
83 1 4 -0.60118 27.399 18.9383 11.9641
84 1 4 -0.60118 9.13299 2.15347 2.95001
85 1 4 -0.601179 27.399 17.5926 13.8671
86 1 4 -0.601179 9.13299 3.49912 1.04697
87 1 4 -0.601179 26.2336 13.3722 9.45555
88 1 4 -0.601179 10.2984 7.71958 5.45857
89 1 4 -0.60118 28.5643 13.3722 9.45555
90 1 4 -0.60118 7.96762 7.71958 5.45857
91 1 4 -0.60118 25.8628 14.9319 13.8671
92 1 4 -0.60118 10.6692 6.15984 1.04697
93 1 4 -0.601179 24.6974 14.2591 11.9641
94 1 4 -0.601179 11.8345 6.83267 2.95001
95 1 4 -0.60118 28.9351 18.0514 9.45555
96 1 4 -0.60118 7.59682 3.04037 5.45857
97 1 4 -0.601179 30.1005 16.0329 9.45555
98 1 4 -0.601179 6.43145 5.05885 5.45857
99 1 4 -0.601179 24.6974 16.0329 9.45555
100 1 4 -0.601179 11.8345 5.05885 5.45857
101 1 4 -0.60118 25.8628 18.0514 9.45555
102 1 4 -0.60118 10.6692 3.04037 5.45857
103 1 4 -0.60118 28.9351 14.9319 13.8671
104 1 4 -0.60118 7.59682 6.15984 1.04697
105 1 4 -0.60118 30.1005 14.2591 11.9641
106 1 4 -0.60118 6.43145 6.83267 2.95001
ITEM: TIMESTEP
4000
ITEM: NUMBER OF ATOMS
109
ITEM: BOX BOUNDS xy xz yz pp pp pp
0.0000000000000000e+00 3.6531964750000000e+01 9.1329911900000003e+00
0.0000000000000000e+00 2.1091739680000000e+01 9.1329911900000003e+00
0.0000000000000000e+00 1.4914112149999999e+01 5.2729349200000000e+00
ITEM: ATOMS id mol type q x y z
1 1 1 1.10383 27.399 17.6496 10.5383
2 1 1 1.10383 9.13299 3.44217 4.3758
3 1 1 1.10383 27.399 15.8188 13.1274
4 1 1 1.10383 9.13299 5.27293 1.78671
5 1 1 1.10383 25.8135 14.9034 10.5383
6 1 1 1.10383 10.7185 6.18832 4.3758
7 1 1 1.10383 28.9845 14.9034 10.5383
8 1 1 1.10383 7.5475 6.18832 4.3758
9 1 2 0.115889 18.266 5.48596 12.6084
10 1 2 0.115889 18.266 15.6058 2.30572
11 1 2 0.115888 18.266 13.716 0.969417
12 1 2 0.115888 18.266 7.37578 13.9447
13 1 2 0.11589 25.3934 11.4908 8.12521
14 1 2 0.11589 11.1386 9.60096 6.7889
15 1 2 0.115888 11.1386 11.4908 8.12521
16 1 2 0.115888 25.3934 9.60096 6.7889
17 1 2 0.115889 15.5206 8.96083 0.969417
18 1 2 0.115889 21.0114 12.1309 13.9447
19 1 2 0.115888 22.648 13.0758 12.6084
20 1 2 0.115888 13.884 8.01592 2.30572
21 1 2 0.115889 21.0114 3.90092 8.12521
22 1 2 0.115889 15.5206 17.1908 6.7889
23 1 2 0.115887 13.884 16.2459 8.12521
24 1 2 0.115887 22.648 4.84583 6.7889
25 1 2 0.115889 22.648 16.2459 8.12521
26 1 2 0.115889 13.884 4.84583 6.7889
27 1 2 0.115887 15.5206 3.90092 8.12521
28 1 2 0.115887 21.0114 17.1908 6.7889
29 1 2 0.115889 21.0114 8.96083 0.969417
30 1 2 0.115889 15.5206 12.1309 13.9447
31 1 2 0.115887 13.884 13.0758 12.6084
32 1 2 0.115887 22.648 8.01592 2.30572
33 1 3 0.671939 27.399 18.7442 13.2542
34 1 3 0.671939 9.13299 2.34751 1.65994
35 1 3 0.671939 27.399 12.8934 9.117
36 1 3 0.671939 9.13299 8.19836 5.79712
37 1 3 0.67194 24.8655 14.3561 13.2542
38 1 3 0.67194 11.6665 6.73565 1.65994
39 1 3 0.67194 29.9325 17.2815 9.117
40 1 3 0.67194 6.5995 3.81022 5.79712
41 1 3 0.67194 24.8655 17.2815 9.117
42 1 3 0.67194 11.6665 3.81022 5.79712
43 1 3 0.67194 29.9325 14.3561 13.2542
44 1 3 0.67194 6.5995 6.73565 1.65994
45 1 3 -0.11508 27.399 19.957 14.1117
46 1 3 -0.11508 9.13299 1.13474 0.802379
47 1 3 -0.11508 27.399 11.6806 8.25944
48 1 3 -0.11508 9.13299 9.41113 6.65468
49 1 3 -0.11508 23.8152 13.7497 14.1117
50 1 3 -0.11508 12.7168 7.34203 0.802379
51 1 3 -0.11508 30.9828 17.8879 8.25944
52 1 3 -0.11508 5.54921 3.20384 6.65468
53 1 3 -0.11508 23.8152 17.8879 8.25944
54 1 3 -0.11508 12.7168 3.20384 6.65468
55 1 3 -0.11508 30.9828 13.7497 14.1117
56 1 3 -0.11508 5.54921 7.34203 0.802379
57 1 3 -0.0559 18.266 5.39949 13.5316
58 1 3 -0.0559 18.266 15.6923 1.38254
59 1 3 -0.055903 18.266 14.5575 0.580159
60 1 3 -0.055903 18.266 6.53422 14.334
61 1 3 -0.0559 26.1971 11.1132 7.85825
62 1 3 -0.0559 10.3349 9.9785 7.05587
63 1 3 -0.055903 10.3349 11.1132 7.85825
64 1 3 -0.055903 26.1971 9.9785 7.05587
65 1 3 -0.0559 14.7918 8.54005 0.580159
66 1 3 -0.0559 21.7402 12.5517 14.334
67 1 3 -0.055903 22.7229 13.1191 13.5316
68 1 3 -0.055903 13.8091 7.97268 1.38254
69 1 3 -0.0559 21.7402 3.39366 7.85825
70 1 3 -0.0559 14.7918 17.6981 7.05587
71 1 3 -0.055903 13.8091 17.1307 7.85825
72 1 3 -0.055903 22.7229 3.96103 7.05587
73 1 3 -0.055901 22.7229 17.1307 7.85825
74 1 3 -0.055901 13.8091 3.96103 7.05587
75 1 3 -0.055903 14.7918 3.39366 7.85825
76 1 3 -0.055903 21.7402 17.6981 7.05587
77 1 3 -0.0559 21.7402 8.54005 0.580159
78 1 3 -0.0559 14.7918 12.5517 14.334
79 1 3 -0.055903 13.8091 13.1191 13.5316
80 1 3 -0.055903 22.7229 7.97268 1.38254
81 1 4 -1.26215 27.399 15.8188 11.1856
82 1 4 -1.26215 9.13299 5.27293 3.72853
83 1 4 -0.60118 27.399 18.9383 11.9641
84 1 4 -0.60118 9.13299 2.15347 2.95001
85 1 4 -0.601179 27.399 17.5926 13.8671
86 1 4 -0.601179 9.13299 3.49912 1.04697
87 1 4 -0.601179 26.2336 13.3722 9.45555
88 1 4 -0.601179 10.2984 7.71958 5.45857
89 1 4 -0.60118 28.5643 13.3722 9.45555
90 1 4 -0.60118 7.96762 7.71958 5.45857
91 1 4 -0.60118 25.8628 14.9319 13.8671
92 1 4 -0.60118 10.6692 6.15984 1.04697
93 1 4 -0.601179 24.6974 14.2591 11.9641
94 1 4 -0.601179 11.8345 6.83267 2.95001
95 1 4 -0.60118 28.9351 18.0514 9.45555
96 1 4 -0.60118 7.59682 3.04037 5.45857
97 1 4 -0.601179 30.1005 16.0329 9.45555
98 1 4 -0.601179 6.43145 5.05885 5.45857
99 1 4 -0.601179 24.6974 16.0329 9.45555
100 1 4 -0.601179 11.8345 5.05885 5.45857
101 1 4 -0.60118 25.8628 18.0514 9.45555
102 1 4 -0.60118 10.6692 3.04037 5.45857
103 1 4 -0.60118 28.9351 14.9319 13.8671
104 1 4 -0.60118 7.59682 6.15984 1.04697
105 1 4 -0.60118 30.1005 14.2591 11.9641
106 1 4 -0.60118 6.43145 6.83267 2.95001
107 2 5 -0.35 23.0157 17.3036 14.0759
108 2 6 0.7 21.8666 17.3547 14.2259
109 2 5 -0.35 20.7175 17.4058 14.376
ITEM: TIMESTEP
5000
ITEM: NUMBER OF ATOMS
106
ITEM: BOX BOUNDS xy xz yz pp pp pp
0.0000000000000000e+00 3.6531964750000000e+01 9.1329911900000003e+00
0.0000000000000000e+00 2.1091739680000000e+01 9.1329911900000003e+00
0.0000000000000000e+00 1.4914112149999999e+01 5.2729349200000000e+00
ITEM: ATOMS id mol type q x y z
1 1 1 1.10383 27.399 17.6496 10.5383
2 1 1 1.10383 9.13299 3.44217 4.3758
3 1 1 1.10383 27.399 15.8188 13.1274
4 1 1 1.10383 9.13299 5.27293 1.78671
5 1 1 1.10383 25.8135 14.9034 10.5383
6 1 1 1.10383 10.7185 6.18832 4.3758
7 1 1 1.10383 28.9845 14.9034 10.5383
8 1 1 1.10383 7.5475 6.18832 4.3758
9 1 2 0.115889 18.266 5.48596 12.6084
10 1 2 0.115889 18.266 15.6058 2.30572
11 1 2 0.115888 18.266 13.716 0.969417
12 1 2 0.115888 18.266 7.37578 13.9447
13 1 2 0.11589 25.3934 11.4908 8.12521
14 1 2 0.11589 11.1386 9.60096 6.7889
15 1 2 0.115888 11.1386 11.4908 8.12521
16 1 2 0.115888 25.3934 9.60096 6.7889
17 1 2 0.115889 15.5206 8.96083 0.969417
18 1 2 0.115889 21.0114 12.1309 13.9447
19 1 2 0.115888 22.648 13.0758 12.6084
20 1 2 0.115888 13.884 8.01592 2.30572
21 1 2 0.115889 21.0114 3.90092 8.12521
22 1 2 0.115889 15.5206 17.1908 6.7889
23 1 2 0.115887 13.884 16.2459 8.12521
24 1 2 0.115887 22.648 4.84583 6.7889
25 1 2 0.115889 22.648 16.2459 8.12521
26 1 2 0.115889 13.884 4.84583 6.7889
27 1 2 0.115887 15.5206 3.90092 8.12521
28 1 2 0.115887 21.0114 17.1908 6.7889
29 1 2 0.115889 21.0114 8.96083 0.969417
30 1 2 0.115889 15.5206 12.1309 13.9447
31 1 2 0.115887 13.884 13.0758 12.6084
32 1 2 0.115887 22.648 8.01592 2.30572
33 1 3 0.671939 27.399 18.7442 13.2542
34 1 3 0.671939 9.13299 2.34751 1.65994
35 1 3 0.671939 27.399 12.8934 9.117
36 1 3 0.671939 9.13299 8.19836 5.79712
37 1 3 0.67194 24.8655 14.3561 13.2542
38 1 3 0.67194 11.6665 6.73565 1.65994
39 1 3 0.67194 29.9325 17.2815 9.117
40 1 3 0.67194 6.5995 3.81022 5.79712
41 1 3 0.67194 24.8655 17.2815 9.117
42 1 3 0.67194 11.6665 3.81022 5.79712
43 1 3 0.67194 29.9325 14.3561 13.2542
44 1 3 0.67194 6.5995 6.73565 1.65994
45 1 3 -0.11508 27.399 19.957 14.1117
46 1 3 -0.11508 9.13299 1.13474 0.802379
47 1 3 -0.11508 27.399 11.6806 8.25944
48 1 3 -0.11508 9.13299 9.41113 6.65468
49 1 3 -0.11508 23.8152 13.7497 14.1117
50 1 3 -0.11508 12.7168 7.34203 0.802379
51 1 3 -0.11508 30.9828 17.8879 8.25944
52 1 3 -0.11508 5.54921 3.20384 6.65468
53 1 3 -0.11508 23.8152 17.8879 8.25944
54 1 3 -0.11508 12.7168 3.20384 6.65468
55 1 3 -0.11508 30.9828 13.7497 14.1117
56 1 3 -0.11508 5.54921 7.34203 0.802379
57 1 3 -0.0559 18.266 5.39949 13.5316
58 1 3 -0.0559 18.266 15.6923 1.38254
59 1 3 -0.055903 18.266 14.5575 0.580159
60 1 3 -0.055903 18.266 6.53422 14.334
61 1 3 -0.0559 26.1971 11.1132 7.85825
62 1 3 -0.0559 10.3349 9.9785 7.05587
63 1 3 -0.055903 10.3349 11.1132 7.85825
64 1 3 -0.055903 26.1971 9.9785 7.05587
65 1 3 -0.0559 14.7918 8.54005 0.580159
66 1 3 -0.0559 21.7402 12.5517 14.334
67 1 3 -0.055903 22.7229 13.1191 13.5316
68 1 3 -0.055903 13.8091 7.97268 1.38254
69 1 3 -0.0559 21.7402 3.39366 7.85825
70 1 3 -0.0559 14.7918 17.6981 7.05587
71 1 3 -0.055903 13.8091 17.1307 7.85825
72 1 3 -0.055903 22.7229 3.96103 7.05587
73 1 3 -0.055901 22.7229 17.1307 7.85825
74 1 3 -0.055901 13.8091 3.96103 7.05587
75 1 3 -0.055903 14.7918 3.39366 7.85825
76 1 3 -0.055903 21.7402 17.6981 7.05587
77 1 3 -0.0559 21.7402 8.54005 0.580159
78 1 3 -0.0559 14.7918 12.5517 14.334
79 1 3 -0.055903 13.8091 13.1191 13.5316
80 1 3 -0.055903 22.7229 7.97268 1.38254
81 1 4 -1.26215 27.399 15.8188 11.1856
82 1 4 -1.26215 9.13299 5.27293 3.72853
83 1 4 -0.60118 27.399 18.9383 11.9641
84 1 4 -0.60118 9.13299 2.15347 2.95001
85 1 4 -0.601179 27.399 17.5926 13.8671
86 1 4 -0.601179 9.13299 3.49912 1.04697
87 1 4 -0.601179 26.2336 13.3722 9.45555
88 1 4 -0.601179 10.2984 7.71958 5.45857
89 1 4 -0.60118 28.5643 13.3722 9.45555
90 1 4 -0.60118 7.96762 7.71958 5.45857
91 1 4 -0.60118 25.8628 14.9319 13.8671
92 1 4 -0.60118 10.6692 6.15984 1.04697
93 1 4 -0.601179 24.6974 14.2591 11.9641
94 1 4 -0.601179 11.8345 6.83267 2.95001
95 1 4 -0.60118 28.9351 18.0514 9.45555
96 1 4 -0.60118 7.59682 3.04037 5.45857
97 1 4 -0.601179 30.1005 16.0329 9.45555
98 1 4 -0.601179 6.43145 5.05885 5.45857
99 1 4 -0.601179 24.6974 16.0329 9.45555
100 1 4 -0.601179 11.8345 5.05885 5.45857
101 1 4 -0.60118 25.8628 18.0514 9.45555
102 1 4 -0.60118 10.6692 3.04037 5.45857
103 1 4 -0.60118 28.9351 14.9319 13.8671
104 1 4 -0.60118 7.59682 6.15984 1.04697
105 1 4 -0.60118 30.1005 14.2591 11.9641
106 1 4 -0.60118 6.43145 6.83267 2.95001
ITEM: TIMESTEP
6000
ITEM: NUMBER OF ATOMS
109
ITEM: BOX BOUNDS xy xz yz pp pp pp
0.0000000000000000e+00 3.6531964750000000e+01 9.1329911900000003e+00
0.0000000000000000e+00 2.1091739680000000e+01 9.1329911900000003e+00
0.0000000000000000e+00 1.4914112149999999e+01 5.2729349200000000e+00
ITEM: ATOMS id mol type q x y z
1 1 1 1.10383 27.399 17.6496 10.5383
2 1 1 1.10383 9.13299 3.44217 4.3758
3 1 1 1.10383 27.399 15.8188 13.1274
4 1 1 1.10383 9.13299 5.27293 1.78671
5 1 1 1.10383 25.8135 14.9034 10.5383
6 1 1 1.10383 10.7185 6.18832 4.3758
7 1 1 1.10383 28.9845 14.9034 10.5383
8 1 1 1.10383 7.5475 6.18832 4.3758
9 1 2 0.115889 18.266 5.48596 12.6084
10 1 2 0.115889 18.266 15.6058 2.30572
11 1 2 0.115888 18.266 13.716 0.969417
12 1 2 0.115888 18.266 7.37578 13.9447
13 1 2 0.11589 25.3934 11.4908 8.12521
14 1 2 0.11589 11.1386 9.60096 6.7889
15 1 2 0.115888 11.1386 11.4908 8.12521
16 1 2 0.115888 25.3934 9.60096 6.7889
17 1 2 0.115889 15.5206 8.96083 0.969417
18 1 2 0.115889 21.0114 12.1309 13.9447
19 1 2 0.115888 22.648 13.0758 12.6084
20 1 2 0.115888 13.884 8.01592 2.30572
21 1 2 0.115889 21.0114 3.90092 8.12521
22 1 2 0.115889 15.5206 17.1908 6.7889
23 1 2 0.115887 13.884 16.2459 8.12521
24 1 2 0.115887 22.648 4.84583 6.7889
25 1 2 0.115889 22.648 16.2459 8.12521
26 1 2 0.115889 13.884 4.84583 6.7889
27 1 2 0.115887 15.5206 3.90092 8.12521
28 1 2 0.115887 21.0114 17.1908 6.7889
29 1 2 0.115889 21.0114 8.96083 0.969417
30 1 2 0.115889 15.5206 12.1309 13.9447
31 1 2 0.115887 13.884 13.0758 12.6084
32 1 2 0.115887 22.648 8.01592 2.30572
33 1 3 0.671939 27.399 18.7442 13.2542
34 1 3 0.671939 9.13299 2.34751 1.65994
35 1 3 0.671939 27.399 12.8934 9.117
36 1 3 0.671939 9.13299 8.19836 5.79712
37 1 3 0.67194 24.8655 14.3561 13.2542
38 1 3 0.67194 11.6665 6.73565 1.65994
39 1 3 0.67194 29.9325 17.2815 9.117
40 1 3 0.67194 6.5995 3.81022 5.79712
41 1 3 0.67194 24.8655 17.2815 9.117
42 1 3 0.67194 11.6665 3.81022 5.79712
43 1 3 0.67194 29.9325 14.3561 13.2542
44 1 3 0.67194 6.5995 6.73565 1.65994
45 1 3 -0.11508 27.399 19.957 14.1117
46 1 3 -0.11508 9.13299 1.13474 0.802379
47 1 3 -0.11508 27.399 11.6806 8.25944
48 1 3 -0.11508 9.13299 9.41113 6.65468
49 1 3 -0.11508 23.8152 13.7497 14.1117
50 1 3 -0.11508 12.7168 7.34203 0.802379
51 1 3 -0.11508 30.9828 17.8879 8.25944
52 1 3 -0.11508 5.54921 3.20384 6.65468
53 1 3 -0.11508 23.8152 17.8879 8.25944
54 1 3 -0.11508 12.7168 3.20384 6.65468
55 1 3 -0.11508 30.9828 13.7497 14.1117
56 1 3 -0.11508 5.54921 7.34203 0.802379
57 1 3 -0.0559 18.266 5.39949 13.5316
58 1 3 -0.0559 18.266 15.6923 1.38254
59 1 3 -0.055903 18.266 14.5575 0.580159
60 1 3 -0.055903 18.266 6.53422 14.334
61 1 3 -0.0559 26.1971 11.1132 7.85825
62 1 3 -0.0559 10.3349 9.9785 7.05587
63 1 3 -0.055903 10.3349 11.1132 7.85825
64 1 3 -0.055903 26.1971 9.9785 7.05587
65 1 3 -0.0559 14.7918 8.54005 0.580159
66 1 3 -0.0559 21.7402 12.5517 14.334
67 1 3 -0.055903 22.7229 13.1191 13.5316
68 1 3 -0.055903 13.8091 7.97268 1.38254
69 1 3 -0.0559 21.7402 3.39366 7.85825
70 1 3 -0.0559 14.7918 17.6981 7.05587
71 1 3 -0.055903 13.8091 17.1307 7.85825
72 1 3 -0.055903 22.7229 3.96103 7.05587
73 1 3 -0.055901 22.7229 17.1307 7.85825
74 1 3 -0.055901 13.8091 3.96103 7.05587
75 1 3 -0.055903 14.7918 3.39366 7.85825
76 1 3 -0.055903 21.7402 17.6981 7.05587
77 1 3 -0.0559 21.7402 8.54005 0.580159
78 1 3 -0.0559 14.7918 12.5517 14.334
79 1 3 -0.055903 13.8091 13.1191 13.5316
80 1 3 -0.055903 22.7229 7.97268 1.38254
81 1 4 -1.26215 27.399 15.8188 11.1856
82 1 4 -1.26215 9.13299 5.27293 3.72853
83 1 4 -0.60118 27.399 18.9383 11.9641
84 1 4 -0.60118 9.13299 2.15347 2.95001
85 1 4 -0.601179 27.399 17.5926 13.8671
86 1 4 -0.601179 9.13299 3.49912 1.04697
87 1 4 -0.601179 26.2336 13.3722 9.45555
88 1 4 -0.601179 10.2984 7.71958 5.45857
89 1 4 -0.60118 28.5643 13.3722 9.45555
90 1 4 -0.60118 7.96762 7.71958 5.45857
91 1 4 -0.60118 25.8628 14.9319 13.8671
92 1 4 -0.60118 10.6692 6.15984 1.04697
93 1 4 -0.601179 24.6974 14.2591 11.9641
94 1 4 -0.601179 11.8345 6.83267 2.95001
95 1 4 -0.60118 28.9351 18.0514 9.45555
96 1 4 -0.60118 7.59682 3.04037 5.45857
97 1 4 -0.601179 30.1005 16.0329 9.45555
98 1 4 -0.601179 6.43145 5.05885 5.45857
99 1 4 -0.601179 24.6974 16.0329 9.45555
100 1 4 -0.601179 11.8345 5.05885 5.45857
101 1 4 -0.60118 25.8628 18.0514 9.45555
102 1 4 -0.60118 10.6692 3.04037 5.45857
103 1 4 -0.60118 28.9351 14.9319 13.8671
104 1 4 -0.60118 7.59682 6.15984 1.04697
105 1 4 -0.60118 30.1005 14.2591 11.9641
106 1 4 -0.60118 6.43145 6.83267 2.95001
110 3 5 -0.35 8.73199 5.47733 9.67111
111 3 6 0.7 8.76712 5.44506 8.51209
112 3 5 -0.35 8.80224 5.41278 7.35308
ITEM: TIMESTEP
7000
ITEM: NUMBER OF ATOMS
106
ITEM: BOX BOUNDS xy xz yz pp pp pp
0.0000000000000000e+00 3.6531964750000000e+01 9.1329911900000003e+00
0.0000000000000000e+00 2.1091739680000000e+01 9.1329911900000003e+00
0.0000000000000000e+00 1.4914112149999999e+01 5.2729349200000000e+00
ITEM: ATOMS id mol type q x y z
1 1 1 1.10383 27.399 17.6496 10.5383
2 1 1 1.10383 9.13299 3.44217 4.3758
3 1 1 1.10383 27.399 15.8188 13.1274
4 1 1 1.10383 9.13299 5.27293 1.78671
5 1 1 1.10383 25.8135 14.9034 10.5383
6 1 1 1.10383 10.7185 6.18832 4.3758
7 1 1 1.10383 28.9845 14.9034 10.5383
8 1 1 1.10383 7.5475 6.18832 4.3758
9 1 2 0.115889 18.266 5.48596 12.6084
10 1 2 0.115889 18.266 15.6058 2.30572
11 1 2 0.115888 18.266 13.716 0.969417
12 1 2 0.115888 18.266 7.37578 13.9447
13 1 2 0.11589 25.3934 11.4908 8.12521
14 1 2 0.11589 11.1386 9.60096 6.7889
15 1 2 0.115888 11.1386 11.4908 8.12521
16 1 2 0.115888 25.3934 9.60096 6.7889
17 1 2 0.115889 15.5206 8.96083 0.969417
18 1 2 0.115889 21.0114 12.1309 13.9447
19 1 2 0.115888 22.648 13.0758 12.6084
20 1 2 0.115888 13.884 8.01592 2.30572
21 1 2 0.115889 21.0114 3.90092 8.12521
22 1 2 0.115889 15.5206 17.1908 6.7889
23 1 2 0.115887 13.884 16.2459 8.12521
24 1 2 0.115887 22.648 4.84583 6.7889
25 1 2 0.115889 22.648 16.2459 8.12521
26 1 2 0.115889 13.884 4.84583 6.7889
27 1 2 0.115887 15.5206 3.90092 8.12521
28 1 2 0.115887 21.0114 17.1908 6.7889
29 1 2 0.115889 21.0114 8.96083 0.969417
30 1 2 0.115889 15.5206 12.1309 13.9447
31 1 2 0.115887 13.884 13.0758 12.6084
32 1 2 0.115887 22.648 8.01592 2.30572
33 1 3 0.671939 27.399 18.7442 13.2542
34 1 3 0.671939 9.13299 2.34751 1.65994
35 1 3 0.671939 27.399 12.8934 9.117
36 1 3 0.671939 9.13299 8.19836 5.79712
37 1 3 0.67194 24.8655 14.3561 13.2542
38 1 3 0.67194 11.6665 6.73565 1.65994
39 1 3 0.67194 29.9325 17.2815 9.117
40 1 3 0.67194 6.5995 3.81022 5.79712
41 1 3 0.67194 24.8655 17.2815 9.117
42 1 3 0.67194 11.6665 3.81022 5.79712
43 1 3 0.67194 29.9325 14.3561 13.2542
44 1 3 0.67194 6.5995 6.73565 1.65994
45 1 3 -0.11508 27.399 19.957 14.1117
46 1 3 -0.11508 9.13299 1.13474 0.802379
47 1 3 -0.11508 27.399 11.6806 8.25944
48 1 3 -0.11508 9.13299 9.41113 6.65468
49 1 3 -0.11508 23.8152 13.7497 14.1117
50 1 3 -0.11508 12.7168 7.34203 0.802379
51 1 3 -0.11508 30.9828 17.8879 8.25944
52 1 3 -0.11508 5.54921 3.20384 6.65468
53 1 3 -0.11508 23.8152 17.8879 8.25944
54 1 3 -0.11508 12.7168 3.20384 6.65468
55 1 3 -0.11508 30.9828 13.7497 14.1117
56 1 3 -0.11508 5.54921 7.34203 0.802379
57 1 3 -0.0559 18.266 5.39949 13.5316
58 1 3 -0.0559 18.266 15.6923 1.38254
59 1 3 -0.055903 18.266 14.5575 0.580159
60 1 3 -0.055903 18.266 6.53422 14.334
61 1 3 -0.0559 26.1971 11.1132 7.85825
62 1 3 -0.0559 10.3349 9.9785 7.05587
63 1 3 -0.055903 10.3349 11.1132 7.85825
64 1 3 -0.055903 26.1971 9.9785 7.05587
65 1 3 -0.0559 14.7918 8.54005 0.580159
66 1 3 -0.0559 21.7402 12.5517 14.334
67 1 3 -0.055903 22.7229 13.1191 13.5316
68 1 3 -0.055903 13.8091 7.97268 1.38254
69 1 3 -0.0559 21.7402 3.39366 7.85825
70 1 3 -0.0559 14.7918 17.6981 7.05587
71 1 3 -0.055903 13.8091 17.1307 7.85825
72 1 3 -0.055903 22.7229 3.96103 7.05587
73 1 3 -0.055901 22.7229 17.1307 7.85825
74 1 3 -0.055901 13.8091 3.96103 7.05587
75 1 3 -0.055903 14.7918 3.39366 7.85825
76 1 3 -0.055903 21.7402 17.6981 7.05587
77 1 3 -0.0559 21.7402 8.54005 0.580159
78 1 3 -0.0559 14.7918 12.5517 14.334
79 1 3 -0.055903 13.8091 13.1191 13.5316
80 1 3 -0.055903 22.7229 7.97268 1.38254
81 1 4 -1.26215 27.399 15.8188 11.1856
82 1 4 -1.26215 9.13299 5.27293 3.72853
83 1 4 -0.60118 27.399 18.9383 11.9641
84 1 4 -0.60118 9.13299 2.15347 2.95001
85 1 4 -0.601179 27.399 17.5926 13.8671
86 1 4 -0.601179 9.13299 3.49912 1.04697
87 1 4 -0.601179 26.2336 13.3722 9.45555
88 1 4 -0.601179 10.2984 7.71958 5.45857
89 1 4 -0.60118 28.5643 13.3722 9.45555
90 1 4 -0.60118 7.96762 7.71958 5.45857
91 1 4 -0.60118 25.8628 14.9319 13.8671
92 1 4 -0.60118 10.6692 6.15984 1.04697
93 1 4 -0.601179 24.6974 14.2591 11.9641
94 1 4 -0.601179 11.8345 6.83267 2.95001
95 1 4 -0.60118 28.9351 18.0514 9.45555
96 1 4 -0.60118 7.59682 3.04037 5.45857
97 1 4 -0.601179 30.1005 16.0329 9.45555
98 1 4 -0.601179 6.43145 5.05885 5.45857
99 1 4 -0.601179 24.6974 16.0329 9.45555
100 1 4 -0.601179 11.8345 5.05885 5.45857
101 1 4 -0.60118 25.8628 18.0514 9.45555
102 1 4 -0.60118 10.6692 3.04037 5.45857
103 1 4 -0.60118 28.9351 14.9319 13.8671
104 1 4 -0.60118 7.59682 6.15984 1.04697
105 1 4 -0.60118 30.1005 14.2591 11.9641
106 1 4 -0.60118 6.43145 6.83267 2.95001
ITEM: TIMESTEP
8000
ITEM: NUMBER OF ATOMS
106
ITEM: BOX BOUNDS xy xz yz pp pp pp
0.0000000000000000e+00 3.6531964750000000e+01 9.1329911900000003e+00
0.0000000000000000e+00 2.1091739680000000e+01 9.1329911900000003e+00
0.0000000000000000e+00 1.4914112149999999e+01 5.2729349200000000e+00
ITEM: ATOMS id mol type q x y z
1 1 1 1.10383 27.399 17.6496 10.5383
2 1 1 1.10383 9.13299 3.44217 4.3758
3 1 1 1.10383 27.399 15.8188 13.1274
4 1 1 1.10383 9.13299 5.27293 1.78671
5 1 1 1.10383 25.8135 14.9034 10.5383
6 1 1 1.10383 10.7185 6.18832 4.3758
7 1 1 1.10383 28.9845 14.9034 10.5383
8 1 1 1.10383 7.5475 6.18832 4.3758
9 1 2 0.115889 18.266 5.48596 12.6084
10 1 2 0.115889 18.266 15.6058 2.30572
11 1 2 0.115888 18.266 13.716 0.969417
12 1 2 0.115888 18.266 7.37578 13.9447
13 1 2 0.11589 25.3934 11.4908 8.12521
14 1 2 0.11589 11.1386 9.60096 6.7889
15 1 2 0.115888 11.1386 11.4908 8.12521
16 1 2 0.115888 25.3934 9.60096 6.7889
17 1 2 0.115889 15.5206 8.96083 0.969417
18 1 2 0.115889 21.0114 12.1309 13.9447
19 1 2 0.115888 22.648 13.0758 12.6084
20 1 2 0.115888 13.884 8.01592 2.30572
21 1 2 0.115889 21.0114 3.90092 8.12521
22 1 2 0.115889 15.5206 17.1908 6.7889
23 1 2 0.115887 13.884 16.2459 8.12521
24 1 2 0.115887 22.648 4.84583 6.7889
25 1 2 0.115889 22.648 16.2459 8.12521
26 1 2 0.115889 13.884 4.84583 6.7889
27 1 2 0.115887 15.5206 3.90092 8.12521
28 1 2 0.115887 21.0114 17.1908 6.7889
29 1 2 0.115889 21.0114 8.96083 0.969417
30 1 2 0.115889 15.5206 12.1309 13.9447
31 1 2 0.115887 13.884 13.0758 12.6084
32 1 2 0.115887 22.648 8.01592 2.30572
33 1 3 0.671939 27.399 18.7442 13.2542
34 1 3 0.671939 9.13299 2.34751 1.65994
35 1 3 0.671939 27.399 12.8934 9.117
36 1 3 0.671939 9.13299 8.19836 5.79712
37 1 3 0.67194 24.8655 14.3561 13.2542
38 1 3 0.67194 11.6665 6.73565 1.65994
39 1 3 0.67194 29.9325 17.2815 9.117
40 1 3 0.67194 6.5995 3.81022 5.79712
41 1 3 0.67194 24.8655 17.2815 9.117
42 1 3 0.67194 11.6665 3.81022 5.79712
43 1 3 0.67194 29.9325 14.3561 13.2542
44 1 3 0.67194 6.5995 6.73565 1.65994
45 1 3 -0.11508 27.399 19.957 14.1117
46 1 3 -0.11508 9.13299 1.13474 0.802379
47 1 3 -0.11508 27.399 11.6806 8.25944
48 1 3 -0.11508 9.13299 9.41113 6.65468
49 1 3 -0.11508 23.8152 13.7497 14.1117
50 1 3 -0.11508 12.7168 7.34203 0.802379
51 1 3 -0.11508 30.9828 17.8879 8.25944
52 1 3 -0.11508 5.54921 3.20384 6.65468
53 1 3 -0.11508 23.8152 17.8879 8.25944
54 1 3 -0.11508 12.7168 3.20384 6.65468
55 1 3 -0.11508 30.9828 13.7497 14.1117
56 1 3 -0.11508 5.54921 7.34203 0.802379
57 1 3 -0.0559 18.266 5.39949 13.5316
58 1 3 -0.0559 18.266 15.6923 1.38254
59 1 3 -0.055903 18.266 14.5575 0.580159
60 1 3 -0.055903 18.266 6.53422 14.334
61 1 3 -0.0559 26.1971 11.1132 7.85825
62 1 3 -0.0559 10.3349 9.9785 7.05587
63 1 3 -0.055903 10.3349 11.1132 7.85825
64 1 3 -0.055903 26.1971 9.9785 7.05587
65 1 3 -0.0559 14.7918 8.54005 0.580159
66 1 3 -0.0559 21.7402 12.5517 14.334
67 1 3 -0.055903 22.7229 13.1191 13.5316
68 1 3 -0.055903 13.8091 7.97268 1.38254
69 1 3 -0.0559 21.7402 3.39366 7.85825
70 1 3 -0.0559 14.7918 17.6981 7.05587
71 1 3 -0.055903 13.8091 17.1307 7.85825
72 1 3 -0.055903 22.7229 3.96103 7.05587
73 1 3 -0.055901 22.7229 17.1307 7.85825
74 1 3 -0.055901 13.8091 3.96103 7.05587
75 1 3 -0.055903 14.7918 3.39366 7.85825
76 1 3 -0.055903 21.7402 17.6981 7.05587
77 1 3 -0.0559 21.7402 8.54005 0.580159
78 1 3 -0.0559 14.7918 12.5517 14.334
79 1 3 -0.055903 13.8091 13.1191 13.5316
80 1 3 -0.055903 22.7229 7.97268 1.38254
81 1 4 -1.26215 27.399 15.8188 11.1856
82 1 4 -1.26215 9.13299 5.27293 3.72853
83 1 4 -0.60118 27.399 18.9383 11.9641
84 1 4 -0.60118 9.13299 2.15347 2.95001
85 1 4 -0.601179 27.399 17.5926 13.8671
86 1 4 -0.601179 9.13299 3.49912 1.04697
87 1 4 -0.601179 26.2336 13.3722 9.45555
88 1 4 -0.601179 10.2984 7.71958 5.45857
89 1 4 -0.60118 28.5643 13.3722 9.45555
90 1 4 -0.60118 7.96762 7.71958 5.45857
91 1 4 -0.60118 25.8628 14.9319 13.8671
92 1 4 -0.60118 10.6692 6.15984 1.04697
93 1 4 -0.601179 24.6974 14.2591 11.9641
94 1 4 -0.601179 11.8345 6.83267 2.95001
95 1 4 -0.60118 28.9351 18.0514 9.45555
96 1 4 -0.60118 7.59682 3.04037 5.45857
97 1 4 -0.601179 30.1005 16.0329 9.45555
98 1 4 -0.601179 6.43145 5.05885 5.45857
99 1 4 -0.601179 24.6974 16.0329 9.45555
100 1 4 -0.601179 11.8345 5.05885 5.45857
101 1 4 -0.60118 25.8628 18.0514 9.45555
102 1 4 -0.60118 10.6692 3.04037 5.45857
103 1 4 -0.60118 28.9351 14.9319 13.8671
104 1 4 -0.60118 7.59682 6.15984 1.04697
105 1 4 -0.60118 30.1005 14.2591 11.9641
106 1 4 -0.60118 6.43145 6.83267 2.95001
ITEM: TIMESTEP
9000
ITEM: NUMBER OF ATOMS
109
ITEM: BOX BOUNDS xy xz yz pp pp pp
0.0000000000000000e+00 3.6531964750000000e+01 9.1329911900000003e+00
0.0000000000000000e+00 2.1091739680000000e+01 9.1329911900000003e+00
0.0000000000000000e+00 1.4914112149999999e+01 5.2729349200000000e+00
ITEM: ATOMS id mol type q x y z
1 1 1 1.10383 27.399 17.6496 10.5383
2 1 1 1.10383 9.13299 3.44217 4.3758
3 1 1 1.10383 27.399 15.8188 13.1274
4 1 1 1.10383 9.13299 5.27293 1.78671
5 1 1 1.10383 25.8135 14.9034 10.5383
6 1 1 1.10383 10.7185 6.18832 4.3758
7 1 1 1.10383 28.9845 14.9034 10.5383
8 1 1 1.10383 7.5475 6.18832 4.3758
9 1 2 0.115889 18.266 5.48596 12.6084
10 1 2 0.115889 18.266 15.6058 2.30572
11 1 2 0.115888 18.266 13.716 0.969417
12 1 2 0.115888 18.266 7.37578 13.9447
13 1 2 0.11589 25.3934 11.4908 8.12521
14 1 2 0.11589 11.1386 9.60096 6.7889
15 1 2 0.115888 11.1386 11.4908 8.12521
16 1 2 0.115888 25.3934 9.60096 6.7889
17 1 2 0.115889 15.5206 8.96083 0.969417
18 1 2 0.115889 21.0114 12.1309 13.9447
19 1 2 0.115888 22.648 13.0758 12.6084
20 1 2 0.115888 13.884 8.01592 2.30572
21 1 2 0.115889 21.0114 3.90092 8.12521
22 1 2 0.115889 15.5206 17.1908 6.7889
23 1 2 0.115887 13.884 16.2459 8.12521
24 1 2 0.115887 22.648 4.84583 6.7889
25 1 2 0.115889 22.648 16.2459 8.12521
26 1 2 0.115889 13.884 4.84583 6.7889
27 1 2 0.115887 15.5206 3.90092 8.12521
28 1 2 0.115887 21.0114 17.1908 6.7889
29 1 2 0.115889 21.0114 8.96083 0.969417
30 1 2 0.115889 15.5206 12.1309 13.9447
31 1 2 0.115887 13.884 13.0758 12.6084
32 1 2 0.115887 22.648 8.01592 2.30572
33 1 3 0.671939 27.399 18.7442 13.2542
34 1 3 0.671939 9.13299 2.34751 1.65994
35 1 3 0.671939 27.399 12.8934 9.117
36 1 3 0.671939 9.13299 8.19836 5.79712
37 1 3 0.67194 24.8655 14.3561 13.2542
38 1 3 0.67194 11.6665 6.73565 1.65994
39 1 3 0.67194 29.9325 17.2815 9.117
40 1 3 0.67194 6.5995 3.81022 5.79712
41 1 3 0.67194 24.8655 17.2815 9.117
42 1 3 0.67194 11.6665 3.81022 5.79712
43 1 3 0.67194 29.9325 14.3561 13.2542
44 1 3 0.67194 6.5995 6.73565 1.65994
45 1 3 -0.11508 27.399 19.957 14.1117
46 1 3 -0.11508 9.13299 1.13474 0.802379
47 1 3 -0.11508 27.399 11.6806 8.25944
48 1 3 -0.11508 9.13299 9.41113 6.65468
49 1 3 -0.11508 23.8152 13.7497 14.1117
50 1 3 -0.11508 12.7168 7.34203 0.802379
51 1 3 -0.11508 30.9828 17.8879 8.25944
52 1 3 -0.11508 5.54921 3.20384 6.65468
53 1 3 -0.11508 23.8152 17.8879 8.25944
54 1 3 -0.11508 12.7168 3.20384 6.65468
55 1 3 -0.11508 30.9828 13.7497 14.1117
56 1 3 -0.11508 5.54921 7.34203 0.802379
57 1 3 -0.0559 18.266 5.39949 13.5316
58 1 3 -0.0559 18.266 15.6923 1.38254
59 1 3 -0.055903 18.266 14.5575 0.580159
60 1 3 -0.055903 18.266 6.53422 14.334
61 1 3 -0.0559 26.1971 11.1132 7.85825
62 1 3 -0.0559 10.3349 9.9785 7.05587
63 1 3 -0.055903 10.3349 11.1132 7.85825
64 1 3 -0.055903 26.1971 9.9785 7.05587
65 1 3 -0.0559 14.7918 8.54005 0.580159
66 1 3 -0.0559 21.7402 12.5517 14.334
67 1 3 -0.055903 22.7229 13.1191 13.5316
68 1 3 -0.055903 13.8091 7.97268 1.38254
69 1 3 -0.0559 21.7402 3.39366 7.85825
70 1 3 -0.0559 14.7918 17.6981 7.05587
71 1 3 -0.055903 13.8091 17.1307 7.85825
72 1 3 -0.055903 22.7229 3.96103 7.05587
73 1 3 -0.055901 22.7229 17.1307 7.85825
74 1 3 -0.055901 13.8091 3.96103 7.05587
75 1 3 -0.055903 14.7918 3.39366 7.85825
76 1 3 -0.055903 21.7402 17.6981 7.05587
77 1 3 -0.0559 21.7402 8.54005 0.580159
78 1 3 -0.0559 14.7918 12.5517 14.334
79 1 3 -0.055903 13.8091 13.1191 13.5316
80 1 3 -0.055903 22.7229 7.97268 1.38254
81 1 4 -1.26215 27.399 15.8188 11.1856
82 1 4 -1.26215 9.13299 5.27293 3.72853
83 1 4 -0.60118 27.399 18.9383 11.9641
84 1 4 -0.60118 9.13299 2.15347 2.95001
85 1 4 -0.601179 27.399 17.5926 13.8671
86 1 4 -0.601179 9.13299 3.49912 1.04697
87 1 4 -0.601179 26.2336 13.3722 9.45555
88 1 4 -0.601179 10.2984 7.71958 5.45857
89 1 4 -0.60118 28.5643 13.3722 9.45555
90 1 4 -0.60118 7.96762 7.71958 5.45857
91 1 4 -0.60118 25.8628 14.9319 13.8671
92 1 4 -0.60118 10.6692 6.15984 1.04697
93 1 4 -0.601179 24.6974 14.2591 11.9641
94 1 4 -0.601179 11.8345 6.83267 2.95001
95 1 4 -0.60118 28.9351 18.0514 9.45555
96 1 4 -0.60118 7.59682 3.04037 5.45857
97 1 4 -0.601179 30.1005 16.0329 9.45555
98 1 4 -0.601179 6.43145 5.05885 5.45857
99 1 4 -0.601179 24.6974 16.0329 9.45555
100 1 4 -0.601179 11.8345 5.05885 5.45857
101 1 4 -0.60118 25.8628 18.0514 9.45555
102 1 4 -0.60118 10.6692 3.04037 5.45857
103 1 4 -0.60118 28.9351 14.9319 13.8671
104 1 4 -0.60118 7.59682 6.15984 1.04697
105 1 4 -0.60118 30.1005 14.2591 11.9641
106 1 4 -0.60118 6.43145 6.83267 2.95001
107 2 5 -0.35 9.75538 4.89817 12.2588
108 2 6 0.7 10.6639 4.48382 11.6685
109 2 5 -0.35 11.5724 4.06947 11.0781
ITEM: TIMESTEP
10000
ITEM: NUMBER OF ATOMS
109
ITEM: BOX BOUNDS xy xz yz pp pp pp
0.0000000000000000e+00 3.6531964750000000e+01 9.1329911900000003e+00
0.0000000000000000e+00 2.1091739680000000e+01 9.1329911900000003e+00
0.0000000000000000e+00 1.4914112149999999e+01 5.2729349200000000e+00
ITEM: ATOMS id mol type q x y z
1 1 1 1.10383 27.399 17.6496 10.5383
2 1 1 1.10383 9.13299 3.44217 4.3758
3 1 1 1.10383 27.399 15.8188 13.1274
4 1 1 1.10383 9.13299 5.27293 1.78671
5 1 1 1.10383 25.8135 14.9034 10.5383
6 1 1 1.10383 10.7185 6.18832 4.3758
7 1 1 1.10383 28.9845 14.9034 10.5383
8 1 1 1.10383 7.5475 6.18832 4.3758
9 1 2 0.115889 18.266 5.48596 12.6084
10 1 2 0.115889 18.266 15.6058 2.30572
11 1 2 0.115888 18.266 13.716 0.969417
12 1 2 0.115888 18.266 7.37578 13.9447
13 1 2 0.11589 25.3934 11.4908 8.12521
14 1 2 0.11589 11.1386 9.60096 6.7889
15 1 2 0.115888 11.1386 11.4908 8.12521
16 1 2 0.115888 25.3934 9.60096 6.7889
17 1 2 0.115889 15.5206 8.96083 0.969417
18 1 2 0.115889 21.0114 12.1309 13.9447
19 1 2 0.115888 22.648 13.0758 12.6084
20 1 2 0.115888 13.884 8.01592 2.30572
21 1 2 0.115889 21.0114 3.90092 8.12521
22 1 2 0.115889 15.5206 17.1908 6.7889
23 1 2 0.115887 13.884 16.2459 8.12521
24 1 2 0.115887 22.648 4.84583 6.7889
25 1 2 0.115889 22.648 16.2459 8.12521
26 1 2 0.115889 13.884 4.84583 6.7889
27 1 2 0.115887 15.5206 3.90092 8.12521
28 1 2 0.115887 21.0114 17.1908 6.7889
29 1 2 0.115889 21.0114 8.96083 0.969417
30 1 2 0.115889 15.5206 12.1309 13.9447
31 1 2 0.115887 13.884 13.0758 12.6084
32 1 2 0.115887 22.648 8.01592 2.30572
33 1 3 0.671939 27.399 18.7442 13.2542
34 1 3 0.671939 9.13299 2.34751 1.65994
35 1 3 0.671939 27.399 12.8934 9.117
36 1 3 0.671939 9.13299 8.19836 5.79712
37 1 3 0.67194 24.8655 14.3561 13.2542
38 1 3 0.67194 11.6665 6.73565 1.65994
39 1 3 0.67194 29.9325 17.2815 9.117
40 1 3 0.67194 6.5995 3.81022 5.79712
41 1 3 0.67194 24.8655 17.2815 9.117
42 1 3 0.67194 11.6665 3.81022 5.79712
43 1 3 0.67194 29.9325 14.3561 13.2542
44 1 3 0.67194 6.5995 6.73565 1.65994
45 1 3 -0.11508 27.399 19.957 14.1117
46 1 3 -0.11508 9.13299 1.13474 0.802379
47 1 3 -0.11508 27.399 11.6806 8.25944
48 1 3 -0.11508 9.13299 9.41113 6.65468
49 1 3 -0.11508 23.8152 13.7497 14.1117
50 1 3 -0.11508 12.7168 7.34203 0.802379
51 1 3 -0.11508 30.9828 17.8879 8.25944
52 1 3 -0.11508 5.54921 3.20384 6.65468
53 1 3 -0.11508 23.8152 17.8879 8.25944
54 1 3 -0.11508 12.7168 3.20384 6.65468
55 1 3 -0.11508 30.9828 13.7497 14.1117
56 1 3 -0.11508 5.54921 7.34203 0.802379
57 1 3 -0.0559 18.266 5.39949 13.5316
58 1 3 -0.0559 18.266 15.6923 1.38254
59 1 3 -0.055903 18.266 14.5575 0.580159
60 1 3 -0.055903 18.266 6.53422 14.334
61 1 3 -0.0559 26.1971 11.1132 7.85825
62 1 3 -0.0559 10.3349 9.9785 7.05587
63 1 3 -0.055903 10.3349 11.1132 7.85825
64 1 3 -0.055903 26.1971 9.9785 7.05587
65 1 3 -0.0559 14.7918 8.54005 0.580159
66 1 3 -0.0559 21.7402 12.5517 14.334
67 1 3 -0.055903 22.7229 13.1191 13.5316
68 1 3 -0.055903 13.8091 7.97268 1.38254
69 1 3 -0.0559 21.7402 3.39366 7.85825
70 1 3 -0.0559 14.7918 17.6981 7.05587
71 1 3 -0.055903 13.8091 17.1307 7.85825
72 1 3 -0.055903 22.7229 3.96103 7.05587
73 1 3 -0.055901 22.7229 17.1307 7.85825
74 1 3 -0.055901 13.8091 3.96103 7.05587
75 1 3 -0.055903 14.7918 3.39366 7.85825
76 1 3 -0.055903 21.7402 17.6981 7.05587
77 1 3 -0.0559 21.7402 8.54005 0.580159
78 1 3 -0.0559 14.7918 12.5517 14.334
79 1 3 -0.055903 13.8091 13.1191 13.5316
80 1 3 -0.055903 22.7229 7.97268 1.38254
81 1 4 -1.26215 27.399 15.8188 11.1856
82 1 4 -1.26215 9.13299 5.27293 3.72853
83 1 4 -0.60118 27.399 18.9383 11.9641
84 1 4 -0.60118 9.13299 2.15347 2.95001
85 1 4 -0.601179 27.399 17.5926 13.8671
86 1 4 -0.601179 9.13299 3.49912 1.04697
87 1 4 -0.601179 26.2336 13.3722 9.45555
88 1 4 -0.601179 10.2984 7.71958 5.45857
89 1 4 -0.60118 28.5643 13.3722 9.45555
90 1 4 -0.60118 7.96762 7.71958 5.45857
91 1 4 -0.60118 25.8628 14.9319 13.8671
92 1 4 -0.60118 10.6692 6.15984 1.04697
93 1 4 -0.601179 24.6974 14.2591 11.9641
94 1 4 -0.601179 11.8345 6.83267 2.95001
95 1 4 -0.60118 28.9351 18.0514 9.45555
96 1 4 -0.60118 7.59682 3.04037 5.45857
97 1 4 -0.601179 30.1005 16.0329 9.45555
98 1 4 -0.601179 6.43145 5.05885 5.45857
99 1 4 -0.601179 24.6974 16.0329 9.45555
100 1 4 -0.601179 11.8345 5.05885 5.45857
101 1 4 -0.60118 25.8628 18.0514 9.45555
102 1 4 -0.60118 10.6692 3.04037 5.45857
103 1 4 -0.60118 28.9351 14.9319 13.8671
104 1 4 -0.60118 7.59682 6.15984 1.04697
105 1 4 -0.60118 30.1005 14.2591 11.9641
106 1 4 -0.60118 6.43145 6.83267 2.95001
107 2 5 -0.35 21.1945 17.0705 13.4292
108 2 6 0.7 21.277 16.8444 12.2945
109 2 5 -0.35 21.3596 16.6183 11.1597
ITEM: TIMESTEP
11000
ITEM: NUMBER OF ATOMS
109
ITEM: BOX BOUNDS xy xz yz pp pp pp
0.0000000000000000e+00 3.6531964750000000e+01 9.1329911900000003e+00
0.0000000000000000e+00 2.1091739680000000e+01 9.1329911900000003e+00
0.0000000000000000e+00 1.4914112149999999e+01 5.2729349200000000e+00
ITEM: ATOMS id mol type q x y z
1 1 1 1.10383 27.399 17.6496 10.5383
2 1 1 1.10383 9.13299 3.44217 4.3758
3 1 1 1.10383 27.399 15.8188 13.1274
4 1 1 1.10383 9.13299 5.27293 1.78671
5 1 1 1.10383 25.8135 14.9034 10.5383
6 1 1 1.10383 10.7185 6.18832 4.3758
7 1 1 1.10383 28.9845 14.9034 10.5383
8 1 1 1.10383 7.5475 6.18832 4.3758
9 1 2 0.115889 18.266 5.48596 12.6084
10 1 2 0.115889 18.266 15.6058 2.30572
11 1 2 0.115888 18.266 13.716 0.969417
12 1 2 0.115888 18.266 7.37578 13.9447
13 1 2 0.11589 25.3934 11.4908 8.12521
14 1 2 0.11589 11.1386 9.60096 6.7889
15 1 2 0.115888 11.1386 11.4908 8.12521
16 1 2 0.115888 25.3934 9.60096 6.7889
17 1 2 0.115889 15.5206 8.96083 0.969417
18 1 2 0.115889 21.0114 12.1309 13.9447
19 1 2 0.115888 22.648 13.0758 12.6084
20 1 2 0.115888 13.884 8.01592 2.30572
21 1 2 0.115889 21.0114 3.90092 8.12521
22 1 2 0.115889 15.5206 17.1908 6.7889
23 1 2 0.115887 13.884 16.2459 8.12521
24 1 2 0.115887 22.648 4.84583 6.7889
25 1 2 0.115889 22.648 16.2459 8.12521
26 1 2 0.115889 13.884 4.84583 6.7889
27 1 2 0.115887 15.5206 3.90092 8.12521
28 1 2 0.115887 21.0114 17.1908 6.7889
29 1 2 0.115889 21.0114 8.96083 0.969417
30 1 2 0.115889 15.5206 12.1309 13.9447
31 1 2 0.115887 13.884 13.0758 12.6084
32 1 2 0.115887 22.648 8.01592 2.30572
33 1 3 0.671939 27.399 18.7442 13.2542
34 1 3 0.671939 9.13299 2.34751 1.65994
35 1 3 0.671939 27.399 12.8934 9.117
36 1 3 0.671939 9.13299 8.19836 5.79712
37 1 3 0.67194 24.8655 14.3561 13.2542
38 1 3 0.67194 11.6665 6.73565 1.65994
39 1 3 0.67194 29.9325 17.2815 9.117
40 1 3 0.67194 6.5995 3.81022 5.79712
41 1 3 0.67194 24.8655 17.2815 9.117
42 1 3 0.67194 11.6665 3.81022 5.79712
43 1 3 0.67194 29.9325 14.3561 13.2542
44 1 3 0.67194 6.5995 6.73565 1.65994
45 1 3 -0.11508 27.399 19.957 14.1117
46 1 3 -0.11508 9.13299 1.13474 0.802379
47 1 3 -0.11508 27.399 11.6806 8.25944
48 1 3 -0.11508 9.13299 9.41113 6.65468
49 1 3 -0.11508 23.8152 13.7497 14.1117
50 1 3 -0.11508 12.7168 7.34203 0.802379
51 1 3 -0.11508 30.9828 17.8879 8.25944
52 1 3 -0.11508 5.54921 3.20384 6.65468
53 1 3 -0.11508 23.8152 17.8879 8.25944
54 1 3 -0.11508 12.7168 3.20384 6.65468
55 1 3 -0.11508 30.9828 13.7497 14.1117
56 1 3 -0.11508 5.54921 7.34203 0.802379
57 1 3 -0.0559 18.266 5.39949 13.5316
58 1 3 -0.0559 18.266 15.6923 1.38254
59 1 3 -0.055903 18.266 14.5575 0.580159
60 1 3 -0.055903 18.266 6.53422 14.334
61 1 3 -0.0559 26.1971 11.1132 7.85825
62 1 3 -0.0559 10.3349 9.9785 7.05587
63 1 3 -0.055903 10.3349 11.1132 7.85825
64 1 3 -0.055903 26.1971 9.9785 7.05587
65 1 3 -0.0559 14.7918 8.54005 0.580159
66 1 3 -0.0559 21.7402 12.5517 14.334
67 1 3 -0.055903 22.7229 13.1191 13.5316
68 1 3 -0.055903 13.8091 7.97268 1.38254
69 1 3 -0.0559 21.7402 3.39366 7.85825
70 1 3 -0.0559 14.7918 17.6981 7.05587
71 1 3 -0.055903 13.8091 17.1307 7.85825
72 1 3 -0.055903 22.7229 3.96103 7.05587
73 1 3 -0.055901 22.7229 17.1307 7.85825
74 1 3 -0.055901 13.8091 3.96103 7.05587
75 1 3 -0.055903 14.7918 3.39366 7.85825
76 1 3 -0.055903 21.7402 17.6981 7.05587
77 1 3 -0.0559 21.7402 8.54005 0.580159
78 1 3 -0.0559 14.7918 12.5517 14.334
79 1 3 -0.055903 13.8091 13.1191 13.5316
80 1 3 -0.055903 22.7229 7.97268 1.38254
81 1 4 -1.26215 27.399 15.8188 11.1856
82 1 4 -1.26215 9.13299 5.27293 3.72853
83 1 4 -0.60118 27.399 18.9383 11.9641
84 1 4 -0.60118 9.13299 2.15347 2.95001
85 1 4 -0.601179 27.399 17.5926 13.8671
86 1 4 -0.601179 9.13299 3.49912 1.04697
87 1 4 -0.601179 26.2336 13.3722 9.45555
88 1 4 -0.601179 10.2984 7.71958 5.45857
89 1 4 -0.60118 28.5643 13.3722 9.45555
90 1 4 -0.60118 7.96762 7.71958 5.45857
91 1 4 -0.60118 25.8628 14.9319 13.8671
92 1 4 -0.60118 10.6692 6.15984 1.04697
93 1 4 -0.601179 24.6974 14.2591 11.9641
94 1 4 -0.601179 11.8345 6.83267 2.95001
95 1 4 -0.60118 28.9351 18.0514 9.45555
96 1 4 -0.60118 7.59682 3.04037 5.45857
97 1 4 -0.601179 30.1005 16.0329 9.45555
98 1 4 -0.601179 6.43145 5.05885 5.45857
99 1 4 -0.601179 24.6974 16.0329 9.45555
100 1 4 -0.601179 11.8345 5.05885 5.45857
101 1 4 -0.60118 25.8628 18.0514 9.45555
102 1 4 -0.60118 10.6692 3.04037 5.45857
103 1 4 -0.60118 28.9351 14.9319 13.8671
104 1 4 -0.60118 7.59682 6.15984 1.04697
105 1 4 -0.60118 30.1005 14.2591 11.9641
106 1 4 -0.60118 6.43145 6.83267 2.95001
107 2 5 -0.35 14.5976 15.295 1.19737
108 2 6 0.7 13.5709 15.8348 1.19241
109 2 5 -0.35 3.41113 0.555817 1.18746
ITEM: TIMESTEP
12000
ITEM: NUMBER OF ATOMS
109
ITEM: BOX BOUNDS xy xz yz pp pp pp
0.0000000000000000e+00 3.6531964750000000e+01 9.1329911900000003e+00
0.0000000000000000e+00 2.1091739680000000e+01 9.1329911900000003e+00
0.0000000000000000e+00 1.4914112149999999e+01 5.2729349200000000e+00
ITEM: ATOMS id mol type q x y z
1 1 1 1.10383 27.399 17.6496 10.5383
2 1 1 1.10383 9.13299 3.44217 4.3758
3 1 1 1.10383 27.399 15.8188 13.1274
4 1 1 1.10383 9.13299 5.27293 1.78671
5 1 1 1.10383 25.8135 14.9034 10.5383
6 1 1 1.10383 10.7185 6.18832 4.3758
7 1 1 1.10383 28.9845 14.9034 10.5383
8 1 1 1.10383 7.5475 6.18832 4.3758
9 1 2 0.115889 18.266 5.48596 12.6084
10 1 2 0.115889 18.266 15.6058 2.30572
11 1 2 0.115888 18.266 13.716 0.969417
12 1 2 0.115888 18.266 7.37578 13.9447
13 1 2 0.11589 25.3934 11.4908 8.12521
14 1 2 0.11589 11.1386 9.60096 6.7889
15 1 2 0.115888 11.1386 11.4908 8.12521
16 1 2 0.115888 25.3934 9.60096 6.7889
17 1 2 0.115889 15.5206 8.96083 0.969417
18 1 2 0.115889 21.0114 12.1309 13.9447
19 1 2 0.115888 22.648 13.0758 12.6084
20 1 2 0.115888 13.884 8.01592 2.30572
21 1 2 0.115889 21.0114 3.90092 8.12521
22 1 2 0.115889 15.5206 17.1908 6.7889
23 1 2 0.115887 13.884 16.2459 8.12521
24 1 2 0.115887 22.648 4.84583 6.7889
25 1 2 0.115889 22.648 16.2459 8.12521
26 1 2 0.115889 13.884 4.84583 6.7889
27 1 2 0.115887 15.5206 3.90092 8.12521
28 1 2 0.115887 21.0114 17.1908 6.7889
29 1 2 0.115889 21.0114 8.96083 0.969417
30 1 2 0.115889 15.5206 12.1309 13.9447
31 1 2 0.115887 13.884 13.0758 12.6084
32 1 2 0.115887 22.648 8.01592 2.30572
33 1 3 0.671939 27.399 18.7442 13.2542
34 1 3 0.671939 9.13299 2.34751 1.65994
35 1 3 0.671939 27.399 12.8934 9.117
36 1 3 0.671939 9.13299 8.19836 5.79712
37 1 3 0.67194 24.8655 14.3561 13.2542
38 1 3 0.67194 11.6665 6.73565 1.65994
39 1 3 0.67194 29.9325 17.2815 9.117
40 1 3 0.67194 6.5995 3.81022 5.79712
41 1 3 0.67194 24.8655 17.2815 9.117
42 1 3 0.67194 11.6665 3.81022 5.79712
43 1 3 0.67194 29.9325 14.3561 13.2542
44 1 3 0.67194 6.5995 6.73565 1.65994
45 1 3 -0.11508 27.399 19.957 14.1117
46 1 3 -0.11508 9.13299 1.13474 0.802379
47 1 3 -0.11508 27.399 11.6806 8.25944
48 1 3 -0.11508 9.13299 9.41113 6.65468
49 1 3 -0.11508 23.8152 13.7497 14.1117
50 1 3 -0.11508 12.7168 7.34203 0.802379
51 1 3 -0.11508 30.9828 17.8879 8.25944
52 1 3 -0.11508 5.54921 3.20384 6.65468
53 1 3 -0.11508 23.8152 17.8879 8.25944
54 1 3 -0.11508 12.7168 3.20384 6.65468
55 1 3 -0.11508 30.9828 13.7497 14.1117
56 1 3 -0.11508 5.54921 7.34203 0.802379
57 1 3 -0.0559 18.266 5.39949 13.5316
58 1 3 -0.0559 18.266 15.6923 1.38254
59 1 3 -0.055903 18.266 14.5575 0.580159
60 1 3 -0.055903 18.266 6.53422 14.334
61 1 3 -0.0559 26.1971 11.1132 7.85825
62 1 3 -0.0559 10.3349 9.9785 7.05587
63 1 3 -0.055903 10.3349 11.1132 7.85825
64 1 3 -0.055903 26.1971 9.9785 7.05587
65 1 3 -0.0559 14.7918 8.54005 0.580159
66 1 3 -0.0559 21.7402 12.5517 14.334
67 1 3 -0.055903 22.7229 13.1191 13.5316
68 1 3 -0.055903 13.8091 7.97268 1.38254
69 1 3 -0.0559 21.7402 3.39366 7.85825
70 1 3 -0.0559 14.7918 17.6981 7.05587
71 1 3 -0.055903 13.8091 17.1307 7.85825
72 1 3 -0.055903 22.7229 3.96103 7.05587
73 1 3 -0.055901 22.7229 17.1307 7.85825
74 1 3 -0.055901 13.8091 3.96103 7.05587
75 1 3 -0.055903 14.7918 3.39366 7.85825
76 1 3 -0.055903 21.7402 17.6981 7.05587
77 1 3 -0.0559 21.7402 8.54005 0.580159
78 1 3 -0.0559 14.7918 12.5517 14.334
79 1 3 -0.055903 13.8091 13.1191 13.5316
80 1 3 -0.055903 22.7229 7.97268 1.38254
81 1 4 -1.26215 27.399 15.8188 11.1856
82 1 4 -1.26215 9.13299 5.27293 3.72853
83 1 4 -0.60118 27.399 18.9383 11.9641
84 1 4 -0.60118 9.13299 2.15347 2.95001
85 1 4 -0.601179 27.399 17.5926 13.8671
86 1 4 -0.601179 9.13299 3.49912 1.04697
87 1 4 -0.601179 26.2336 13.3722 9.45555
88 1 4 -0.601179 10.2984 7.71958 5.45857
89 1 4 -0.60118 28.5643 13.3722 9.45555
90 1 4 -0.60118 7.96762 7.71958 5.45857
91 1 4 -0.60118 25.8628 14.9319 13.8671
92 1 4 -0.60118 10.6692 6.15984 1.04697
93 1 4 -0.601179 24.6974 14.2591 11.9641
94 1 4 -0.601179 11.8345 6.83267 2.95001
95 1 4 -0.60118 28.9351 18.0514 9.45555
96 1 4 -0.60118 7.59682 3.04037 5.45857
97 1 4 -0.601179 30.1005 16.0329 9.45555
98 1 4 -0.601179 6.43145 5.05885 5.45857
99 1 4 -0.601179 24.6974 16.0329 9.45555
100 1 4 -0.601179 11.8345 5.05885 5.45857
101 1 4 -0.60118 25.8628 18.0514 9.45555
102 1 4 -0.60118 10.6692 3.04037 5.45857
103 1 4 -0.60118 28.9351 14.9319 13.8671
104 1 4 -0.60118 7.59682 6.15984 1.04697
105 1 4 -0.60118 30.1005 14.2591 11.9641
106 1 4 -0.60118 6.43145 6.83267 2.95001
107 2 5 -0.35 18.8327 15.5564 7.87148
108 2 6 0.7 18.3727 16.5704 8.19676
109 2 5 -0.35 17.9127 17.5843 8.52204
ITEM: TIMESTEP
13000
ITEM: NUMBER OF ATOMS
112
ITEM: BOX BOUNDS xy xz yz pp pp pp
0.0000000000000000e+00 3.6531964750000000e+01 9.1329911900000003e+00
0.0000000000000000e+00 2.1091739680000000e+01 9.1329911900000003e+00
0.0000000000000000e+00 1.4914112149999999e+01 5.2729349200000000e+00
ITEM: ATOMS id mol type q x y z
1 1 1 1.10383 27.399 17.6496 10.5383
2 1 1 1.10383 9.13299 3.44217 4.3758
3 1 1 1.10383 27.399 15.8188 13.1274
4 1 1 1.10383 9.13299 5.27293 1.78671
5 1 1 1.10383 25.8135 14.9034 10.5383
6 1 1 1.10383 10.7185 6.18832 4.3758
7 1 1 1.10383 28.9845 14.9034 10.5383
8 1 1 1.10383 7.5475 6.18832 4.3758
9 1 2 0.115889 18.266 5.48596 12.6084
10 1 2 0.115889 18.266 15.6058 2.30572
11 1 2 0.115888 18.266 13.716 0.969417
12 1 2 0.115888 18.266 7.37578 13.9447
13 1 2 0.11589 25.3934 11.4908 8.12521
14 1 2 0.11589 11.1386 9.60096 6.7889
15 1 2 0.115888 11.1386 11.4908 8.12521
16 1 2 0.115888 25.3934 9.60096 6.7889
17 1 2 0.115889 15.5206 8.96083 0.969417
18 1 2 0.115889 21.0114 12.1309 13.9447
19 1 2 0.115888 22.648 13.0758 12.6084
20 1 2 0.115888 13.884 8.01592 2.30572
21 1 2 0.115889 21.0114 3.90092 8.12521
22 1 2 0.115889 15.5206 17.1908 6.7889
23 1 2 0.115887 13.884 16.2459 8.12521
24 1 2 0.115887 22.648 4.84583 6.7889
25 1 2 0.115889 22.648 16.2459 8.12521
26 1 2 0.115889 13.884 4.84583 6.7889
27 1 2 0.115887 15.5206 3.90092 8.12521
28 1 2 0.115887 21.0114 17.1908 6.7889
29 1 2 0.115889 21.0114 8.96083 0.969417
30 1 2 0.115889 15.5206 12.1309 13.9447
31 1 2 0.115887 13.884 13.0758 12.6084
32 1 2 0.115887 22.648 8.01592 2.30572
33 1 3 0.671939 27.399 18.7442 13.2542
34 1 3 0.671939 9.13299 2.34751 1.65994
35 1 3 0.671939 27.399 12.8934 9.117
36 1 3 0.671939 9.13299 8.19836 5.79712
37 1 3 0.67194 24.8655 14.3561 13.2542
38 1 3 0.67194 11.6665 6.73565 1.65994
39 1 3 0.67194 29.9325 17.2815 9.117
40 1 3 0.67194 6.5995 3.81022 5.79712
41 1 3 0.67194 24.8655 17.2815 9.117
42 1 3 0.67194 11.6665 3.81022 5.79712
43 1 3 0.67194 29.9325 14.3561 13.2542
44 1 3 0.67194 6.5995 6.73565 1.65994
45 1 3 -0.11508 27.399 19.957 14.1117
46 1 3 -0.11508 9.13299 1.13474 0.802379
47 1 3 -0.11508 27.399 11.6806 8.25944
48 1 3 -0.11508 9.13299 9.41113 6.65468
49 1 3 -0.11508 23.8152 13.7497 14.1117
50 1 3 -0.11508 12.7168 7.34203 0.802379
51 1 3 -0.11508 30.9828 17.8879 8.25944
52 1 3 -0.11508 5.54921 3.20384 6.65468
53 1 3 -0.11508 23.8152 17.8879 8.25944
54 1 3 -0.11508 12.7168 3.20384 6.65468
55 1 3 -0.11508 30.9828 13.7497 14.1117
56 1 3 -0.11508 5.54921 7.34203 0.802379
57 1 3 -0.0559 18.266 5.39949 13.5316
58 1 3 -0.0559 18.266 15.6923 1.38254
59 1 3 -0.055903 18.266 14.5575 0.580159
60 1 3 -0.055903 18.266 6.53422 14.334
61 1 3 -0.0559 26.1971 11.1132 7.85825
62 1 3 -0.0559 10.3349 9.9785 7.05587
63 1 3 -0.055903 10.3349 11.1132 7.85825
64 1 3 -0.055903 26.1971 9.9785 7.05587
65 1 3 -0.0559 14.7918 8.54005 0.580159
66 1 3 -0.0559 21.7402 12.5517 14.334
67 1 3 -0.055903 22.7229 13.1191 13.5316
68 1 3 -0.055903 13.8091 7.97268 1.38254
69 1 3 -0.0559 21.7402 3.39366 7.85825
70 1 3 -0.0559 14.7918 17.6981 7.05587
71 1 3 -0.055903 13.8091 17.1307 7.85825
72 1 3 -0.055903 22.7229 3.96103 7.05587
73 1 3 -0.055901 22.7229 17.1307 7.85825
74 1 3 -0.055901 13.8091 3.96103 7.05587
75 1 3 -0.055903 14.7918 3.39366 7.85825
76 1 3 -0.055903 21.7402 17.6981 7.05587
77 1 3 -0.0559 21.7402 8.54005 0.580159
78 1 3 -0.0559 14.7918 12.5517 14.334
79 1 3 -0.055903 13.8091 13.1191 13.5316
80 1 3 -0.055903 22.7229 7.97268 1.38254
81 1 4 -1.26215 27.399 15.8188 11.1856
82 1 4 -1.26215 9.13299 5.27293 3.72853
83 1 4 -0.60118 27.399 18.9383 11.9641
84 1 4 -0.60118 9.13299 2.15347 2.95001
85 1 4 -0.601179 27.399 17.5926 13.8671
86 1 4 -0.601179 9.13299 3.49912 1.04697
87 1 4 -0.601179 26.2336 13.3722 9.45555
88 1 4 -0.601179 10.2984 7.71958 5.45857
89 1 4 -0.60118 28.5643 13.3722 9.45555
90 1 4 -0.60118 7.96762 7.71958 5.45857
91 1 4 -0.60118 25.8628 14.9319 13.8671
92 1 4 -0.60118 10.6692 6.15984 1.04697
93 1 4 -0.601179 24.6974 14.2591 11.9641
94 1 4 -0.601179 11.8345 6.83267 2.95001
95 1 4 -0.60118 28.9351 18.0514 9.45555
96 1 4 -0.60118 7.59682 3.04037 5.45857
97 1 4 -0.601179 30.1005 16.0329 9.45555
98 1 4 -0.601179 6.43145 5.05885 5.45857
99 1 4 -0.601179 24.6974 16.0329 9.45555
100 1 4 -0.601179 11.8345 5.05885 5.45857
101 1 4 -0.60118 25.8628 18.0514 9.45555
102 1 4 -0.60118 10.6692 3.04037 5.45857
103 1 4 -0.60118 28.9351 14.9319 13.8671
104 1 4 -0.60118 7.59682 6.15984 1.04697
105 1 4 -0.60118 30.1005 14.2591 11.9641
106 1 4 -0.60118 6.43145 6.83267 2.95001
107 2 5 -0.35 18.3571 7.32414 1.12148
108 2 6 0.7 18.1837 6.67453 0.176205
109 2 5 -0.35 27.1433 11.2979 14.145
110 3 5 -0.35 21.2337 13.9705 2.88077
111 3 6 0.7 20.6801 14.6675 3.62463
112 3 5 -0.35 20.1265 15.3645 4.36849
ITEM: TIMESTEP
14000
ITEM: NUMBER OF ATOMS
109
ITEM: BOX BOUNDS xy xz yz pp pp pp
0.0000000000000000e+00 3.6531964750000000e+01 9.1329911900000003e+00
0.0000000000000000e+00 2.1091739680000000e+01 9.1329911900000003e+00
0.0000000000000000e+00 1.4914112149999999e+01 5.2729349200000000e+00
ITEM: ATOMS id mol type q x y z
1 1 1 1.10383 27.399 17.6496 10.5383
2 1 1 1.10383 9.13299 3.44217 4.3758
3 1 1 1.10383 27.399 15.8188 13.1274
4 1 1 1.10383 9.13299 5.27293 1.78671
5 1 1 1.10383 25.8135 14.9034 10.5383
6 1 1 1.10383 10.7185 6.18832 4.3758
7 1 1 1.10383 28.9845 14.9034 10.5383
8 1 1 1.10383 7.5475 6.18832 4.3758
9 1 2 0.115889 18.266 5.48596 12.6084
10 1 2 0.115889 18.266 15.6058 2.30572
11 1 2 0.115888 18.266 13.716 0.969417
12 1 2 0.115888 18.266 7.37578 13.9447
13 1 2 0.11589 25.3934 11.4908 8.12521
14 1 2 0.11589 11.1386 9.60096 6.7889
15 1 2 0.115888 11.1386 11.4908 8.12521
16 1 2 0.115888 25.3934 9.60096 6.7889
17 1 2 0.115889 15.5206 8.96083 0.969417
18 1 2 0.115889 21.0114 12.1309 13.9447
19 1 2 0.115888 22.648 13.0758 12.6084
20 1 2 0.115888 13.884 8.01592 2.30572
21 1 2 0.115889 21.0114 3.90092 8.12521
22 1 2 0.115889 15.5206 17.1908 6.7889
23 1 2 0.115887 13.884 16.2459 8.12521
24 1 2 0.115887 22.648 4.84583 6.7889
25 1 2 0.115889 22.648 16.2459 8.12521
26 1 2 0.115889 13.884 4.84583 6.7889
27 1 2 0.115887 15.5206 3.90092 8.12521
28 1 2 0.115887 21.0114 17.1908 6.7889
29 1 2 0.115889 21.0114 8.96083 0.969417
30 1 2 0.115889 15.5206 12.1309 13.9447
31 1 2 0.115887 13.884 13.0758 12.6084
32 1 2 0.115887 22.648 8.01592 2.30572
33 1 3 0.671939 27.399 18.7442 13.2542
34 1 3 0.671939 9.13299 2.34751 1.65994
35 1 3 0.671939 27.399 12.8934 9.117
36 1 3 0.671939 9.13299 8.19836 5.79712
37 1 3 0.67194 24.8655 14.3561 13.2542
38 1 3 0.67194 11.6665 6.73565 1.65994
39 1 3 0.67194 29.9325 17.2815 9.117
40 1 3 0.67194 6.5995 3.81022 5.79712
41 1 3 0.67194 24.8655 17.2815 9.117
42 1 3 0.67194 11.6665 3.81022 5.79712
43 1 3 0.67194 29.9325 14.3561 13.2542
44 1 3 0.67194 6.5995 6.73565 1.65994
45 1 3 -0.11508 27.399 19.957 14.1117
46 1 3 -0.11508 9.13299 1.13474 0.802379
47 1 3 -0.11508 27.399 11.6806 8.25944
48 1 3 -0.11508 9.13299 9.41113 6.65468
49 1 3 -0.11508 23.8152 13.7497 14.1117
50 1 3 -0.11508 12.7168 7.34203 0.802379
51 1 3 -0.11508 30.9828 17.8879 8.25944
52 1 3 -0.11508 5.54921 3.20384 6.65468
53 1 3 -0.11508 23.8152 17.8879 8.25944
54 1 3 -0.11508 12.7168 3.20384 6.65468
55 1 3 -0.11508 30.9828 13.7497 14.1117
56 1 3 -0.11508 5.54921 7.34203 0.802379
57 1 3 -0.0559 18.266 5.39949 13.5316
58 1 3 -0.0559 18.266 15.6923 1.38254
59 1 3 -0.055903 18.266 14.5575 0.580159
60 1 3 -0.055903 18.266 6.53422 14.334
61 1 3 -0.0559 26.1971 11.1132 7.85825
62 1 3 -0.0559 10.3349 9.9785 7.05587
63 1 3 -0.055903 10.3349 11.1132 7.85825
64 1 3 -0.055903 26.1971 9.9785 7.05587
65 1 3 -0.0559 14.7918 8.54005 0.580159
66 1 3 -0.0559 21.7402 12.5517 14.334
67 1 3 -0.055903 22.7229 13.1191 13.5316
68 1 3 -0.055903 13.8091 7.97268 1.38254
69 1 3 -0.0559 21.7402 3.39366 7.85825
70 1 3 -0.0559 14.7918 17.6981 7.05587
71 1 3 -0.055903 13.8091 17.1307 7.85825
72 1 3 -0.055903 22.7229 3.96103 7.05587
73 1 3 -0.055901 22.7229 17.1307 7.85825
74 1 3 -0.055901 13.8091 3.96103 7.05587
75 1 3 -0.055903 14.7918 3.39366 7.85825
76 1 3 -0.055903 21.7402 17.6981 7.05587
77 1 3 -0.0559 21.7402 8.54005 0.580159
78 1 3 -0.0559 14.7918 12.5517 14.334
79 1 3 -0.055903 13.8091 13.1191 13.5316
80 1 3 -0.055903 22.7229 7.97268 1.38254
81 1 4 -1.26215 27.399 15.8188 11.1856
82 1 4 -1.26215 9.13299 5.27293 3.72853
83 1 4 -0.60118 27.399 18.9383 11.9641
84 1 4 -0.60118 9.13299 2.15347 2.95001
85 1 4 -0.601179 27.399 17.5926 13.8671
86 1 4 -0.601179 9.13299 3.49912 1.04697
87 1 4 -0.601179 26.2336 13.3722 9.45555
88 1 4 -0.601179 10.2984 7.71958 5.45857
89 1 4 -0.60118 28.5643 13.3722 9.45555
90 1 4 -0.60118 7.96762 7.71958 5.45857
91 1 4 -0.60118 25.8628 14.9319 13.8671
92 1 4 -0.60118 10.6692 6.15984 1.04697
93 1 4 -0.601179 24.6974 14.2591 11.9641
94 1 4 -0.601179 11.8345 6.83267 2.95001
95 1 4 -0.60118 28.9351 18.0514 9.45555
96 1 4 -0.60118 7.59682 3.04037 5.45857
97 1 4 -0.601179 30.1005 16.0329 9.45555
98 1 4 -0.601179 6.43145 5.05885 5.45857
99 1 4 -0.601179 24.6974 16.0329 9.45555
100 1 4 -0.601179 11.8345 5.05885 5.45857
101 1 4 -0.60118 25.8628 18.0514 9.45555
102 1 4 -0.60118 10.6692 3.04037 5.45857
103 1 4 -0.60118 28.9351 14.9319 13.8671
104 1 4 -0.60118 7.59682 6.15984 1.04697
105 1 4 -0.60118 30.1005 14.2591 11.9641
106 1 4 -0.60118 6.43145 6.83267 2.95001
116 5 5 -0.35 29.6979 16.7352 5.70201
117 5 6 0.7 12.36 16.5797 5.02366
118 5 5 -0.35 13.288 16.4242 4.34532
ITEM: TIMESTEP
15000
ITEM: NUMBER OF ATOMS
112
ITEM: BOX BOUNDS xy xz yz pp pp pp
0.0000000000000000e+00 3.6531964750000000e+01 9.1329911900000003e+00
0.0000000000000000e+00 2.1091739680000000e+01 9.1329911900000003e+00
0.0000000000000000e+00 1.4914112149999999e+01 5.2729349200000000e+00
ITEM: ATOMS id mol type q x y z
1 1 1 1.10383 27.399 17.6496 10.5383
2 1 1 1.10383 9.13299 3.44217 4.3758
3 1 1 1.10383 27.399 15.8188 13.1274
4 1 1 1.10383 9.13299 5.27293 1.78671
5 1 1 1.10383 25.8135 14.9034 10.5383
6 1 1 1.10383 10.7185 6.18832 4.3758
7 1 1 1.10383 28.9845 14.9034 10.5383
8 1 1 1.10383 7.5475 6.18832 4.3758
9 1 2 0.115889 18.266 5.48596 12.6084
10 1 2 0.115889 18.266 15.6058 2.30572
11 1 2 0.115888 18.266 13.716 0.969417
12 1 2 0.115888 18.266 7.37578 13.9447
13 1 2 0.11589 25.3934 11.4908 8.12521
14 1 2 0.11589 11.1386 9.60096 6.7889
15 1 2 0.115888 11.1386 11.4908 8.12521
16 1 2 0.115888 25.3934 9.60096 6.7889
17 1 2 0.115889 15.5206 8.96083 0.969417
18 1 2 0.115889 21.0114 12.1309 13.9447
19 1 2 0.115888 22.648 13.0758 12.6084
20 1 2 0.115888 13.884 8.01592 2.30572
21 1 2 0.115889 21.0114 3.90092 8.12521
22 1 2 0.115889 15.5206 17.1908 6.7889
23 1 2 0.115887 13.884 16.2459 8.12521
24 1 2 0.115887 22.648 4.84583 6.7889
25 1 2 0.115889 22.648 16.2459 8.12521
26 1 2 0.115889 13.884 4.84583 6.7889
27 1 2 0.115887 15.5206 3.90092 8.12521
28 1 2 0.115887 21.0114 17.1908 6.7889
29 1 2 0.115889 21.0114 8.96083 0.969417
30 1 2 0.115889 15.5206 12.1309 13.9447
31 1 2 0.115887 13.884 13.0758 12.6084
32 1 2 0.115887 22.648 8.01592 2.30572
33 1 3 0.671939 27.399 18.7442 13.2542
34 1 3 0.671939 9.13299 2.34751 1.65994
35 1 3 0.671939 27.399 12.8934 9.117
36 1 3 0.671939 9.13299 8.19836 5.79712
37 1 3 0.67194 24.8655 14.3561 13.2542
38 1 3 0.67194 11.6665 6.73565 1.65994
39 1 3 0.67194 29.9325 17.2815 9.117
40 1 3 0.67194 6.5995 3.81022 5.79712
41 1 3 0.67194 24.8655 17.2815 9.117
42 1 3 0.67194 11.6665 3.81022 5.79712
43 1 3 0.67194 29.9325 14.3561 13.2542
44 1 3 0.67194 6.5995 6.73565 1.65994
45 1 3 -0.11508 27.399 19.957 14.1117
46 1 3 -0.11508 9.13299 1.13474 0.802379
47 1 3 -0.11508 27.399 11.6806 8.25944
48 1 3 -0.11508 9.13299 9.41113 6.65468
49 1 3 -0.11508 23.8152 13.7497 14.1117
50 1 3 -0.11508 12.7168 7.34203 0.802379
51 1 3 -0.11508 30.9828 17.8879 8.25944
52 1 3 -0.11508 5.54921 3.20384 6.65468
53 1 3 -0.11508 23.8152 17.8879 8.25944
54 1 3 -0.11508 12.7168 3.20384 6.65468
55 1 3 -0.11508 30.9828 13.7497 14.1117
56 1 3 -0.11508 5.54921 7.34203 0.802379
57 1 3 -0.0559 18.266 5.39949 13.5316
58 1 3 -0.0559 18.266 15.6923 1.38254
59 1 3 -0.055903 18.266 14.5575 0.580159
60 1 3 -0.055903 18.266 6.53422 14.334
61 1 3 -0.0559 26.1971 11.1132 7.85825
62 1 3 -0.0559 10.3349 9.9785 7.05587
63 1 3 -0.055903 10.3349 11.1132 7.85825
64 1 3 -0.055903 26.1971 9.9785 7.05587
65 1 3 -0.0559 14.7918 8.54005 0.580159
66 1 3 -0.0559 21.7402 12.5517 14.334
67 1 3 -0.055903 22.7229 13.1191 13.5316
68 1 3 -0.055903 13.8091 7.97268 1.38254
69 1 3 -0.0559 21.7402 3.39366 7.85825
70 1 3 -0.0559 14.7918 17.6981 7.05587
71 1 3 -0.055903 13.8091 17.1307 7.85825
72 1 3 -0.055903 22.7229 3.96103 7.05587
73 1 3 -0.055901 22.7229 17.1307 7.85825
74 1 3 -0.055901 13.8091 3.96103 7.05587
75 1 3 -0.055903 14.7918 3.39366 7.85825
76 1 3 -0.055903 21.7402 17.6981 7.05587
77 1 3 -0.0559 21.7402 8.54005 0.580159
78 1 3 -0.0559 14.7918 12.5517 14.334
79 1 3 -0.055903 13.8091 13.1191 13.5316
80 1 3 -0.055903 22.7229 7.97268 1.38254
81 1 4 -1.26215 27.399 15.8188 11.1856
82 1 4 -1.26215 9.13299 5.27293 3.72853
83 1 4 -0.60118 27.399 18.9383 11.9641
84 1 4 -0.60118 9.13299 2.15347 2.95001
85 1 4 -0.601179 27.399 17.5926 13.8671
86 1 4 -0.601179 9.13299 3.49912 1.04697
87 1 4 -0.601179 26.2336 13.3722 9.45555
88 1 4 -0.601179 10.2984 7.71958 5.45857
89 1 4 -0.60118 28.5643 13.3722 9.45555
90 1 4 -0.60118 7.96762 7.71958 5.45857
91 1 4 -0.60118 25.8628 14.9319 13.8671
92 1 4 -0.60118 10.6692 6.15984 1.04697
93 1 4 -0.601179 24.6974 14.2591 11.9641
94 1 4 -0.601179 11.8345 6.83267 2.95001
95 1 4 -0.60118 28.9351 18.0514 9.45555
96 1 4 -0.60118 7.59682 3.04037 5.45857
97 1 4 -0.601179 30.1005 16.0329 9.45555
98 1 4 -0.601179 6.43145 5.05885 5.45857
99 1 4 -0.601179 24.6974 16.0329 9.45555
100 1 4 -0.601179 11.8345 5.05885 5.45857
101 1 4 -0.60118 25.8628 18.0514 9.45555
102 1 4 -0.60118 10.6692 3.04037 5.45857
103 1 4 -0.60118 28.9351 14.9319 13.8671
104 1 4 -0.60118 7.59682 6.15984 1.04697
105 1 4 -0.60118 30.1005 14.2591 11.9641
106 1 4 -0.60118 6.43145 6.83267 2.95001
110 3 5 -0.35 14.4633 16.2396 4.52751
111 3 6 0.7 14.8543 16.9491 3.69729
112 3 5 -0.35 6.11227 1.83988 2.86706
113 4 5 -0.35 11.1258 11.8488 1.15081
114 4 6 0.7 11.4065 11.5458 0.0668001
115 4 5 -0.35 20.8201 16.5159 13.8969
ITEM: TIMESTEP
16000
ITEM: NUMBER OF ATOMS
118
ITEM: BOX BOUNDS xy xz yz pp pp pp
0.0000000000000000e+00 3.6531964750000000e+01 9.1329911900000003e+00
0.0000000000000000e+00 2.1091739680000000e+01 9.1329911900000003e+00
0.0000000000000000e+00 1.4914112149999999e+01 5.2729349200000000e+00
ITEM: ATOMS id mol type q x y z
1 1 1 1.10383 27.399 17.6496 10.5383
2 1 1 1.10383 9.13299 3.44217 4.3758
3 1 1 1.10383 27.399 15.8188 13.1274
4 1 1 1.10383 9.13299 5.27293 1.78671
5 1 1 1.10383 25.8135 14.9034 10.5383
6 1 1 1.10383 10.7185 6.18832 4.3758
7 1 1 1.10383 28.9845 14.9034 10.5383
8 1 1 1.10383 7.5475 6.18832 4.3758
9 1 2 0.115889 18.266 5.48596 12.6084
10 1 2 0.115889 18.266 15.6058 2.30572
11 1 2 0.115888 18.266 13.716 0.969417
12 1 2 0.115888 18.266 7.37578 13.9447
13 1 2 0.11589 25.3934 11.4908 8.12521
14 1 2 0.11589 11.1386 9.60096 6.7889
15 1 2 0.115888 11.1386 11.4908 8.12521
16 1 2 0.115888 25.3934 9.60096 6.7889
17 1 2 0.115889 15.5206 8.96083 0.969417
18 1 2 0.115889 21.0114 12.1309 13.9447
19 1 2 0.115888 22.648 13.0758 12.6084
20 1 2 0.115888 13.884 8.01592 2.30572
21 1 2 0.115889 21.0114 3.90092 8.12521
22 1 2 0.115889 15.5206 17.1908 6.7889
23 1 2 0.115887 13.884 16.2459 8.12521
24 1 2 0.115887 22.648 4.84583 6.7889
25 1 2 0.115889 22.648 16.2459 8.12521
26 1 2 0.115889 13.884 4.84583 6.7889
27 1 2 0.115887 15.5206 3.90092 8.12521
28 1 2 0.115887 21.0114 17.1908 6.7889
29 1 2 0.115889 21.0114 8.96083 0.969417
30 1 2 0.115889 15.5206 12.1309 13.9447
31 1 2 0.115887 13.884 13.0758 12.6084
32 1 2 0.115887 22.648 8.01592 2.30572
33 1 3 0.671939 27.399 18.7442 13.2542
34 1 3 0.671939 9.13299 2.34751 1.65994
35 1 3 0.671939 27.399 12.8934 9.117
36 1 3 0.671939 9.13299 8.19836 5.79712
37 1 3 0.67194 24.8655 14.3561 13.2542
38 1 3 0.67194 11.6665 6.73565 1.65994
39 1 3 0.67194 29.9325 17.2815 9.117
40 1 3 0.67194 6.5995 3.81022 5.79712
41 1 3 0.67194 24.8655 17.2815 9.117
42 1 3 0.67194 11.6665 3.81022 5.79712
43 1 3 0.67194 29.9325 14.3561 13.2542
44 1 3 0.67194 6.5995 6.73565 1.65994
45 1 3 -0.11508 27.399 19.957 14.1117
46 1 3 -0.11508 9.13299 1.13474 0.802379
47 1 3 -0.11508 27.399 11.6806 8.25944
48 1 3 -0.11508 9.13299 9.41113 6.65468
49 1 3 -0.11508 23.8152 13.7497 14.1117
50 1 3 -0.11508 12.7168 7.34203 0.802379
51 1 3 -0.11508 30.9828 17.8879 8.25944
52 1 3 -0.11508 5.54921 3.20384 6.65468
53 1 3 -0.11508 23.8152 17.8879 8.25944
54 1 3 -0.11508 12.7168 3.20384 6.65468
55 1 3 -0.11508 30.9828 13.7497 14.1117
56 1 3 -0.11508 5.54921 7.34203 0.802379
57 1 3 -0.0559 18.266 5.39949 13.5316
58 1 3 -0.0559 18.266 15.6923 1.38254
59 1 3 -0.055903 18.266 14.5575 0.580159
60 1 3 -0.055903 18.266 6.53422 14.334
61 1 3 -0.0559 26.1971 11.1132 7.85825
62 1 3 -0.0559 10.3349 9.9785 7.05587
63 1 3 -0.055903 10.3349 11.1132 7.85825
64 1 3 -0.055903 26.1971 9.9785 7.05587
65 1 3 -0.0559 14.7918 8.54005 0.580159
66 1 3 -0.0559 21.7402 12.5517 14.334
67 1 3 -0.055903 22.7229 13.1191 13.5316
68 1 3 -0.055903 13.8091 7.97268 1.38254
69 1 3 -0.0559 21.7402 3.39366 7.85825
70 1 3 -0.0559 14.7918 17.6981 7.05587
71 1 3 -0.055903 13.8091 17.1307 7.85825
72 1 3 -0.055903 22.7229 3.96103 7.05587
73 1 3 -0.055901 22.7229 17.1307 7.85825
74 1 3 -0.055901 13.8091 3.96103 7.05587
75 1 3 -0.055903 14.7918 3.39366 7.85825
76 1 3 -0.055903 21.7402 17.6981 7.05587
77 1 3 -0.0559 21.7402 8.54005 0.580159
78 1 3 -0.0559 14.7918 12.5517 14.334
79 1 3 -0.055903 13.8091 13.1191 13.5316
80 1 3 -0.055903 22.7229 7.97268 1.38254
81 1 4 -1.26215 27.399 15.8188 11.1856
82 1 4 -1.26215 9.13299 5.27293 3.72853
83 1 4 -0.60118 27.399 18.9383 11.9641
84 1 4 -0.60118 9.13299 2.15347 2.95001
85 1 4 -0.601179 27.399 17.5926 13.8671
86 1 4 -0.601179 9.13299 3.49912 1.04697
87 1 4 -0.601179 26.2336 13.3722 9.45555
88 1 4 -0.601179 10.2984 7.71958 5.45857
89 1 4 -0.60118 28.5643 13.3722 9.45555
90 1 4 -0.60118 7.96762 7.71958 5.45857
91 1 4 -0.60118 25.8628 14.9319 13.8671
92 1 4 -0.60118 10.6692 6.15984 1.04697
93 1 4 -0.601179 24.6974 14.2591 11.9641
94 1 4 -0.601179 11.8345 6.83267 2.95001
95 1 4 -0.60118 28.9351 18.0514 9.45555
96 1 4 -0.60118 7.59682 3.04037 5.45857
97 1 4 -0.601179 30.1005 16.0329 9.45555
98 1 4 -0.601179 6.43145 5.05885 5.45857
99 1 4 -0.601179 24.6974 16.0329 9.45555
100 1 4 -0.601179 11.8345 5.05885 5.45857
101 1 4 -0.60118 25.8628 18.0514 9.45555
102 1 4 -0.60118 10.6692 3.04037 5.45857
103 1 4 -0.60118 28.9351 14.9319 13.8671
104 1 4 -0.60118 7.59682 6.15984 1.04697
105 1 4 -0.60118 30.1005 14.2591 11.9641
106 1 4 -0.60118 6.43145 6.83267 2.95001
110 3 5 -0.35 22.4528 16.6312 11.9619
111 3 6 0.7 22.1006 15.9219 11.1143
112 3 5 -0.35 21.7484 15.2126 10.2666
113 4 5 -0.35 25.0211 11.1625 3.45964
114 4 6 0.7 25.3123 10.704 2.43465
115 4 5 -0.35 7.33762 10.2456 1.40967
116 5 5 -0.35 21.059 11.0108 5.98913
117 5 6 0.7 21.2991 10.1798 5.21621
118 5 5 -0.35 21.5391 9.34883 4.44328
119 6 5 -0.35 11.2207 14.1863 5.92617
120 6 6 0.7 11.2421 14.2666 4.76916
121 6 5 -0.35 11.2636 14.3469 3.61214
ITEM: TIMESTEP
17000
ITEM: NUMBER OF ATOMS
115
ITEM: BOX BOUNDS xy xz yz pp pp pp
0.0000000000000000e+00 3.6531964750000000e+01 9.1329911900000003e+00
0.0000000000000000e+00 2.1091739680000000e+01 9.1329911900000003e+00
0.0000000000000000e+00 1.4914112149999999e+01 5.2729349200000000e+00
ITEM: ATOMS id mol type q x y z
1 1 1 1.10383 27.399 17.6496 10.5383
2 1 1 1.10383 9.13299 3.44217 4.3758
3 1 1 1.10383 27.399 15.8188 13.1274
4 1 1 1.10383 9.13299 5.27293 1.78671
5 1 1 1.10383 25.8135 14.9034 10.5383
6 1 1 1.10383 10.7185 6.18832 4.3758
7 1 1 1.10383 28.9845 14.9034 10.5383
8 1 1 1.10383 7.5475 6.18832 4.3758
9 1 2 0.115889 18.266 5.48596 12.6084
10 1 2 0.115889 18.266 15.6058 2.30572
11 1 2 0.115888 18.266 13.716 0.969417
12 1 2 0.115888 18.266 7.37578 13.9447
13 1 2 0.11589 25.3934 11.4908 8.12521
14 1 2 0.11589 11.1386 9.60096 6.7889
15 1 2 0.115888 11.1386 11.4908 8.12521
16 1 2 0.115888 25.3934 9.60096 6.7889
17 1 2 0.115889 15.5206 8.96083 0.969417
18 1 2 0.115889 21.0114 12.1309 13.9447
19 1 2 0.115888 22.648 13.0758 12.6084
20 1 2 0.115888 13.884 8.01592 2.30572
21 1 2 0.115889 21.0114 3.90092 8.12521
22 1 2 0.115889 15.5206 17.1908 6.7889
23 1 2 0.115887 13.884 16.2459 8.12521
24 1 2 0.115887 22.648 4.84583 6.7889
25 1 2 0.115889 22.648 16.2459 8.12521
26 1 2 0.115889 13.884 4.84583 6.7889
27 1 2 0.115887 15.5206 3.90092 8.12521
28 1 2 0.115887 21.0114 17.1908 6.7889
29 1 2 0.115889 21.0114 8.96083 0.969417
30 1 2 0.115889 15.5206 12.1309 13.9447
31 1 2 0.115887 13.884 13.0758 12.6084
32 1 2 0.115887 22.648 8.01592 2.30572
33 1 3 0.671939 27.399 18.7442 13.2542
34 1 3 0.671939 9.13299 2.34751 1.65994
35 1 3 0.671939 27.399 12.8934 9.117
36 1 3 0.671939 9.13299 8.19836 5.79712
37 1 3 0.67194 24.8655 14.3561 13.2542
38 1 3 0.67194 11.6665 6.73565 1.65994
39 1 3 0.67194 29.9325 17.2815 9.117
40 1 3 0.67194 6.5995 3.81022 5.79712
41 1 3 0.67194 24.8655 17.2815 9.117
42 1 3 0.67194 11.6665 3.81022 5.79712
43 1 3 0.67194 29.9325 14.3561 13.2542
44 1 3 0.67194 6.5995 6.73565 1.65994
45 1 3 -0.11508 27.399 19.957 14.1117
46 1 3 -0.11508 9.13299 1.13474 0.802379
47 1 3 -0.11508 27.399 11.6806 8.25944
48 1 3 -0.11508 9.13299 9.41113 6.65468
49 1 3 -0.11508 23.8152 13.7497 14.1117
50 1 3 -0.11508 12.7168 7.34203 0.802379
51 1 3 -0.11508 30.9828 17.8879 8.25944
52 1 3 -0.11508 5.54921 3.20384 6.65468
53 1 3 -0.11508 23.8152 17.8879 8.25944
54 1 3 -0.11508 12.7168 3.20384 6.65468
55 1 3 -0.11508 30.9828 13.7497 14.1117
56 1 3 -0.11508 5.54921 7.34203 0.802379
57 1 3 -0.0559 18.266 5.39949 13.5316
58 1 3 -0.0559 18.266 15.6923 1.38254
59 1 3 -0.055903 18.266 14.5575 0.580159
60 1 3 -0.055903 18.266 6.53422 14.334
61 1 3 -0.0559 26.1971 11.1132 7.85825
62 1 3 -0.0559 10.3349 9.9785 7.05587
63 1 3 -0.055903 10.3349 11.1132 7.85825
64 1 3 -0.055903 26.1971 9.9785 7.05587
65 1 3 -0.0559 14.7918 8.54005 0.580159
66 1 3 -0.0559 21.7402 12.5517 14.334
67 1 3 -0.055903 22.7229 13.1191 13.5316
68 1 3 -0.055903 13.8091 7.97268 1.38254
69 1 3 -0.0559 21.7402 3.39366 7.85825
70 1 3 -0.0559 14.7918 17.6981 7.05587
71 1 3 -0.055903 13.8091 17.1307 7.85825
72 1 3 -0.055903 22.7229 3.96103 7.05587
73 1 3 -0.055901 22.7229 17.1307 7.85825
74 1 3 -0.055901 13.8091 3.96103 7.05587
75 1 3 -0.055903 14.7918 3.39366 7.85825
76 1 3 -0.055903 21.7402 17.6981 7.05587
77 1 3 -0.0559 21.7402 8.54005 0.580159
78 1 3 -0.0559 14.7918 12.5517 14.334
79 1 3 -0.055903 13.8091 13.1191 13.5316
80 1 3 -0.055903 22.7229 7.97268 1.38254
81 1 4 -1.26215 27.399 15.8188 11.1856
82 1 4 -1.26215 9.13299 5.27293 3.72853
83 1 4 -0.60118 27.399 18.9383 11.9641
84 1 4 -0.60118 9.13299 2.15347 2.95001
85 1 4 -0.601179 27.399 17.5926 13.8671
86 1 4 -0.601179 9.13299 3.49912 1.04697
87 1 4 -0.601179 26.2336 13.3722 9.45555
88 1 4 -0.601179 10.2984 7.71958 5.45857
89 1 4 -0.60118 28.5643 13.3722 9.45555
90 1 4 -0.60118 7.96762 7.71958 5.45857
91 1 4 -0.60118 25.8628 14.9319 13.8671
92 1 4 -0.60118 10.6692 6.15984 1.04697
93 1 4 -0.601179 24.6974 14.2591 11.9641
94 1 4 -0.601179 11.8345 6.83267 2.95001
95 1 4 -0.60118 28.9351 18.0514 9.45555
96 1 4 -0.60118 7.59682 3.04037 5.45857
97 1 4 -0.601179 30.1005 16.0329 9.45555
98 1 4 -0.601179 6.43145 5.05885 5.45857
99 1 4 -0.601179 24.6974 16.0329 9.45555
100 1 4 -0.601179 11.8345 5.05885 5.45857
101 1 4 -0.60118 25.8628 18.0514 9.45555
102 1 4 -0.60118 10.6692 3.04037 5.45857
103 1 4 -0.60118 28.9351 14.9319 13.8671
104 1 4 -0.60118 7.59682 6.15984 1.04697
105 1 4 -0.60118 30.1005 14.2591 11.9641
106 1 4 -0.60118 6.43145 6.83267 2.95001
107 2 5 -0.35 19.6325 14.813 6.25831
108 2 6 0.7 18.559 15.0706 5.90227
109 2 5 -0.35 17.4855 15.3282 5.54624
110 3 5 -0.35 13.8622 4.17686 0.0645118
111 3 6 0.7 12.9286 3.77245 0.621679
112 3 5 -0.35 11.995 3.36804 1.17885
113 4 5 -0.35 23.0724 9.04056 6.03101
114 4 6 0.7 22.2442 8.4121 5.51653
115 4 5 -0.35 21.416 7.78364 5.00205
ITEM: TIMESTEP
18000
ITEM: NUMBER OF ATOMS
106
ITEM: BOX BOUNDS xy xz yz pp pp pp
0.0000000000000000e+00 3.6531964750000000e+01 9.1329911900000003e+00
0.0000000000000000e+00 2.1091739680000000e+01 9.1329911900000003e+00
0.0000000000000000e+00 1.4914112149999999e+01 5.2729349200000000e+00
ITEM: ATOMS id mol type q x y z
1 1 1 1.10383 27.399 17.6496 10.5383
2 1 1 1.10383 9.13299 3.44217 4.3758
3 1 1 1.10383 27.399 15.8188 13.1274
4 1 1 1.10383 9.13299 5.27293 1.78671
5 1 1 1.10383 25.8135 14.9034 10.5383
6 1 1 1.10383 10.7185 6.18832 4.3758
7 1 1 1.10383 28.9845 14.9034 10.5383
8 1 1 1.10383 7.5475 6.18832 4.3758
9 1 2 0.115889 18.266 5.48596 12.6084
10 1 2 0.115889 18.266 15.6058 2.30572
11 1 2 0.115888 18.266 13.716 0.969417
12 1 2 0.115888 18.266 7.37578 13.9447
13 1 2 0.11589 25.3934 11.4908 8.12521
14 1 2 0.11589 11.1386 9.60096 6.7889
15 1 2 0.115888 11.1386 11.4908 8.12521
16 1 2 0.115888 25.3934 9.60096 6.7889
17 1 2 0.115889 15.5206 8.96083 0.969417
18 1 2 0.115889 21.0114 12.1309 13.9447
19 1 2 0.115888 22.648 13.0758 12.6084
20 1 2 0.115888 13.884 8.01592 2.30572
21 1 2 0.115889 21.0114 3.90092 8.12521
22 1 2 0.115889 15.5206 17.1908 6.7889
23 1 2 0.115887 13.884 16.2459 8.12521
24 1 2 0.115887 22.648 4.84583 6.7889
25 1 2 0.115889 22.648 16.2459 8.12521
26 1 2 0.115889 13.884 4.84583 6.7889
27 1 2 0.115887 15.5206 3.90092 8.12521
28 1 2 0.115887 21.0114 17.1908 6.7889
29 1 2 0.115889 21.0114 8.96083 0.969417
30 1 2 0.115889 15.5206 12.1309 13.9447
31 1 2 0.115887 13.884 13.0758 12.6084
32 1 2 0.115887 22.648 8.01592 2.30572
33 1 3 0.671939 27.399 18.7442 13.2542
34 1 3 0.671939 9.13299 2.34751 1.65994
35 1 3 0.671939 27.399 12.8934 9.117
36 1 3 0.671939 9.13299 8.19836 5.79712
37 1 3 0.67194 24.8655 14.3561 13.2542
38 1 3 0.67194 11.6665 6.73565 1.65994
39 1 3 0.67194 29.9325 17.2815 9.117
40 1 3 0.67194 6.5995 3.81022 5.79712
41 1 3 0.67194 24.8655 17.2815 9.117
42 1 3 0.67194 11.6665 3.81022 5.79712
43 1 3 0.67194 29.9325 14.3561 13.2542
44 1 3 0.67194 6.5995 6.73565 1.65994
45 1 3 -0.11508 27.399 19.957 14.1117
46 1 3 -0.11508 9.13299 1.13474 0.802379
47 1 3 -0.11508 27.399 11.6806 8.25944
48 1 3 -0.11508 9.13299 9.41113 6.65468
49 1 3 -0.11508 23.8152 13.7497 14.1117
50 1 3 -0.11508 12.7168 7.34203 0.802379
51 1 3 -0.11508 30.9828 17.8879 8.25944
52 1 3 -0.11508 5.54921 3.20384 6.65468
53 1 3 -0.11508 23.8152 17.8879 8.25944
54 1 3 -0.11508 12.7168 3.20384 6.65468
55 1 3 -0.11508 30.9828 13.7497 14.1117
56 1 3 -0.11508 5.54921 7.34203 0.802379
57 1 3 -0.0559 18.266 5.39949 13.5316
58 1 3 -0.0559 18.266 15.6923 1.38254
59 1 3 -0.055903 18.266 14.5575 0.580159
60 1 3 -0.055903 18.266 6.53422 14.334
61 1 3 -0.0559 26.1971 11.1132 7.85825
62 1 3 -0.0559 10.3349 9.9785 7.05587
63 1 3 -0.055903 10.3349 11.1132 7.85825
64 1 3 -0.055903 26.1971 9.9785 7.05587
65 1 3 -0.0559 14.7918 8.54005 0.580159
66 1 3 -0.0559 21.7402 12.5517 14.334
67 1 3 -0.055903 22.7229 13.1191 13.5316
68 1 3 -0.055903 13.8091 7.97268 1.38254
69 1 3 -0.0559 21.7402 3.39366 7.85825
70 1 3 -0.0559 14.7918 17.6981 7.05587
71 1 3 -0.055903 13.8091 17.1307 7.85825
72 1 3 -0.055903 22.7229 3.96103 7.05587
73 1 3 -0.055901 22.7229 17.1307 7.85825
74 1 3 -0.055901 13.8091 3.96103 7.05587
75 1 3 -0.055903 14.7918 3.39366 7.85825
76 1 3 -0.055903 21.7402 17.6981 7.05587
77 1 3 -0.0559 21.7402 8.54005 0.580159
78 1 3 -0.0559 14.7918 12.5517 14.334
79 1 3 -0.055903 13.8091 13.1191 13.5316
80 1 3 -0.055903 22.7229 7.97268 1.38254
81 1 4 -1.26215 27.399 15.8188 11.1856
82 1 4 -1.26215 9.13299 5.27293 3.72853
83 1 4 -0.60118 27.399 18.9383 11.9641
84 1 4 -0.60118 9.13299 2.15347 2.95001
85 1 4 -0.601179 27.399 17.5926 13.8671
86 1 4 -0.601179 9.13299 3.49912 1.04697
87 1 4 -0.601179 26.2336 13.3722 9.45555
88 1 4 -0.601179 10.2984 7.71958 5.45857
89 1 4 -0.60118 28.5643 13.3722 9.45555
90 1 4 -0.60118 7.96762 7.71958 5.45857
91 1 4 -0.60118 25.8628 14.9319 13.8671
92 1 4 -0.60118 10.6692 6.15984 1.04697
93 1 4 -0.601179 24.6974 14.2591 11.9641
94 1 4 -0.601179 11.8345 6.83267 2.95001
95 1 4 -0.60118 28.9351 18.0514 9.45555
96 1 4 -0.60118 7.59682 3.04037 5.45857
97 1 4 -0.601179 30.1005 16.0329 9.45555
98 1 4 -0.601179 6.43145 5.05885 5.45857
99 1 4 -0.601179 24.6974 16.0329 9.45555
100 1 4 -0.601179 11.8345 5.05885 5.45857
101 1 4 -0.60118 25.8628 18.0514 9.45555
102 1 4 -0.60118 10.6692 3.04037 5.45857
103 1 4 -0.60118 28.9351 14.9319 13.8671
104 1 4 -0.60118 7.59682 6.15984 1.04697
105 1 4 -0.60118 30.1005 14.2591 11.9641
106 1 4 -0.60118 6.43145 6.83267 2.95001
ITEM: TIMESTEP
19000
ITEM: NUMBER OF ATOMS
109
ITEM: BOX BOUNDS xy xz yz pp pp pp
0.0000000000000000e+00 3.6531964750000000e+01 9.1329911900000003e+00
0.0000000000000000e+00 2.1091739680000000e+01 9.1329911900000003e+00
0.0000000000000000e+00 1.4914112149999999e+01 5.2729349200000000e+00
ITEM: ATOMS id mol type q x y z
1 1 1 1.10383 27.399 17.6496 10.5383
2 1 1 1.10383 9.13299 3.44217 4.3758
3 1 1 1.10383 27.399 15.8188 13.1274
4 1 1 1.10383 9.13299 5.27293 1.78671
5 1 1 1.10383 25.8135 14.9034 10.5383
6 1 1 1.10383 10.7185 6.18832 4.3758
7 1 1 1.10383 28.9845 14.9034 10.5383
8 1 1 1.10383 7.5475 6.18832 4.3758
9 1 2 0.115889 18.266 5.48596 12.6084
10 1 2 0.115889 18.266 15.6058 2.30572
11 1 2 0.115888 18.266 13.716 0.969417
12 1 2 0.115888 18.266 7.37578 13.9447
13 1 2 0.11589 25.3934 11.4908 8.12521
14 1 2 0.11589 11.1386 9.60096 6.7889
15 1 2 0.115888 11.1386 11.4908 8.12521
16 1 2 0.115888 25.3934 9.60096 6.7889
17 1 2 0.115889 15.5206 8.96083 0.969417
18 1 2 0.115889 21.0114 12.1309 13.9447
19 1 2 0.115888 22.648 13.0758 12.6084
20 1 2 0.115888 13.884 8.01592 2.30572
21 1 2 0.115889 21.0114 3.90092 8.12521
22 1 2 0.115889 15.5206 17.1908 6.7889
23 1 2 0.115887 13.884 16.2459 8.12521
24 1 2 0.115887 22.648 4.84583 6.7889
25 1 2 0.115889 22.648 16.2459 8.12521
26 1 2 0.115889 13.884 4.84583 6.7889
27 1 2 0.115887 15.5206 3.90092 8.12521
28 1 2 0.115887 21.0114 17.1908 6.7889
29 1 2 0.115889 21.0114 8.96083 0.969417
30 1 2 0.115889 15.5206 12.1309 13.9447
31 1 2 0.115887 13.884 13.0758 12.6084
32 1 2 0.115887 22.648 8.01592 2.30572
33 1 3 0.671939 27.399 18.7442 13.2542
34 1 3 0.671939 9.13299 2.34751 1.65994
35 1 3 0.671939 27.399 12.8934 9.117
36 1 3 0.671939 9.13299 8.19836 5.79712
37 1 3 0.67194 24.8655 14.3561 13.2542
38 1 3 0.67194 11.6665 6.73565 1.65994
39 1 3 0.67194 29.9325 17.2815 9.117
40 1 3 0.67194 6.5995 3.81022 5.79712
41 1 3 0.67194 24.8655 17.2815 9.117
42 1 3 0.67194 11.6665 3.81022 5.79712
43 1 3 0.67194 29.9325 14.3561 13.2542
44 1 3 0.67194 6.5995 6.73565 1.65994
45 1 3 -0.11508 27.399 19.957 14.1117
46 1 3 -0.11508 9.13299 1.13474 0.802379
47 1 3 -0.11508 27.399 11.6806 8.25944
48 1 3 -0.11508 9.13299 9.41113 6.65468
49 1 3 -0.11508 23.8152 13.7497 14.1117
50 1 3 -0.11508 12.7168 7.34203 0.802379
51 1 3 -0.11508 30.9828 17.8879 8.25944
52 1 3 -0.11508 5.54921 3.20384 6.65468
53 1 3 -0.11508 23.8152 17.8879 8.25944
54 1 3 -0.11508 12.7168 3.20384 6.65468
55 1 3 -0.11508 30.9828 13.7497 14.1117
56 1 3 -0.11508 5.54921 7.34203 0.802379
57 1 3 -0.0559 18.266 5.39949 13.5316
58 1 3 -0.0559 18.266 15.6923 1.38254
59 1 3 -0.055903 18.266 14.5575 0.580159
60 1 3 -0.055903 18.266 6.53422 14.334
61 1 3 -0.0559 26.1971 11.1132 7.85825
62 1 3 -0.0559 10.3349 9.9785 7.05587
63 1 3 -0.055903 10.3349 11.1132 7.85825
64 1 3 -0.055903 26.1971 9.9785 7.05587
65 1 3 -0.0559 14.7918 8.54005 0.580159
66 1 3 -0.0559 21.7402 12.5517 14.334
67 1 3 -0.055903 22.7229 13.1191 13.5316
68 1 3 -0.055903 13.8091 7.97268 1.38254
69 1 3 -0.0559 21.7402 3.39366 7.85825
70 1 3 -0.0559 14.7918 17.6981 7.05587
71 1 3 -0.055903 13.8091 17.1307 7.85825
72 1 3 -0.055903 22.7229 3.96103 7.05587
73 1 3 -0.055901 22.7229 17.1307 7.85825
74 1 3 -0.055901 13.8091 3.96103 7.05587
75 1 3 -0.055903 14.7918 3.39366 7.85825
76 1 3 -0.055903 21.7402 17.6981 7.05587
77 1 3 -0.0559 21.7402 8.54005 0.580159
78 1 3 -0.0559 14.7918 12.5517 14.334
79 1 3 -0.055903 13.8091 13.1191 13.5316
80 1 3 -0.055903 22.7229 7.97268 1.38254
81 1 4 -1.26215 27.399 15.8188 11.1856
82 1 4 -1.26215 9.13299 5.27293 3.72853
83 1 4 -0.60118 27.399 18.9383 11.9641
84 1 4 -0.60118 9.13299 2.15347 2.95001
85 1 4 -0.601179 27.399 17.5926 13.8671
86 1 4 -0.601179 9.13299 3.49912 1.04697
87 1 4 -0.601179 26.2336 13.3722 9.45555
88 1 4 -0.601179 10.2984 7.71958 5.45857
89 1 4 -0.60118 28.5643 13.3722 9.45555
90 1 4 -0.60118 7.96762 7.71958 5.45857
91 1 4 -0.60118 25.8628 14.9319 13.8671
92 1 4 -0.60118 10.6692 6.15984 1.04697
93 1 4 -0.601179 24.6974 14.2591 11.9641
94 1 4 -0.601179 11.8345 6.83267 2.95001
95 1 4 -0.60118 28.9351 18.0514 9.45555
96 1 4 -0.60118 7.59682 3.04037 5.45857
97 1 4 -0.601179 30.1005 16.0329 9.45555
98 1 4 -0.601179 6.43145 5.05885 5.45857
99 1 4 -0.601179 24.6974 16.0329 9.45555
100 1 4 -0.601179 11.8345 5.05885 5.45857
101 1 4 -0.60118 25.8628 18.0514 9.45555
102 1 4 -0.60118 10.6692 3.04037 5.45857
103 1 4 -0.60118 28.9351 14.9319 13.8671
104 1 4 -0.60118 7.59682 6.15984 1.04697
105 1 4 -0.60118 30.1005 14.2591 11.9641
106 1 4 -0.60118 6.43145 6.83267 2.95001
110 3 5 -0.35 15.6384 4.73565 4.4605
111 3 6 0.7 15.1436 3.71483 4.21818
112 3 5 -0.35 14.6488 2.69401 3.97587
ITEM: TIMESTEP
20000
ITEM: NUMBER OF ATOMS
106
ITEM: BOX BOUNDS xy xz yz pp pp pp
0.0000000000000000e+00 3.6531964750000000e+01 9.1329911900000003e+00
0.0000000000000000e+00 2.1091739680000000e+01 9.1329911900000003e+00
0.0000000000000000e+00 1.4914112149999999e+01 5.2729349200000000e+00
ITEM: ATOMS id mol type q x y z
1 1 1 1.10383 27.399 17.6496 10.5383
2 1 1 1.10383 9.13299 3.44217 4.3758
3 1 1 1.10383 27.399 15.8188 13.1274
4 1 1 1.10383 9.13299 5.27293 1.78671
5 1 1 1.10383 25.8135 14.9034 10.5383
6 1 1 1.10383 10.7185 6.18832 4.3758
7 1 1 1.10383 28.9845 14.9034 10.5383
8 1 1 1.10383 7.5475 6.18832 4.3758
9 1 2 0.115889 18.266 5.48596 12.6084
10 1 2 0.115889 18.266 15.6058 2.30572
11 1 2 0.115888 18.266 13.716 0.969417
12 1 2 0.115888 18.266 7.37578 13.9447
13 1 2 0.11589 25.3934 11.4908 8.12521
14 1 2 0.11589 11.1386 9.60096 6.7889
15 1 2 0.115888 11.1386 11.4908 8.12521
16 1 2 0.115888 25.3934 9.60096 6.7889
17 1 2 0.115889 15.5206 8.96083 0.969417
18 1 2 0.115889 21.0114 12.1309 13.9447
19 1 2 0.115888 22.648 13.0758 12.6084
20 1 2 0.115888 13.884 8.01592 2.30572
21 1 2 0.115889 21.0114 3.90092 8.12521
22 1 2 0.115889 15.5206 17.1908 6.7889
23 1 2 0.115887 13.884 16.2459 8.12521
24 1 2 0.115887 22.648 4.84583 6.7889
25 1 2 0.115889 22.648 16.2459 8.12521
26 1 2 0.115889 13.884 4.84583 6.7889
27 1 2 0.115887 15.5206 3.90092 8.12521
28 1 2 0.115887 21.0114 17.1908 6.7889
29 1 2 0.115889 21.0114 8.96083 0.969417
30 1 2 0.115889 15.5206 12.1309 13.9447
31 1 2 0.115887 13.884 13.0758 12.6084
32 1 2 0.115887 22.648 8.01592 2.30572
33 1 3 0.671939 27.399 18.7442 13.2542
34 1 3 0.671939 9.13299 2.34751 1.65994
35 1 3 0.671939 27.399 12.8934 9.117
36 1 3 0.671939 9.13299 8.19836 5.79712
37 1 3 0.67194 24.8655 14.3561 13.2542
38 1 3 0.67194 11.6665 6.73565 1.65994
39 1 3 0.67194 29.9325 17.2815 9.117
40 1 3 0.67194 6.5995 3.81022 5.79712
41 1 3 0.67194 24.8655 17.2815 9.117
42 1 3 0.67194 11.6665 3.81022 5.79712
43 1 3 0.67194 29.9325 14.3561 13.2542
44 1 3 0.67194 6.5995 6.73565 1.65994
45 1 3 -0.11508 27.399 19.957 14.1117
46 1 3 -0.11508 9.13299 1.13474 0.802379
47 1 3 -0.11508 27.399 11.6806 8.25944
48 1 3 -0.11508 9.13299 9.41113 6.65468
49 1 3 -0.11508 23.8152 13.7497 14.1117
50 1 3 -0.11508 12.7168 7.34203 0.802379
51 1 3 -0.11508 30.9828 17.8879 8.25944
52 1 3 -0.11508 5.54921 3.20384 6.65468
53 1 3 -0.11508 23.8152 17.8879 8.25944
54 1 3 -0.11508 12.7168 3.20384 6.65468
55 1 3 -0.11508 30.9828 13.7497 14.1117
56 1 3 -0.11508 5.54921 7.34203 0.802379
57 1 3 -0.0559 18.266 5.39949 13.5316
58 1 3 -0.0559 18.266 15.6923 1.38254
59 1 3 -0.055903 18.266 14.5575 0.580159
60 1 3 -0.055903 18.266 6.53422 14.334
61 1 3 -0.0559 26.1971 11.1132 7.85825
62 1 3 -0.0559 10.3349 9.9785 7.05587
63 1 3 -0.055903 10.3349 11.1132 7.85825
64 1 3 -0.055903 26.1971 9.9785 7.05587
65 1 3 -0.0559 14.7918 8.54005 0.580159
66 1 3 -0.0559 21.7402 12.5517 14.334
67 1 3 -0.055903 22.7229 13.1191 13.5316
68 1 3 -0.055903 13.8091 7.97268 1.38254
69 1 3 -0.0559 21.7402 3.39366 7.85825
70 1 3 -0.0559 14.7918 17.6981 7.05587
71 1 3 -0.055903 13.8091 17.1307 7.85825
72 1 3 -0.055903 22.7229 3.96103 7.05587
73 1 3 -0.055901 22.7229 17.1307 7.85825
74 1 3 -0.055901 13.8091 3.96103 7.05587
75 1 3 -0.055903 14.7918 3.39366 7.85825
76 1 3 -0.055903 21.7402 17.6981 7.05587
77 1 3 -0.0559 21.7402 8.54005 0.580159
78 1 3 -0.0559 14.7918 12.5517 14.334
79 1 3 -0.055903 13.8091 13.1191 13.5316
80 1 3 -0.055903 22.7229 7.97268 1.38254
81 1 4 -1.26215 27.399 15.8188 11.1856
82 1 4 -1.26215 9.13299 5.27293 3.72853
83 1 4 -0.60118 27.399 18.9383 11.9641
84 1 4 -0.60118 9.13299 2.15347 2.95001
85 1 4 -0.601179 27.399 17.5926 13.8671
86 1 4 -0.601179 9.13299 3.49912 1.04697
87 1 4 -0.601179 26.2336 13.3722 9.45555
88 1 4 -0.601179 10.2984 7.71958 5.45857
89 1 4 -0.60118 28.5643 13.3722 9.45555
90 1 4 -0.60118 7.96762 7.71958 5.45857
91 1 4 -0.60118 25.8628 14.9319 13.8671
92 1 4 -0.60118 10.6692 6.15984 1.04697
93 1 4 -0.601179 24.6974 14.2591 11.9641
94 1 4 -0.601179 11.8345 6.83267 2.95001
95 1 4 -0.60118 28.9351 18.0514 9.45555
96 1 4 -0.60118 7.59682 3.04037 5.45857
97 1 4 -0.601179 30.1005 16.0329 9.45555
98 1 4 -0.601179 6.43145 5.05885 5.45857
99 1 4 -0.601179 24.6974 16.0329 9.45555
100 1 4 -0.601179 11.8345 5.05885 5.45857
101 1 4 -0.60118 25.8628 18.0514 9.45555
102 1 4 -0.60118 10.6692 3.04037 5.45857
103 1 4 -0.60118 28.9351 14.9319 13.8671
104 1 4 -0.60118 7.59682 6.15984 1.04697
105 1 4 -0.60118 30.1005 14.2591 11.9641
106 1 4 -0.60118 6.43145 6.83267 2.95001
ITEM: TIMESTEP
21000
ITEM: NUMBER OF ATOMS
106
ITEM: BOX BOUNDS xy xz yz pp pp pp
0.0000000000000000e+00 3.6531964750000000e+01 9.1329911900000003e+00
0.0000000000000000e+00 2.1091739680000000e+01 9.1329911900000003e+00
0.0000000000000000e+00 1.4914112149999999e+01 5.2729349200000000e+00
ITEM: ATOMS id mol type q x y z
1 1 1 1.10383 27.399 17.6496 10.5383
2 1 1 1.10383 9.13299 3.44217 4.3758
3 1 1 1.10383 27.399 15.8188 13.1274
4 1 1 1.10383 9.13299 5.27293 1.78671
5 1 1 1.10383 25.8135 14.9034 10.5383
6 1 1 1.10383 10.7185 6.18832 4.3758
7 1 1 1.10383 28.9845 14.9034 10.5383
8 1 1 1.10383 7.5475 6.18832 4.3758
9 1 2 0.115889 18.266 5.48596 12.6084
10 1 2 0.115889 18.266 15.6058 2.30572
11 1 2 0.115888 18.266 13.716 0.969417
12 1 2 0.115888 18.266 7.37578 13.9447
13 1 2 0.11589 25.3934 11.4908 8.12521
14 1 2 0.11589 11.1386 9.60096 6.7889
15 1 2 0.115888 11.1386 11.4908 8.12521
16 1 2 0.115888 25.3934 9.60096 6.7889
17 1 2 0.115889 15.5206 8.96083 0.969417
18 1 2 0.115889 21.0114 12.1309 13.9447
19 1 2 0.115888 22.648 13.0758 12.6084
20 1 2 0.115888 13.884 8.01592 2.30572
21 1 2 0.115889 21.0114 3.90092 8.12521
22 1 2 0.115889 15.5206 17.1908 6.7889
23 1 2 0.115887 13.884 16.2459 8.12521
24 1 2 0.115887 22.648 4.84583 6.7889
25 1 2 0.115889 22.648 16.2459 8.12521
26 1 2 0.115889 13.884 4.84583 6.7889
27 1 2 0.115887 15.5206 3.90092 8.12521
28 1 2 0.115887 21.0114 17.1908 6.7889
29 1 2 0.115889 21.0114 8.96083 0.969417
30 1 2 0.115889 15.5206 12.1309 13.9447
31 1 2 0.115887 13.884 13.0758 12.6084
32 1 2 0.115887 22.648 8.01592 2.30572
33 1 3 0.671939 27.399 18.7442 13.2542
34 1 3 0.671939 9.13299 2.34751 1.65994
35 1 3 0.671939 27.399 12.8934 9.117
36 1 3 0.671939 9.13299 8.19836 5.79712
37 1 3 0.67194 24.8655 14.3561 13.2542
38 1 3 0.67194 11.6665 6.73565 1.65994
39 1 3 0.67194 29.9325 17.2815 9.117
40 1 3 0.67194 6.5995 3.81022 5.79712
41 1 3 0.67194 24.8655 17.2815 9.117
42 1 3 0.67194 11.6665 3.81022 5.79712
43 1 3 0.67194 29.9325 14.3561 13.2542
44 1 3 0.67194 6.5995 6.73565 1.65994
45 1 3 -0.11508 27.399 19.957 14.1117
46 1 3 -0.11508 9.13299 1.13474 0.802379
47 1 3 -0.11508 27.399 11.6806 8.25944
48 1 3 -0.11508 9.13299 9.41113 6.65468
49 1 3 -0.11508 23.8152 13.7497 14.1117
50 1 3 -0.11508 12.7168 7.34203 0.802379
51 1 3 -0.11508 30.9828 17.8879 8.25944
52 1 3 -0.11508 5.54921 3.20384 6.65468
53 1 3 -0.11508 23.8152 17.8879 8.25944
54 1 3 -0.11508 12.7168 3.20384 6.65468
55 1 3 -0.11508 30.9828 13.7497 14.1117
56 1 3 -0.11508 5.54921 7.34203 0.802379
57 1 3 -0.0559 18.266 5.39949 13.5316
58 1 3 -0.0559 18.266 15.6923 1.38254
59 1 3 -0.055903 18.266 14.5575 0.580159
60 1 3 -0.055903 18.266 6.53422 14.334
61 1 3 -0.0559 26.1971 11.1132 7.85825
62 1 3 -0.0559 10.3349 9.9785 7.05587
63 1 3 -0.055903 10.3349 11.1132 7.85825
64 1 3 -0.055903 26.1971 9.9785 7.05587
65 1 3 -0.0559 14.7918 8.54005 0.580159
66 1 3 -0.0559 21.7402 12.5517 14.334
67 1 3 -0.055903 22.7229 13.1191 13.5316
68 1 3 -0.055903 13.8091 7.97268 1.38254
69 1 3 -0.0559 21.7402 3.39366 7.85825
70 1 3 -0.0559 14.7918 17.6981 7.05587
71 1 3 -0.055903 13.8091 17.1307 7.85825
72 1 3 -0.055903 22.7229 3.96103 7.05587
73 1 3 -0.055901 22.7229 17.1307 7.85825
74 1 3 -0.055901 13.8091 3.96103 7.05587
75 1 3 -0.055903 14.7918 3.39366 7.85825
76 1 3 -0.055903 21.7402 17.6981 7.05587
77 1 3 -0.0559 21.7402 8.54005 0.580159
78 1 3 -0.0559 14.7918 12.5517 14.334
79 1 3 -0.055903 13.8091 13.1191 13.5316
80 1 3 -0.055903 22.7229 7.97268 1.38254
81 1 4 -1.26215 27.399 15.8188 11.1856
82 1 4 -1.26215 9.13299 5.27293 3.72853
83 1 4 -0.60118 27.399 18.9383 11.9641
84 1 4 -0.60118 9.13299 2.15347 2.95001
85 1 4 -0.601179 27.399 17.5926 13.8671
86 1 4 -0.601179 9.13299 3.49912 1.04697
87 1 4 -0.601179 26.2336 13.3722 9.45555
88 1 4 -0.601179 10.2984 7.71958 5.45857
89 1 4 -0.60118 28.5643 13.3722 9.45555
90 1 4 -0.60118 7.96762 7.71958 5.45857
91 1 4 -0.60118 25.8628 14.9319 13.8671
92 1 4 -0.60118 10.6692 6.15984 1.04697
93 1 4 -0.601179 24.6974 14.2591 11.9641
94 1 4 -0.601179 11.8345 6.83267 2.95001
95 1 4 -0.60118 28.9351 18.0514 9.45555
96 1 4 -0.60118 7.59682 3.04037 5.45857
97 1 4 -0.601179 30.1005 16.0329 9.45555
98 1 4 -0.601179 6.43145 5.05885 5.45857
99 1 4 -0.601179 24.6974 16.0329 9.45555
100 1 4 -0.601179 11.8345 5.05885 5.45857
101 1 4 -0.60118 25.8628 18.0514 9.45555
102 1 4 -0.60118 10.6692 3.04037 5.45857
103 1 4 -0.60118 28.9351 14.9319 13.8671
104 1 4 -0.60118 7.59682 6.15984 1.04697
105 1 4 -0.60118 30.1005 14.2591 11.9641
106 1 4 -0.60118 6.43145 6.83267 2.95001
ITEM: TIMESTEP
22000
ITEM: NUMBER OF ATOMS
106
ITEM: BOX BOUNDS xy xz yz pp pp pp
0.0000000000000000e+00 3.6531964750000000e+01 9.1329911900000003e+00
0.0000000000000000e+00 2.1091739680000000e+01 9.1329911900000003e+00
0.0000000000000000e+00 1.4914112149999999e+01 5.2729349200000000e+00
ITEM: ATOMS id mol type q x y z
1 1 1 1.10383 27.399 17.6496 10.5383
2 1 1 1.10383 9.13299 3.44217 4.3758
3 1 1 1.10383 27.399 15.8188 13.1274
4 1 1 1.10383 9.13299 5.27293 1.78671
5 1 1 1.10383 25.8135 14.9034 10.5383
6 1 1 1.10383 10.7185 6.18832 4.3758
7 1 1 1.10383 28.9845 14.9034 10.5383
8 1 1 1.10383 7.5475 6.18832 4.3758
9 1 2 0.115889 18.266 5.48596 12.6084
10 1 2 0.115889 18.266 15.6058 2.30572
11 1 2 0.115888 18.266 13.716 0.969417
12 1 2 0.115888 18.266 7.37578 13.9447
13 1 2 0.11589 25.3934 11.4908 8.12521
14 1 2 0.11589 11.1386 9.60096 6.7889
15 1 2 0.115888 11.1386 11.4908 8.12521
16 1 2 0.115888 25.3934 9.60096 6.7889
17 1 2 0.115889 15.5206 8.96083 0.969417
18 1 2 0.115889 21.0114 12.1309 13.9447
19 1 2 0.115888 22.648 13.0758 12.6084
20 1 2 0.115888 13.884 8.01592 2.30572
21 1 2 0.115889 21.0114 3.90092 8.12521
22 1 2 0.115889 15.5206 17.1908 6.7889
23 1 2 0.115887 13.884 16.2459 8.12521
24 1 2 0.115887 22.648 4.84583 6.7889
25 1 2 0.115889 22.648 16.2459 8.12521
26 1 2 0.115889 13.884 4.84583 6.7889
27 1 2 0.115887 15.5206 3.90092 8.12521
28 1 2 0.115887 21.0114 17.1908 6.7889
29 1 2 0.115889 21.0114 8.96083 0.969417
30 1 2 0.115889 15.5206 12.1309 13.9447
31 1 2 0.115887 13.884 13.0758 12.6084
32 1 2 0.115887 22.648 8.01592 2.30572
33 1 3 0.671939 27.399 18.7442 13.2542
34 1 3 0.671939 9.13299 2.34751 1.65994
35 1 3 0.671939 27.399 12.8934 9.117
36 1 3 0.671939 9.13299 8.19836 5.79712
37 1 3 0.67194 24.8655 14.3561 13.2542
38 1 3 0.67194 11.6665 6.73565 1.65994
39 1 3 0.67194 29.9325 17.2815 9.117
40 1 3 0.67194 6.5995 3.81022 5.79712
41 1 3 0.67194 24.8655 17.2815 9.117
42 1 3 0.67194 11.6665 3.81022 5.79712
43 1 3 0.67194 29.9325 14.3561 13.2542
44 1 3 0.67194 6.5995 6.73565 1.65994
45 1 3 -0.11508 27.399 19.957 14.1117
46 1 3 -0.11508 9.13299 1.13474 0.802379
47 1 3 -0.11508 27.399 11.6806 8.25944
48 1 3 -0.11508 9.13299 9.41113 6.65468
49 1 3 -0.11508 23.8152 13.7497 14.1117
50 1 3 -0.11508 12.7168 7.34203 0.802379
51 1 3 -0.11508 30.9828 17.8879 8.25944
52 1 3 -0.11508 5.54921 3.20384 6.65468
53 1 3 -0.11508 23.8152 17.8879 8.25944
54 1 3 -0.11508 12.7168 3.20384 6.65468
55 1 3 -0.11508 30.9828 13.7497 14.1117
56 1 3 -0.11508 5.54921 7.34203 0.802379
57 1 3 -0.0559 18.266 5.39949 13.5316
58 1 3 -0.0559 18.266 15.6923 1.38254
59 1 3 -0.055903 18.266 14.5575 0.580159
60 1 3 -0.055903 18.266 6.53422 14.334
61 1 3 -0.0559 26.1971 11.1132 7.85825
62 1 3 -0.0559 10.3349 9.9785 7.05587
63 1 3 -0.055903 10.3349 11.1132 7.85825
64 1 3 -0.055903 26.1971 9.9785 7.05587
65 1 3 -0.0559 14.7918 8.54005 0.580159
66 1 3 -0.0559 21.7402 12.5517 14.334
67 1 3 -0.055903 22.7229 13.1191 13.5316
68 1 3 -0.055903 13.8091 7.97268 1.38254
69 1 3 -0.0559 21.7402 3.39366 7.85825
70 1 3 -0.0559 14.7918 17.6981 7.05587
71 1 3 -0.055903 13.8091 17.1307 7.85825
72 1 3 -0.055903 22.7229 3.96103 7.05587
73 1 3 -0.055901 22.7229 17.1307 7.85825
74 1 3 -0.055901 13.8091 3.96103 7.05587
75 1 3 -0.055903 14.7918 3.39366 7.85825
76 1 3 -0.055903 21.7402 17.6981 7.05587
77 1 3 -0.0559 21.7402 8.54005 0.580159
78 1 3 -0.0559 14.7918 12.5517 14.334
79 1 3 -0.055903 13.8091 13.1191 13.5316
80 1 3 -0.055903 22.7229 7.97268 1.38254
81 1 4 -1.26215 27.399 15.8188 11.1856
82 1 4 -1.26215 9.13299 5.27293 3.72853
83 1 4 -0.60118 27.399 18.9383 11.9641
84 1 4 -0.60118 9.13299 2.15347 2.95001
85 1 4 -0.601179 27.399 17.5926 13.8671
86 1 4 -0.601179 9.13299 3.49912 1.04697
87 1 4 -0.601179 26.2336 13.3722 9.45555
88 1 4 -0.601179 10.2984 7.71958 5.45857
89 1 4 -0.60118 28.5643 13.3722 9.45555
90 1 4 -0.60118 7.96762 7.71958 5.45857
91 1 4 -0.60118 25.8628 14.9319 13.8671
92 1 4 -0.60118 10.6692 6.15984 1.04697
93 1 4 -0.601179 24.6974 14.2591 11.9641
94 1 4 -0.601179 11.8345 6.83267 2.95001
95 1 4 -0.60118 28.9351 18.0514 9.45555
96 1 4 -0.60118 7.59682 3.04037 5.45857
97 1 4 -0.601179 30.1005 16.0329 9.45555
98 1 4 -0.601179 6.43145 5.05885 5.45857
99 1 4 -0.601179 24.6974 16.0329 9.45555
100 1 4 -0.601179 11.8345 5.05885 5.45857
101 1 4 -0.60118 25.8628 18.0514 9.45555
102 1 4 -0.60118 10.6692 3.04037 5.45857
103 1 4 -0.60118 28.9351 14.9319 13.8671
104 1 4 -0.60118 7.59682 6.15984 1.04697
105 1 4 -0.60118 30.1005 14.2591 11.9641
106 1 4 -0.60118 6.43145 6.83267 2.95001
ITEM: TIMESTEP
23000
ITEM: NUMBER OF ATOMS
118
ITEM: BOX BOUNDS xy xz yz pp pp pp
0.0000000000000000e+00 3.6531964750000000e+01 9.1329911900000003e+00
0.0000000000000000e+00 2.1091739680000000e+01 9.1329911900000003e+00
0.0000000000000000e+00 1.4914112149999999e+01 5.2729349200000000e+00
ITEM: ATOMS id mol type q x y z
1 1 1 1.10383 27.399 17.6496 10.5383
2 1 1 1.10383 9.13299 3.44217 4.3758
3 1 1 1.10383 27.399 15.8188 13.1274
4 1 1 1.10383 9.13299 5.27293 1.78671
5 1 1 1.10383 25.8135 14.9034 10.5383
6 1 1 1.10383 10.7185 6.18832 4.3758
7 1 1 1.10383 28.9845 14.9034 10.5383
8 1 1 1.10383 7.5475 6.18832 4.3758
9 1 2 0.115889 18.266 5.48596 12.6084
10 1 2 0.115889 18.266 15.6058 2.30572
11 1 2 0.115888 18.266 13.716 0.969417
12 1 2 0.115888 18.266 7.37578 13.9447
13 1 2 0.11589 25.3934 11.4908 8.12521
14 1 2 0.11589 11.1386 9.60096 6.7889
15 1 2 0.115888 11.1386 11.4908 8.12521
16 1 2 0.115888 25.3934 9.60096 6.7889
17 1 2 0.115889 15.5206 8.96083 0.969417
18 1 2 0.115889 21.0114 12.1309 13.9447
19 1 2 0.115888 22.648 13.0758 12.6084
20 1 2 0.115888 13.884 8.01592 2.30572
21 1 2 0.115889 21.0114 3.90092 8.12521
22 1 2 0.115889 15.5206 17.1908 6.7889
23 1 2 0.115887 13.884 16.2459 8.12521
24 1 2 0.115887 22.648 4.84583 6.7889
25 1 2 0.115889 22.648 16.2459 8.12521
26 1 2 0.115889 13.884 4.84583 6.7889
27 1 2 0.115887 15.5206 3.90092 8.12521
28 1 2 0.115887 21.0114 17.1908 6.7889
29 1 2 0.115889 21.0114 8.96083 0.969417
30 1 2 0.115889 15.5206 12.1309 13.9447
31 1 2 0.115887 13.884 13.0758 12.6084
32 1 2 0.115887 22.648 8.01592 2.30572
33 1 3 0.671939 27.399 18.7442 13.2542
34 1 3 0.671939 9.13299 2.34751 1.65994
35 1 3 0.671939 27.399 12.8934 9.117
36 1 3 0.671939 9.13299 8.19836 5.79712
37 1 3 0.67194 24.8655 14.3561 13.2542
38 1 3 0.67194 11.6665 6.73565 1.65994
39 1 3 0.67194 29.9325 17.2815 9.117
40 1 3 0.67194 6.5995 3.81022 5.79712
41 1 3 0.67194 24.8655 17.2815 9.117
42 1 3 0.67194 11.6665 3.81022 5.79712
43 1 3 0.67194 29.9325 14.3561 13.2542
44 1 3 0.67194 6.5995 6.73565 1.65994
45 1 3 -0.11508 27.399 19.957 14.1117
46 1 3 -0.11508 9.13299 1.13474 0.802379
47 1 3 -0.11508 27.399 11.6806 8.25944
48 1 3 -0.11508 9.13299 9.41113 6.65468
49 1 3 -0.11508 23.8152 13.7497 14.1117
50 1 3 -0.11508 12.7168 7.34203 0.802379
51 1 3 -0.11508 30.9828 17.8879 8.25944
52 1 3 -0.11508 5.54921 3.20384 6.65468
53 1 3 -0.11508 23.8152 17.8879 8.25944
54 1 3 -0.11508 12.7168 3.20384 6.65468
55 1 3 -0.11508 30.9828 13.7497 14.1117
56 1 3 -0.11508 5.54921 7.34203 0.802379
57 1 3 -0.0559 18.266 5.39949 13.5316
58 1 3 -0.0559 18.266 15.6923 1.38254
59 1 3 -0.055903 18.266 14.5575 0.580159
60 1 3 -0.055903 18.266 6.53422 14.334
61 1 3 -0.0559 26.1971 11.1132 7.85825
62 1 3 -0.0559 10.3349 9.9785 7.05587
63 1 3 -0.055903 10.3349 11.1132 7.85825
64 1 3 -0.055903 26.1971 9.9785 7.05587
65 1 3 -0.0559 14.7918 8.54005 0.580159
66 1 3 -0.0559 21.7402 12.5517 14.334
67 1 3 -0.055903 22.7229 13.1191 13.5316
68 1 3 -0.055903 13.8091 7.97268 1.38254
69 1 3 -0.0559 21.7402 3.39366 7.85825
70 1 3 -0.0559 14.7918 17.6981 7.05587
71 1 3 -0.055903 13.8091 17.1307 7.85825
72 1 3 -0.055903 22.7229 3.96103 7.05587
73 1 3 -0.055901 22.7229 17.1307 7.85825
74 1 3 -0.055901 13.8091 3.96103 7.05587
75 1 3 -0.055903 14.7918 3.39366 7.85825
76 1 3 -0.055903 21.7402 17.6981 7.05587
77 1 3 -0.0559 21.7402 8.54005 0.580159
78 1 3 -0.0559 14.7918 12.5517 14.334
79 1 3 -0.055903 13.8091 13.1191 13.5316
80 1 3 -0.055903 22.7229 7.97268 1.38254
81 1 4 -1.26215 27.399 15.8188 11.1856
82 1 4 -1.26215 9.13299 5.27293 3.72853
83 1 4 -0.60118 27.399 18.9383 11.9641
84 1 4 -0.60118 9.13299 2.15347 2.95001
85 1 4 -0.601179 27.399 17.5926 13.8671
86 1 4 -0.601179 9.13299 3.49912 1.04697
87 1 4 -0.601179 26.2336 13.3722 9.45555
88 1 4 -0.601179 10.2984 7.71958 5.45857
89 1 4 -0.60118 28.5643 13.3722 9.45555
90 1 4 -0.60118 7.96762 7.71958 5.45857
91 1 4 -0.60118 25.8628 14.9319 13.8671
92 1 4 -0.60118 10.6692 6.15984 1.04697
93 1 4 -0.601179 24.6974 14.2591 11.9641
94 1 4 -0.601179 11.8345 6.83267 2.95001
95 1 4 -0.60118 28.9351 18.0514 9.45555
96 1 4 -0.60118 7.59682 3.04037 5.45857
97 1 4 -0.601179 30.1005 16.0329 9.45555
98 1 4 -0.601179 6.43145 5.05885 5.45857
99 1 4 -0.601179 24.6974 16.0329 9.45555
100 1 4 -0.601179 11.8345 5.05885 5.45857
101 1 4 -0.60118 25.8628 18.0514 9.45555
102 1 4 -0.60118 10.6692 3.04037 5.45857
103 1 4 -0.60118 28.9351 14.9319 13.8671
104 1 4 -0.60118 7.59682 6.15984 1.04697
105 1 4 -0.60118 30.1005 14.2591 11.9641
106 1 4 -0.60118 6.43145 6.83267 2.95001
107 2 5 -0.35 12.6022 4.1791 10.179
108 2 6 0.7 13.4433 4.43058 10.9372
109 2 5 -0.35 14.2844 4.68206 11.6954
110 3 5 -0.35 15.8774 5.0465 1.23821
111 3 6 0.7 15.4897 4.83163 0.166252
112 3 5 -0.35 24.235 9.8897 14.0084
113 4 5 -0.35 18.293 4.39293 5.79986
114 4 6 0.7 19.1354 4.21718 5.02196
115 4 5 -0.35 19.9778 4.04144 4.24407
116 5 5 -0.35 21.7566 15.7323 3.08919
117 5 6 0.7 22.5222 16.1207 3.86928
118 5 5 -0.35 23.2878 16.5091 4.64938
ITEM: TIMESTEP
24000
ITEM: NUMBER OF ATOMS
106
ITEM: BOX BOUNDS xy xz yz pp pp pp
0.0000000000000000e+00 3.6531964750000000e+01 9.1329911900000003e+00
0.0000000000000000e+00 2.1091739680000000e+01 9.1329911900000003e+00
0.0000000000000000e+00 1.4914112149999999e+01 5.2729349200000000e+00
ITEM: ATOMS id mol type q x y z
1 1 1 1.10383 27.399 17.6496 10.5383
2 1 1 1.10383 9.13299 3.44217 4.3758
3 1 1 1.10383 27.399 15.8188 13.1274
4 1 1 1.10383 9.13299 5.27293 1.78671
5 1 1 1.10383 25.8135 14.9034 10.5383
6 1 1 1.10383 10.7185 6.18832 4.3758
7 1 1 1.10383 28.9845 14.9034 10.5383
8 1 1 1.10383 7.5475 6.18832 4.3758
9 1 2 0.115889 18.266 5.48596 12.6084
10 1 2 0.115889 18.266 15.6058 2.30572
11 1 2 0.115888 18.266 13.716 0.969417
12 1 2 0.115888 18.266 7.37578 13.9447
13 1 2 0.11589 25.3934 11.4908 8.12521
14 1 2 0.11589 11.1386 9.60096 6.7889
15 1 2 0.115888 11.1386 11.4908 8.12521
16 1 2 0.115888 25.3934 9.60096 6.7889
17 1 2 0.115889 15.5206 8.96083 0.969417
18 1 2 0.115889 21.0114 12.1309 13.9447
19 1 2 0.115888 22.648 13.0758 12.6084
20 1 2 0.115888 13.884 8.01592 2.30572
21 1 2 0.115889 21.0114 3.90092 8.12521
22 1 2 0.115889 15.5206 17.1908 6.7889
23 1 2 0.115887 13.884 16.2459 8.12521
24 1 2 0.115887 22.648 4.84583 6.7889
25 1 2 0.115889 22.648 16.2459 8.12521
26 1 2 0.115889 13.884 4.84583 6.7889
27 1 2 0.115887 15.5206 3.90092 8.12521
28 1 2 0.115887 21.0114 17.1908 6.7889
29 1 2 0.115889 21.0114 8.96083 0.969417
30 1 2 0.115889 15.5206 12.1309 13.9447
31 1 2 0.115887 13.884 13.0758 12.6084
32 1 2 0.115887 22.648 8.01592 2.30572
33 1 3 0.671939 27.399 18.7442 13.2542
34 1 3 0.671939 9.13299 2.34751 1.65994
35 1 3 0.671939 27.399 12.8934 9.117
36 1 3 0.671939 9.13299 8.19836 5.79712
37 1 3 0.67194 24.8655 14.3561 13.2542
38 1 3 0.67194 11.6665 6.73565 1.65994
39 1 3 0.67194 29.9325 17.2815 9.117
40 1 3 0.67194 6.5995 3.81022 5.79712
41 1 3 0.67194 24.8655 17.2815 9.117
42 1 3 0.67194 11.6665 3.81022 5.79712
43 1 3 0.67194 29.9325 14.3561 13.2542
44 1 3 0.67194 6.5995 6.73565 1.65994
45 1 3 -0.11508 27.399 19.957 14.1117
46 1 3 -0.11508 9.13299 1.13474 0.802379
47 1 3 -0.11508 27.399 11.6806 8.25944
48 1 3 -0.11508 9.13299 9.41113 6.65468
49 1 3 -0.11508 23.8152 13.7497 14.1117
50 1 3 -0.11508 12.7168 7.34203 0.802379
51 1 3 -0.11508 30.9828 17.8879 8.25944
52 1 3 -0.11508 5.54921 3.20384 6.65468
53 1 3 -0.11508 23.8152 17.8879 8.25944
54 1 3 -0.11508 12.7168 3.20384 6.65468
55 1 3 -0.11508 30.9828 13.7497 14.1117
56 1 3 -0.11508 5.54921 7.34203 0.802379
57 1 3 -0.0559 18.266 5.39949 13.5316
58 1 3 -0.0559 18.266 15.6923 1.38254
59 1 3 -0.055903 18.266 14.5575 0.580159
60 1 3 -0.055903 18.266 6.53422 14.334
61 1 3 -0.0559 26.1971 11.1132 7.85825
62 1 3 -0.0559 10.3349 9.9785 7.05587
63 1 3 -0.055903 10.3349 11.1132 7.85825
64 1 3 -0.055903 26.1971 9.9785 7.05587
65 1 3 -0.0559 14.7918 8.54005 0.580159
66 1 3 -0.0559 21.7402 12.5517 14.334
67 1 3 -0.055903 22.7229 13.1191 13.5316
68 1 3 -0.055903 13.8091 7.97268 1.38254
69 1 3 -0.0559 21.7402 3.39366 7.85825
70 1 3 -0.0559 14.7918 17.6981 7.05587
71 1 3 -0.055903 13.8091 17.1307 7.85825
72 1 3 -0.055903 22.7229 3.96103 7.05587
73 1 3 -0.055901 22.7229 17.1307 7.85825
74 1 3 -0.055901 13.8091 3.96103 7.05587
75 1 3 -0.055903 14.7918 3.39366 7.85825
76 1 3 -0.055903 21.7402 17.6981 7.05587
77 1 3 -0.0559 21.7402 8.54005 0.580159
78 1 3 -0.0559 14.7918 12.5517 14.334
79 1 3 -0.055903 13.8091 13.1191 13.5316
80 1 3 -0.055903 22.7229 7.97268 1.38254
81 1 4 -1.26215 27.399 15.8188 11.1856
82 1 4 -1.26215 9.13299 5.27293 3.72853
83 1 4 -0.60118 27.399 18.9383 11.9641
84 1 4 -0.60118 9.13299 2.15347 2.95001
85 1 4 -0.601179 27.399 17.5926 13.8671
86 1 4 -0.601179 9.13299 3.49912 1.04697
87 1 4 -0.601179 26.2336 13.3722 9.45555
88 1 4 -0.601179 10.2984 7.71958 5.45857
89 1 4 -0.60118 28.5643 13.3722 9.45555
90 1 4 -0.60118 7.96762 7.71958 5.45857
91 1 4 -0.60118 25.8628 14.9319 13.8671
92 1 4 -0.60118 10.6692 6.15984 1.04697
93 1 4 -0.601179 24.6974 14.2591 11.9641
94 1 4 -0.601179 11.8345 6.83267 2.95001
95 1 4 -0.60118 28.9351 18.0514 9.45555
96 1 4 -0.60118 7.59682 3.04037 5.45857
97 1 4 -0.601179 30.1005 16.0329 9.45555
98 1 4 -0.601179 6.43145 5.05885 5.45857
99 1 4 -0.601179 24.6974 16.0329 9.45555
100 1 4 -0.601179 11.8345 5.05885 5.45857
101 1 4 -0.60118 25.8628 18.0514 9.45555
102 1 4 -0.60118 10.6692 3.04037 5.45857
103 1 4 -0.60118 28.9351 14.9319 13.8671
104 1 4 -0.60118 7.59682 6.15984 1.04697
105 1 4 -0.60118 30.1005 14.2591 11.9641
106 1 4 -0.60118 6.43145 6.83267 2.95001
ITEM: TIMESTEP
25000
ITEM: NUMBER OF ATOMS
106
ITEM: BOX BOUNDS xy xz yz pp pp pp
0.0000000000000000e+00 3.6531964750000000e+01 9.1329911900000003e+00
0.0000000000000000e+00 2.1091739680000000e+01 9.1329911900000003e+00
0.0000000000000000e+00 1.4914112149999999e+01 5.2729349200000000e+00
ITEM: ATOMS id mol type q x y z
1 1 1 1.10383 27.399 17.6496 10.5383
2 1 1 1.10383 9.13299 3.44217 4.3758
3 1 1 1.10383 27.399 15.8188 13.1274
4 1 1 1.10383 9.13299 5.27293 1.78671
5 1 1 1.10383 25.8135 14.9034 10.5383
6 1 1 1.10383 10.7185 6.18832 4.3758
7 1 1 1.10383 28.9845 14.9034 10.5383
8 1 1 1.10383 7.5475 6.18832 4.3758
9 1 2 0.115889 18.266 5.48596 12.6084
10 1 2 0.115889 18.266 15.6058 2.30572
11 1 2 0.115888 18.266 13.716 0.969417
12 1 2 0.115888 18.266 7.37578 13.9447
13 1 2 0.11589 25.3934 11.4908 8.12521
14 1 2 0.11589 11.1386 9.60096 6.7889
15 1 2 0.115888 11.1386 11.4908 8.12521
16 1 2 0.115888 25.3934 9.60096 6.7889
17 1 2 0.115889 15.5206 8.96083 0.969417
18 1 2 0.115889 21.0114 12.1309 13.9447
19 1 2 0.115888 22.648 13.0758 12.6084
20 1 2 0.115888 13.884 8.01592 2.30572
21 1 2 0.115889 21.0114 3.90092 8.12521
22 1 2 0.115889 15.5206 17.1908 6.7889
23 1 2 0.115887 13.884 16.2459 8.12521
24 1 2 0.115887 22.648 4.84583 6.7889
25 1 2 0.115889 22.648 16.2459 8.12521
26 1 2 0.115889 13.884 4.84583 6.7889
27 1 2 0.115887 15.5206 3.90092 8.12521
28 1 2 0.115887 21.0114 17.1908 6.7889
29 1 2 0.115889 21.0114 8.96083 0.969417
30 1 2 0.115889 15.5206 12.1309 13.9447
31 1 2 0.115887 13.884 13.0758 12.6084
32 1 2 0.115887 22.648 8.01592 2.30572
33 1 3 0.671939 27.399 18.7442 13.2542
34 1 3 0.671939 9.13299 2.34751 1.65994
35 1 3 0.671939 27.399 12.8934 9.117
36 1 3 0.671939 9.13299 8.19836 5.79712
37 1 3 0.67194 24.8655 14.3561 13.2542
38 1 3 0.67194 11.6665 6.73565 1.65994
39 1 3 0.67194 29.9325 17.2815 9.117
40 1 3 0.67194 6.5995 3.81022 5.79712
41 1 3 0.67194 24.8655 17.2815 9.117
42 1 3 0.67194 11.6665 3.81022 5.79712
43 1 3 0.67194 29.9325 14.3561 13.2542
44 1 3 0.67194 6.5995 6.73565 1.65994
45 1 3 -0.11508 27.399 19.957 14.1117
46 1 3 -0.11508 9.13299 1.13474 0.802379
47 1 3 -0.11508 27.399 11.6806 8.25944
48 1 3 -0.11508 9.13299 9.41113 6.65468
49 1 3 -0.11508 23.8152 13.7497 14.1117
50 1 3 -0.11508 12.7168 7.34203 0.802379
51 1 3 -0.11508 30.9828 17.8879 8.25944
52 1 3 -0.11508 5.54921 3.20384 6.65468
53 1 3 -0.11508 23.8152 17.8879 8.25944
54 1 3 -0.11508 12.7168 3.20384 6.65468
55 1 3 -0.11508 30.9828 13.7497 14.1117
56 1 3 -0.11508 5.54921 7.34203 0.802379
57 1 3 -0.0559 18.266 5.39949 13.5316
58 1 3 -0.0559 18.266 15.6923 1.38254
59 1 3 -0.055903 18.266 14.5575 0.580159
60 1 3 -0.055903 18.266 6.53422 14.334
61 1 3 -0.0559 26.1971 11.1132 7.85825
62 1 3 -0.0559 10.3349 9.9785 7.05587
63 1 3 -0.055903 10.3349 11.1132 7.85825
64 1 3 -0.055903 26.1971 9.9785 7.05587
65 1 3 -0.0559 14.7918 8.54005 0.580159
66 1 3 -0.0559 21.7402 12.5517 14.334
67 1 3 -0.055903 22.7229 13.1191 13.5316
68 1 3 -0.055903 13.8091 7.97268 1.38254
69 1 3 -0.0559 21.7402 3.39366 7.85825
70 1 3 -0.0559 14.7918 17.6981 7.05587
71 1 3 -0.055903 13.8091 17.1307 7.85825
72 1 3 -0.055903 22.7229 3.96103 7.05587
73 1 3 -0.055901 22.7229 17.1307 7.85825
74 1 3 -0.055901 13.8091 3.96103 7.05587
75 1 3 -0.055903 14.7918 3.39366 7.85825
76 1 3 -0.055903 21.7402 17.6981 7.05587
77 1 3 -0.0559 21.7402 8.54005 0.580159
78 1 3 -0.0559 14.7918 12.5517 14.334
79 1 3 -0.055903 13.8091 13.1191 13.5316
80 1 3 -0.055903 22.7229 7.97268 1.38254
81 1 4 -1.26215 27.399 15.8188 11.1856
82 1 4 -1.26215 9.13299 5.27293 3.72853
83 1 4 -0.60118 27.399 18.9383 11.9641
84 1 4 -0.60118 9.13299 2.15347 2.95001
85 1 4 -0.601179 27.399 17.5926 13.8671
86 1 4 -0.601179 9.13299 3.49912 1.04697
87 1 4 -0.601179 26.2336 13.3722 9.45555
88 1 4 -0.601179 10.2984 7.71958 5.45857
89 1 4 -0.60118 28.5643 13.3722 9.45555
90 1 4 -0.60118 7.96762 7.71958 5.45857
91 1 4 -0.60118 25.8628 14.9319 13.8671
92 1 4 -0.60118 10.6692 6.15984 1.04697
93 1 4 -0.601179 24.6974 14.2591 11.9641
94 1 4 -0.601179 11.8345 6.83267 2.95001
95 1 4 -0.60118 28.9351 18.0514 9.45555
96 1 4 -0.60118 7.59682 3.04037 5.45857
97 1 4 -0.601179 30.1005 16.0329 9.45555
98 1 4 -0.601179 6.43145 5.05885 5.45857
99 1 4 -0.601179 24.6974 16.0329 9.45555
100 1 4 -0.601179 11.8345 5.05885 5.45857
101 1 4 -0.60118 25.8628 18.0514 9.45555
102 1 4 -0.60118 10.6692 3.04037 5.45857
103 1 4 -0.60118 28.9351 14.9319 13.8671
104 1 4 -0.60118 7.59682 6.15984 1.04697
105 1 4 -0.60118 30.1005 14.2591 11.9641
106 1 4 -0.60118 6.43145 6.83267 2.95001
ITEM: TIMESTEP
26000
ITEM: NUMBER OF ATOMS
109
ITEM: BOX BOUNDS xy xz yz pp pp pp
0.0000000000000000e+00 3.6531964750000000e+01 9.1329911900000003e+00
0.0000000000000000e+00 2.1091739680000000e+01 9.1329911900000003e+00
0.0000000000000000e+00 1.4914112149999999e+01 5.2729349200000000e+00
ITEM: ATOMS id mol type q x y z
1 1 1 1.10383 27.399 17.6496 10.5383
2 1 1 1.10383 9.13299 3.44217 4.3758
3 1 1 1.10383 27.399 15.8188 13.1274
4 1 1 1.10383 9.13299 5.27293 1.78671
5 1 1 1.10383 25.8135 14.9034 10.5383
6 1 1 1.10383 10.7185 6.18832 4.3758
7 1 1 1.10383 28.9845 14.9034 10.5383
8 1 1 1.10383 7.5475 6.18832 4.3758
9 1 2 0.115889 18.266 5.48596 12.6084
10 1 2 0.115889 18.266 15.6058 2.30572
11 1 2 0.115888 18.266 13.716 0.969417
12 1 2 0.115888 18.266 7.37578 13.9447
13 1 2 0.11589 25.3934 11.4908 8.12521
14 1 2 0.11589 11.1386 9.60096 6.7889
15 1 2 0.115888 11.1386 11.4908 8.12521
16 1 2 0.115888 25.3934 9.60096 6.7889
17 1 2 0.115889 15.5206 8.96083 0.969417
18 1 2 0.115889 21.0114 12.1309 13.9447
19 1 2 0.115888 22.648 13.0758 12.6084
20 1 2 0.115888 13.884 8.01592 2.30572
21 1 2 0.115889 21.0114 3.90092 8.12521
22 1 2 0.115889 15.5206 17.1908 6.7889
23 1 2 0.115887 13.884 16.2459 8.12521
24 1 2 0.115887 22.648 4.84583 6.7889
25 1 2 0.115889 22.648 16.2459 8.12521
26 1 2 0.115889 13.884 4.84583 6.7889
27 1 2 0.115887 15.5206 3.90092 8.12521
28 1 2 0.115887 21.0114 17.1908 6.7889
29 1 2 0.115889 21.0114 8.96083 0.969417
30 1 2 0.115889 15.5206 12.1309 13.9447
31 1 2 0.115887 13.884 13.0758 12.6084
32 1 2 0.115887 22.648 8.01592 2.30572
33 1 3 0.671939 27.399 18.7442 13.2542
34 1 3 0.671939 9.13299 2.34751 1.65994
35 1 3 0.671939 27.399 12.8934 9.117
36 1 3 0.671939 9.13299 8.19836 5.79712
37 1 3 0.67194 24.8655 14.3561 13.2542
38 1 3 0.67194 11.6665 6.73565 1.65994
39 1 3 0.67194 29.9325 17.2815 9.117
40 1 3 0.67194 6.5995 3.81022 5.79712
41 1 3 0.67194 24.8655 17.2815 9.117
42 1 3 0.67194 11.6665 3.81022 5.79712
43 1 3 0.67194 29.9325 14.3561 13.2542
44 1 3 0.67194 6.5995 6.73565 1.65994
45 1 3 -0.11508 27.399 19.957 14.1117
46 1 3 -0.11508 9.13299 1.13474 0.802379
47 1 3 -0.11508 27.399 11.6806 8.25944
48 1 3 -0.11508 9.13299 9.41113 6.65468
49 1 3 -0.11508 23.8152 13.7497 14.1117
50 1 3 -0.11508 12.7168 7.34203 0.802379
51 1 3 -0.11508 30.9828 17.8879 8.25944
52 1 3 -0.11508 5.54921 3.20384 6.65468
53 1 3 -0.11508 23.8152 17.8879 8.25944
54 1 3 -0.11508 12.7168 3.20384 6.65468
55 1 3 -0.11508 30.9828 13.7497 14.1117
56 1 3 -0.11508 5.54921 7.34203 0.802379
57 1 3 -0.0559 18.266 5.39949 13.5316
58 1 3 -0.0559 18.266 15.6923 1.38254
59 1 3 -0.055903 18.266 14.5575 0.580159
60 1 3 -0.055903 18.266 6.53422 14.334
61 1 3 -0.0559 26.1971 11.1132 7.85825
62 1 3 -0.0559 10.3349 9.9785 7.05587
63 1 3 -0.055903 10.3349 11.1132 7.85825
64 1 3 -0.055903 26.1971 9.9785 7.05587
65 1 3 -0.0559 14.7918 8.54005 0.580159
66 1 3 -0.0559 21.7402 12.5517 14.334
67 1 3 -0.055903 22.7229 13.1191 13.5316
68 1 3 -0.055903 13.8091 7.97268 1.38254
69 1 3 -0.0559 21.7402 3.39366 7.85825
70 1 3 -0.0559 14.7918 17.6981 7.05587
71 1 3 -0.055903 13.8091 17.1307 7.85825
72 1 3 -0.055903 22.7229 3.96103 7.05587
73 1 3 -0.055901 22.7229 17.1307 7.85825
74 1 3 -0.055901 13.8091 3.96103 7.05587
75 1 3 -0.055903 14.7918 3.39366 7.85825
76 1 3 -0.055903 21.7402 17.6981 7.05587
77 1 3 -0.0559 21.7402 8.54005 0.580159
78 1 3 -0.0559 14.7918 12.5517 14.334
79 1 3 -0.055903 13.8091 13.1191 13.5316
80 1 3 -0.055903 22.7229 7.97268 1.38254
81 1 4 -1.26215 27.399 15.8188 11.1856
82 1 4 -1.26215 9.13299 5.27293 3.72853
83 1 4 -0.60118 27.399 18.9383 11.9641
84 1 4 -0.60118 9.13299 2.15347 2.95001
85 1 4 -0.601179 27.399 17.5926 13.8671
86 1 4 -0.601179 9.13299 3.49912 1.04697
87 1 4 -0.601179 26.2336 13.3722 9.45555
88 1 4 -0.601179 10.2984 7.71958 5.45857
89 1 4 -0.60118 28.5643 13.3722 9.45555
90 1 4 -0.60118 7.96762 7.71958 5.45857
91 1 4 -0.60118 25.8628 14.9319 13.8671
92 1 4 -0.60118 10.6692 6.15984 1.04697
93 1 4 -0.601179 24.6974 14.2591 11.9641
94 1 4 -0.601179 11.8345 6.83267 2.95001
95 1 4 -0.60118 28.9351 18.0514 9.45555
96 1 4 -0.60118 7.59682 3.04037 5.45857
97 1 4 -0.601179 30.1005 16.0329 9.45555
98 1 4 -0.601179 6.43145 5.05885 5.45857
99 1 4 -0.601179 24.6974 16.0329 9.45555
100 1 4 -0.601179 11.8345 5.05885 5.45857
101 1 4 -0.60118 25.8628 18.0514 9.45555
102 1 4 -0.60118 10.6692 3.04037 5.45857
103 1 4 -0.60118 28.9351 14.9319 13.8671
104 1 4 -0.60118 7.59682 6.15984 1.04697
105 1 4 -0.60118 30.1005 14.2591 11.9641
106 1 4 -0.60118 6.43145 6.83267 2.95001
110 3 5 -0.35 32.0229 18.5336 11.2086
111 3 6 0.7 32.4285 17.4931 11.5223
112 3 5 -0.35 14.5681 16.4526 11.836
ITEM: TIMESTEP
27000
ITEM: NUMBER OF ATOMS
106
ITEM: BOX BOUNDS xy xz yz pp pp pp
0.0000000000000000e+00 3.6531964750000000e+01 9.1329911900000003e+00
0.0000000000000000e+00 2.1091739680000000e+01 9.1329911900000003e+00
0.0000000000000000e+00 1.4914112149999999e+01 5.2729349200000000e+00
ITEM: ATOMS id mol type q x y z
1 1 1 1.10383 27.399 17.6496 10.5383
2 1 1 1.10383 9.13299 3.44217 4.3758
3 1 1 1.10383 27.399 15.8188 13.1274
4 1 1 1.10383 9.13299 5.27293 1.78671
5 1 1 1.10383 25.8135 14.9034 10.5383
6 1 1 1.10383 10.7185 6.18832 4.3758
7 1 1 1.10383 28.9845 14.9034 10.5383
8 1 1 1.10383 7.5475 6.18832 4.3758
9 1 2 0.115889 18.266 5.48596 12.6084
10 1 2 0.115889 18.266 15.6058 2.30572
11 1 2 0.115888 18.266 13.716 0.969417
12 1 2 0.115888 18.266 7.37578 13.9447
13 1 2 0.11589 25.3934 11.4908 8.12521
14 1 2 0.11589 11.1386 9.60096 6.7889
15 1 2 0.115888 11.1386 11.4908 8.12521
16 1 2 0.115888 25.3934 9.60096 6.7889
17 1 2 0.115889 15.5206 8.96083 0.969417
18 1 2 0.115889 21.0114 12.1309 13.9447
19 1 2 0.115888 22.648 13.0758 12.6084
20 1 2 0.115888 13.884 8.01592 2.30572
21 1 2 0.115889 21.0114 3.90092 8.12521
22 1 2 0.115889 15.5206 17.1908 6.7889
23 1 2 0.115887 13.884 16.2459 8.12521
24 1 2 0.115887 22.648 4.84583 6.7889
25 1 2 0.115889 22.648 16.2459 8.12521
26 1 2 0.115889 13.884 4.84583 6.7889
27 1 2 0.115887 15.5206 3.90092 8.12521
28 1 2 0.115887 21.0114 17.1908 6.7889
29 1 2 0.115889 21.0114 8.96083 0.969417
30 1 2 0.115889 15.5206 12.1309 13.9447
31 1 2 0.115887 13.884 13.0758 12.6084
32 1 2 0.115887 22.648 8.01592 2.30572
33 1 3 0.671939 27.399 18.7442 13.2542
34 1 3 0.671939 9.13299 2.34751 1.65994
35 1 3 0.671939 27.399 12.8934 9.117
36 1 3 0.671939 9.13299 8.19836 5.79712
37 1 3 0.67194 24.8655 14.3561 13.2542
38 1 3 0.67194 11.6665 6.73565 1.65994
39 1 3 0.67194 29.9325 17.2815 9.117
40 1 3 0.67194 6.5995 3.81022 5.79712
41 1 3 0.67194 24.8655 17.2815 9.117
42 1 3 0.67194 11.6665 3.81022 5.79712
43 1 3 0.67194 29.9325 14.3561 13.2542
44 1 3 0.67194 6.5995 6.73565 1.65994
45 1 3 -0.11508 27.399 19.957 14.1117
46 1 3 -0.11508 9.13299 1.13474 0.802379
47 1 3 -0.11508 27.399 11.6806 8.25944
48 1 3 -0.11508 9.13299 9.41113 6.65468
49 1 3 -0.11508 23.8152 13.7497 14.1117
50 1 3 -0.11508 12.7168 7.34203 0.802379
51 1 3 -0.11508 30.9828 17.8879 8.25944
52 1 3 -0.11508 5.54921 3.20384 6.65468
53 1 3 -0.11508 23.8152 17.8879 8.25944
54 1 3 -0.11508 12.7168 3.20384 6.65468
55 1 3 -0.11508 30.9828 13.7497 14.1117
56 1 3 -0.11508 5.54921 7.34203 0.802379
57 1 3 -0.0559 18.266 5.39949 13.5316
58 1 3 -0.0559 18.266 15.6923 1.38254
59 1 3 -0.055903 18.266 14.5575 0.580159
60 1 3 -0.055903 18.266 6.53422 14.334
61 1 3 -0.0559 26.1971 11.1132 7.85825
62 1 3 -0.0559 10.3349 9.9785 7.05587
63 1 3 -0.055903 10.3349 11.1132 7.85825
64 1 3 -0.055903 26.1971 9.9785 7.05587
65 1 3 -0.0559 14.7918 8.54005 0.580159
66 1 3 -0.0559 21.7402 12.5517 14.334
67 1 3 -0.055903 22.7229 13.1191 13.5316
68 1 3 -0.055903 13.8091 7.97268 1.38254
69 1 3 -0.0559 21.7402 3.39366 7.85825
70 1 3 -0.0559 14.7918 17.6981 7.05587
71 1 3 -0.055903 13.8091 17.1307 7.85825
72 1 3 -0.055903 22.7229 3.96103 7.05587
73 1 3 -0.055901 22.7229 17.1307 7.85825
74 1 3 -0.055901 13.8091 3.96103 7.05587
75 1 3 -0.055903 14.7918 3.39366 7.85825
76 1 3 -0.055903 21.7402 17.6981 7.05587
77 1 3 -0.0559 21.7402 8.54005 0.580159
78 1 3 -0.0559 14.7918 12.5517 14.334
79 1 3 -0.055903 13.8091 13.1191 13.5316
80 1 3 -0.055903 22.7229 7.97268 1.38254
81 1 4 -1.26215 27.399 15.8188 11.1856
82 1 4 -1.26215 9.13299 5.27293 3.72853
83 1 4 -0.60118 27.399 18.9383 11.9641
84 1 4 -0.60118 9.13299 2.15347 2.95001
85 1 4 -0.601179 27.399 17.5926 13.8671
86 1 4 -0.601179 9.13299 3.49912 1.04697
87 1 4 -0.601179 26.2336 13.3722 9.45555
88 1 4 -0.601179 10.2984 7.71958 5.45857
89 1 4 -0.60118 28.5643 13.3722 9.45555
90 1 4 -0.60118 7.96762 7.71958 5.45857
91 1 4 -0.60118 25.8628 14.9319 13.8671
92 1 4 -0.60118 10.6692 6.15984 1.04697
93 1 4 -0.601179 24.6974 14.2591 11.9641
94 1 4 -0.601179 11.8345 6.83267 2.95001
95 1 4 -0.60118 28.9351 18.0514 9.45555
96 1 4 -0.60118 7.59682 3.04037 5.45857
97 1 4 -0.601179 30.1005 16.0329 9.45555
98 1 4 -0.601179 6.43145 5.05885 5.45857
99 1 4 -0.601179 24.6974 16.0329 9.45555
100 1 4 -0.601179 11.8345 5.05885 5.45857
101 1 4 -0.60118 25.8628 18.0514 9.45555
102 1 4 -0.60118 10.6692 3.04037 5.45857
103 1 4 -0.60118 28.9351 14.9319 13.8671
104 1 4 -0.60118 7.59682 6.15984 1.04697
105 1 4 -0.60118 30.1005 14.2591 11.9641
106 1 4 -0.60118 6.43145 6.83267 2.95001
ITEM: TIMESTEP
28000
ITEM: NUMBER OF ATOMS
112
ITEM: BOX BOUNDS xy xz yz pp pp pp
0.0000000000000000e+00 3.6531964750000000e+01 9.1329911900000003e+00
0.0000000000000000e+00 2.1091739680000000e+01 9.1329911900000003e+00
0.0000000000000000e+00 1.4914112149999999e+01 5.2729349200000000e+00
ITEM: ATOMS id mol type q x y z
1 1 1 1.10383 27.399 17.6496 10.5383
2 1 1 1.10383 9.13299 3.44217 4.3758
3 1 1 1.10383 27.399 15.8188 13.1274
4 1 1 1.10383 9.13299 5.27293 1.78671
5 1 1 1.10383 25.8135 14.9034 10.5383
6 1 1 1.10383 10.7185 6.18832 4.3758
7 1 1 1.10383 28.9845 14.9034 10.5383
8 1 1 1.10383 7.5475 6.18832 4.3758
9 1 2 0.115889 18.266 5.48596 12.6084
10 1 2 0.115889 18.266 15.6058 2.30572
11 1 2 0.115888 18.266 13.716 0.969417
12 1 2 0.115888 18.266 7.37578 13.9447
13 1 2 0.11589 25.3934 11.4908 8.12521
14 1 2 0.11589 11.1386 9.60096 6.7889
15 1 2 0.115888 11.1386 11.4908 8.12521
16 1 2 0.115888 25.3934 9.60096 6.7889
17 1 2 0.115889 15.5206 8.96083 0.969417
18 1 2 0.115889 21.0114 12.1309 13.9447
19 1 2 0.115888 22.648 13.0758 12.6084
20 1 2 0.115888 13.884 8.01592 2.30572
21 1 2 0.115889 21.0114 3.90092 8.12521
22 1 2 0.115889 15.5206 17.1908 6.7889
23 1 2 0.115887 13.884 16.2459 8.12521
24 1 2 0.115887 22.648 4.84583 6.7889
25 1 2 0.115889 22.648 16.2459 8.12521
26 1 2 0.115889 13.884 4.84583 6.7889
27 1 2 0.115887 15.5206 3.90092 8.12521
28 1 2 0.115887 21.0114 17.1908 6.7889
29 1 2 0.115889 21.0114 8.96083 0.969417
30 1 2 0.115889 15.5206 12.1309 13.9447
31 1 2 0.115887 13.884 13.0758 12.6084
32 1 2 0.115887 22.648 8.01592 2.30572
33 1 3 0.671939 27.399 18.7442 13.2542
34 1 3 0.671939 9.13299 2.34751 1.65994
35 1 3 0.671939 27.399 12.8934 9.117
36 1 3 0.671939 9.13299 8.19836 5.79712
37 1 3 0.67194 24.8655 14.3561 13.2542
38 1 3 0.67194 11.6665 6.73565 1.65994
39 1 3 0.67194 29.9325 17.2815 9.117
40 1 3 0.67194 6.5995 3.81022 5.79712
41 1 3 0.67194 24.8655 17.2815 9.117
42 1 3 0.67194 11.6665 3.81022 5.79712
43 1 3 0.67194 29.9325 14.3561 13.2542
44 1 3 0.67194 6.5995 6.73565 1.65994
45 1 3 -0.11508 27.399 19.957 14.1117
46 1 3 -0.11508 9.13299 1.13474 0.802379
47 1 3 -0.11508 27.399 11.6806 8.25944
48 1 3 -0.11508 9.13299 9.41113 6.65468
49 1 3 -0.11508 23.8152 13.7497 14.1117
50 1 3 -0.11508 12.7168 7.34203 0.802379
51 1 3 -0.11508 30.9828 17.8879 8.25944
52 1 3 -0.11508 5.54921 3.20384 6.65468
53 1 3 -0.11508 23.8152 17.8879 8.25944
54 1 3 -0.11508 12.7168 3.20384 6.65468
55 1 3 -0.11508 30.9828 13.7497 14.1117
56 1 3 -0.11508 5.54921 7.34203 0.802379
57 1 3 -0.0559 18.266 5.39949 13.5316
58 1 3 -0.0559 18.266 15.6923 1.38254
59 1 3 -0.055903 18.266 14.5575 0.580159
60 1 3 -0.055903 18.266 6.53422 14.334
61 1 3 -0.0559 26.1971 11.1132 7.85825
62 1 3 -0.0559 10.3349 9.9785 7.05587
63 1 3 -0.055903 10.3349 11.1132 7.85825
64 1 3 -0.055903 26.1971 9.9785 7.05587
65 1 3 -0.0559 14.7918 8.54005 0.580159
66 1 3 -0.0559 21.7402 12.5517 14.334
67 1 3 -0.055903 22.7229 13.1191 13.5316
68 1 3 -0.055903 13.8091 7.97268 1.38254
69 1 3 -0.0559 21.7402 3.39366 7.85825
70 1 3 -0.0559 14.7918 17.6981 7.05587
71 1 3 -0.055903 13.8091 17.1307 7.85825
72 1 3 -0.055903 22.7229 3.96103 7.05587
73 1 3 -0.055901 22.7229 17.1307 7.85825
74 1 3 -0.055901 13.8091 3.96103 7.05587
75 1 3 -0.055903 14.7918 3.39366 7.85825
76 1 3 -0.055903 21.7402 17.6981 7.05587
77 1 3 -0.0559 21.7402 8.54005 0.580159
78 1 3 -0.0559 14.7918 12.5517 14.334
79 1 3 -0.055903 13.8091 13.1191 13.5316
80 1 3 -0.055903 22.7229 7.97268 1.38254
81 1 4 -1.26215 27.399 15.8188 11.1856
82 1 4 -1.26215 9.13299 5.27293 3.72853
83 1 4 -0.60118 27.399 18.9383 11.9641
84 1 4 -0.60118 9.13299 2.15347 2.95001
85 1 4 -0.601179 27.399 17.5926 13.8671
86 1 4 -0.601179 9.13299 3.49912 1.04697
87 1 4 -0.601179 26.2336 13.3722 9.45555
88 1 4 -0.601179 10.2984 7.71958 5.45857
89 1 4 -0.60118 28.5643 13.3722 9.45555
90 1 4 -0.60118 7.96762 7.71958 5.45857
91 1 4 -0.60118 25.8628 14.9319 13.8671
92 1 4 -0.60118 10.6692 6.15984 1.04697
93 1 4 -0.601179 24.6974 14.2591 11.9641
94 1 4 -0.601179 11.8345 6.83267 2.95001
95 1 4 -0.60118 28.9351 18.0514 9.45555
96 1 4 -0.60118 7.59682 3.04037 5.45857
97 1 4 -0.601179 30.1005 16.0329 9.45555
98 1 4 -0.601179 6.43145 5.05885 5.45857
99 1 4 -0.601179 24.6974 16.0329 9.45555
100 1 4 -0.601179 11.8345 5.05885 5.45857
101 1 4 -0.60118 25.8628 18.0514 9.45555
102 1 4 -0.60118 10.6692 3.04037 5.45857
103 1 4 -0.60118 28.9351 14.9319 13.8671
104 1 4 -0.60118 7.59682 6.15984 1.04697
105 1 4 -0.60118 30.1005 14.2591 11.9641
106 1 4 -0.60118 6.43145 6.83267 2.95001
119 6 5 -0.35 9.49099 9.30568 1.14767
120 6 6 0.7 9.26348 9.07266 0.0343262
121 6 5 -0.35 18.169 14.1126 13.8351
122 7 5 -0.35 28.6129 10.5236 11.4339
123 7 6 0.7 28.5399 10.9698 12.5021
124 7 5 -0.35 28.4668 11.4161 13.5704
ITEM: TIMESTEP
29000
ITEM: NUMBER OF ATOMS
109
ITEM: BOX BOUNDS xy xz yz pp pp pp
0.0000000000000000e+00 3.6531964750000000e+01 9.1329911900000003e+00
0.0000000000000000e+00 2.1091739680000000e+01 9.1329911900000003e+00
0.0000000000000000e+00 1.4914112149999999e+01 5.2729349200000000e+00
ITEM: ATOMS id mol type q x y z
1 1 1 1.10383 27.399 17.6496 10.5383
2 1 1 1.10383 9.13299 3.44217 4.3758
3 1 1 1.10383 27.399 15.8188 13.1274
4 1 1 1.10383 9.13299 5.27293 1.78671
5 1 1 1.10383 25.8135 14.9034 10.5383
6 1 1 1.10383 10.7185 6.18832 4.3758
7 1 1 1.10383 28.9845 14.9034 10.5383
8 1 1 1.10383 7.5475 6.18832 4.3758
9 1 2 0.115889 18.266 5.48596 12.6084
10 1 2 0.115889 18.266 15.6058 2.30572
11 1 2 0.115888 18.266 13.716 0.969417
12 1 2 0.115888 18.266 7.37578 13.9447
13 1 2 0.11589 25.3934 11.4908 8.12521
14 1 2 0.11589 11.1386 9.60096 6.7889
15 1 2 0.115888 11.1386 11.4908 8.12521
16 1 2 0.115888 25.3934 9.60096 6.7889
17 1 2 0.115889 15.5206 8.96083 0.969417
18 1 2 0.115889 21.0114 12.1309 13.9447
19 1 2 0.115888 22.648 13.0758 12.6084
20 1 2 0.115888 13.884 8.01592 2.30572
21 1 2 0.115889 21.0114 3.90092 8.12521
22 1 2 0.115889 15.5206 17.1908 6.7889
23 1 2 0.115887 13.884 16.2459 8.12521
24 1 2 0.115887 22.648 4.84583 6.7889
25 1 2 0.115889 22.648 16.2459 8.12521
26 1 2 0.115889 13.884 4.84583 6.7889
27 1 2 0.115887 15.5206 3.90092 8.12521
28 1 2 0.115887 21.0114 17.1908 6.7889
29 1 2 0.115889 21.0114 8.96083 0.969417
30 1 2 0.115889 15.5206 12.1309 13.9447
31 1 2 0.115887 13.884 13.0758 12.6084
32 1 2 0.115887 22.648 8.01592 2.30572
33 1 3 0.671939 27.399 18.7442 13.2542
34 1 3 0.671939 9.13299 2.34751 1.65994
35 1 3 0.671939 27.399 12.8934 9.117
36 1 3 0.671939 9.13299 8.19836 5.79712
37 1 3 0.67194 24.8655 14.3561 13.2542
38 1 3 0.67194 11.6665 6.73565 1.65994
39 1 3 0.67194 29.9325 17.2815 9.117
40 1 3 0.67194 6.5995 3.81022 5.79712
41 1 3 0.67194 24.8655 17.2815 9.117
42 1 3 0.67194 11.6665 3.81022 5.79712
43 1 3 0.67194 29.9325 14.3561 13.2542
44 1 3 0.67194 6.5995 6.73565 1.65994
45 1 3 -0.11508 27.399 19.957 14.1117
46 1 3 -0.11508 9.13299 1.13474 0.802379
47 1 3 -0.11508 27.399 11.6806 8.25944
48 1 3 -0.11508 9.13299 9.41113 6.65468
49 1 3 -0.11508 23.8152 13.7497 14.1117
50 1 3 -0.11508 12.7168 7.34203 0.802379
51 1 3 -0.11508 30.9828 17.8879 8.25944
52 1 3 -0.11508 5.54921 3.20384 6.65468
53 1 3 -0.11508 23.8152 17.8879 8.25944
54 1 3 -0.11508 12.7168 3.20384 6.65468
55 1 3 -0.11508 30.9828 13.7497 14.1117
56 1 3 -0.11508 5.54921 7.34203 0.802379
57 1 3 -0.0559 18.266 5.39949 13.5316
58 1 3 -0.0559 18.266 15.6923 1.38254
59 1 3 -0.055903 18.266 14.5575 0.580159
60 1 3 -0.055903 18.266 6.53422 14.334
61 1 3 -0.0559 26.1971 11.1132 7.85825
62 1 3 -0.0559 10.3349 9.9785 7.05587
63 1 3 -0.055903 10.3349 11.1132 7.85825
64 1 3 -0.055903 26.1971 9.9785 7.05587
65 1 3 -0.0559 14.7918 8.54005 0.580159
66 1 3 -0.0559 21.7402 12.5517 14.334
67 1 3 -0.055903 22.7229 13.1191 13.5316
68 1 3 -0.055903 13.8091 7.97268 1.38254
69 1 3 -0.0559 21.7402 3.39366 7.85825
70 1 3 -0.0559 14.7918 17.6981 7.05587
71 1 3 -0.055903 13.8091 17.1307 7.85825
72 1 3 -0.055903 22.7229 3.96103 7.05587
73 1 3 -0.055901 22.7229 17.1307 7.85825
74 1 3 -0.055901 13.8091 3.96103 7.05587
75 1 3 -0.055903 14.7918 3.39366 7.85825
76 1 3 -0.055903 21.7402 17.6981 7.05587
77 1 3 -0.0559 21.7402 8.54005 0.580159
78 1 3 -0.0559 14.7918 12.5517 14.334
79 1 3 -0.055903 13.8091 13.1191 13.5316
80 1 3 -0.055903 22.7229 7.97268 1.38254
81 1 4 -1.26215 27.399 15.8188 11.1856
82 1 4 -1.26215 9.13299 5.27293 3.72853
83 1 4 -0.60118 27.399 18.9383 11.9641
84 1 4 -0.60118 9.13299 2.15347 2.95001
85 1 4 -0.601179 27.399 17.5926 13.8671
86 1 4 -0.601179 9.13299 3.49912 1.04697
87 1 4 -0.601179 26.2336 13.3722 9.45555
88 1 4 -0.601179 10.2984 7.71958 5.45857
89 1 4 -0.60118 28.5643 13.3722 9.45555
90 1 4 -0.60118 7.96762 7.71958 5.45857
91 1 4 -0.60118 25.8628 14.9319 13.8671
92 1 4 -0.60118 10.6692 6.15984 1.04697
93 1 4 -0.601179 24.6974 14.2591 11.9641
94 1 4 -0.601179 11.8345 6.83267 2.95001
95 1 4 -0.60118 28.9351 18.0514 9.45555
96 1 4 -0.60118 7.59682 3.04037 5.45857
97 1 4 -0.601179 30.1005 16.0329 9.45555
98 1 4 -0.601179 6.43145 5.05885 5.45857
99 1 4 -0.601179 24.6974 16.0329 9.45555
100 1 4 -0.601179 11.8345 5.05885 5.45857
101 1 4 -0.60118 25.8628 18.0514 9.45555
102 1 4 -0.60118 10.6692 3.04037 5.45857
103 1 4 -0.60118 28.9351 14.9319 13.8671
104 1 4 -0.60118 7.59682 6.15984 1.04697
105 1 4 -0.60118 30.1005 14.2591 11.9641
106 1 4 -0.60118 6.43145 6.83267 2.95001
107 2 5 -0.35 7.57139 5.81131 8.3775
108 2 6 0.7 24.9155 6.49972 8.22943
109 2 5 -0.35 23.9937 7.18813 8.08137
ITEM: TIMESTEP
30000
ITEM: NUMBER OF ATOMS
112
ITEM: BOX BOUNDS xy xz yz pp pp pp
0.0000000000000000e+00 3.6531964750000000e+01 9.1329911900000003e+00
0.0000000000000000e+00 2.1091739680000000e+01 9.1329911900000003e+00
0.0000000000000000e+00 1.4914112149999999e+01 5.2729349200000000e+00
ITEM: ATOMS id mol type q x y z
1 1 1 1.10383 27.399 17.6496 10.5383
2 1 1 1.10383 9.13299 3.44217 4.3758
3 1 1 1.10383 27.399 15.8188 13.1274
4 1 1 1.10383 9.13299 5.27293 1.78671
5 1 1 1.10383 25.8135 14.9034 10.5383
6 1 1 1.10383 10.7185 6.18832 4.3758
7 1 1 1.10383 28.9845 14.9034 10.5383
8 1 1 1.10383 7.5475 6.18832 4.3758
9 1 2 0.115889 18.266 5.48596 12.6084
10 1 2 0.115889 18.266 15.6058 2.30572
11 1 2 0.115888 18.266 13.716 0.969417
12 1 2 0.115888 18.266 7.37578 13.9447
13 1 2 0.11589 25.3934 11.4908 8.12521
14 1 2 0.11589 11.1386 9.60096 6.7889
15 1 2 0.115888 11.1386 11.4908 8.12521
16 1 2 0.115888 25.3934 9.60096 6.7889
17 1 2 0.115889 15.5206 8.96083 0.969417
18 1 2 0.115889 21.0114 12.1309 13.9447
19 1 2 0.115888 22.648 13.0758 12.6084
20 1 2 0.115888 13.884 8.01592 2.30572
21 1 2 0.115889 21.0114 3.90092 8.12521
22 1 2 0.115889 15.5206 17.1908 6.7889
23 1 2 0.115887 13.884 16.2459 8.12521
24 1 2 0.115887 22.648 4.84583 6.7889
25 1 2 0.115889 22.648 16.2459 8.12521
26 1 2 0.115889 13.884 4.84583 6.7889
27 1 2 0.115887 15.5206 3.90092 8.12521
28 1 2 0.115887 21.0114 17.1908 6.7889
29 1 2 0.115889 21.0114 8.96083 0.969417
30 1 2 0.115889 15.5206 12.1309 13.9447
31 1 2 0.115887 13.884 13.0758 12.6084
32 1 2 0.115887 22.648 8.01592 2.30572
33 1 3 0.671939 27.399 18.7442 13.2542
34 1 3 0.671939 9.13299 2.34751 1.65994
35 1 3 0.671939 27.399 12.8934 9.117
36 1 3 0.671939 9.13299 8.19836 5.79712
37 1 3 0.67194 24.8655 14.3561 13.2542
38 1 3 0.67194 11.6665 6.73565 1.65994
39 1 3 0.67194 29.9325 17.2815 9.117
40 1 3 0.67194 6.5995 3.81022 5.79712
41 1 3 0.67194 24.8655 17.2815 9.117
42 1 3 0.67194 11.6665 3.81022 5.79712
43 1 3 0.67194 29.9325 14.3561 13.2542
44 1 3 0.67194 6.5995 6.73565 1.65994
45 1 3 -0.11508 27.399 19.957 14.1117
46 1 3 -0.11508 9.13299 1.13474 0.802379
47 1 3 -0.11508 27.399 11.6806 8.25944
48 1 3 -0.11508 9.13299 9.41113 6.65468
49 1 3 -0.11508 23.8152 13.7497 14.1117
50 1 3 -0.11508 12.7168 7.34203 0.802379
51 1 3 -0.11508 30.9828 17.8879 8.25944
52 1 3 -0.11508 5.54921 3.20384 6.65468
53 1 3 -0.11508 23.8152 17.8879 8.25944
54 1 3 -0.11508 12.7168 3.20384 6.65468
55 1 3 -0.11508 30.9828 13.7497 14.1117
56 1 3 -0.11508 5.54921 7.34203 0.802379
57 1 3 -0.0559 18.266 5.39949 13.5316
58 1 3 -0.0559 18.266 15.6923 1.38254
59 1 3 -0.055903 18.266 14.5575 0.580159
60 1 3 -0.055903 18.266 6.53422 14.334
61 1 3 -0.0559 26.1971 11.1132 7.85825
62 1 3 -0.0559 10.3349 9.9785 7.05587
63 1 3 -0.055903 10.3349 11.1132 7.85825
64 1 3 -0.055903 26.1971 9.9785 7.05587
65 1 3 -0.0559 14.7918 8.54005 0.580159
66 1 3 -0.0559 21.7402 12.5517 14.334
67 1 3 -0.055903 22.7229 13.1191 13.5316
68 1 3 -0.055903 13.8091 7.97268 1.38254
69 1 3 -0.0559 21.7402 3.39366 7.85825
70 1 3 -0.0559 14.7918 17.6981 7.05587
71 1 3 -0.055903 13.8091 17.1307 7.85825
72 1 3 -0.055903 22.7229 3.96103 7.05587
73 1 3 -0.055901 22.7229 17.1307 7.85825
74 1 3 -0.055901 13.8091 3.96103 7.05587
75 1 3 -0.055903 14.7918 3.39366 7.85825
76 1 3 -0.055903 21.7402 17.6981 7.05587
77 1 3 -0.0559 21.7402 8.54005 0.580159
78 1 3 -0.0559 14.7918 12.5517 14.334
79 1 3 -0.055903 13.8091 13.1191 13.5316
80 1 3 -0.055903 22.7229 7.97268 1.38254
81 1 4 -1.26215 27.399 15.8188 11.1856
82 1 4 -1.26215 9.13299 5.27293 3.72853
83 1 4 -0.60118 27.399 18.9383 11.9641
84 1 4 -0.60118 9.13299 2.15347 2.95001
85 1 4 -0.601179 27.399 17.5926 13.8671
86 1 4 -0.601179 9.13299 3.49912 1.04697
87 1 4 -0.601179 26.2336 13.3722 9.45555
88 1 4 -0.601179 10.2984 7.71958 5.45857
89 1 4 -0.60118 28.5643 13.3722 9.45555
90 1 4 -0.60118 7.96762 7.71958 5.45857
91 1 4 -0.60118 25.8628 14.9319 13.8671
92 1 4 -0.60118 10.6692 6.15984 1.04697
93 1 4 -0.601179 24.6974 14.2591 11.9641
94 1 4 -0.601179 11.8345 6.83267 2.95001
95 1 4 -0.60118 28.9351 18.0514 9.45555
96 1 4 -0.60118 7.59682 3.04037 5.45857
97 1 4 -0.601179 30.1005 16.0329 9.45555
98 1 4 -0.601179 6.43145 5.05885 5.45857
99 1 4 -0.601179 24.6974 16.0329 9.45555
100 1 4 -0.601179 11.8345 5.05885 5.45857
101 1 4 -0.60118 25.8628 18.0514 9.45555
102 1 4 -0.60118 10.6692 3.04037 5.45857
103 1 4 -0.60118 28.9351 14.9319 13.8671
104 1 4 -0.60118 7.59682 6.15984 1.04697
105 1 4 -0.60118 30.1005 14.2591 11.9641
106 1 4 -0.60118 6.43145 6.83267 2.95001
107 2 5 -0.35 20.7244 3.83279 4.43957
108 2 6 0.7 20.4745 3.64828 3.32196
109 2 5 -0.35 20.2245 3.46377 2.20434
110 3 5 -0.35 19.7803 15.2935 14.7043
111 3 6 0.7 19.8661 15.4015 13.5526
112 3 5 -0.35 19.9519 15.5095 12.4008
ITEM: TIMESTEP
31000
ITEM: NUMBER OF ATOMS
106
ITEM: BOX BOUNDS xy xz yz pp pp pp
0.0000000000000000e+00 3.6531964750000000e+01 9.1329911900000003e+00
0.0000000000000000e+00 2.1091739680000000e+01 9.1329911900000003e+00
0.0000000000000000e+00 1.4914112149999999e+01 5.2729349200000000e+00
ITEM: ATOMS id mol type q x y z
1 1 1 1.10383 27.399 17.6496 10.5383
2 1 1 1.10383 9.13299 3.44217 4.3758
3 1 1 1.10383 27.399 15.8188 13.1274
4 1 1 1.10383 9.13299 5.27293 1.78671
5 1 1 1.10383 25.8135 14.9034 10.5383
6 1 1 1.10383 10.7185 6.18832 4.3758
7 1 1 1.10383 28.9845 14.9034 10.5383
8 1 1 1.10383 7.5475 6.18832 4.3758
9 1 2 0.115889 18.266 5.48596 12.6084
10 1 2 0.115889 18.266 15.6058 2.30572
11 1 2 0.115888 18.266 13.716 0.969417
12 1 2 0.115888 18.266 7.37578 13.9447
13 1 2 0.11589 25.3934 11.4908 8.12521
14 1 2 0.11589 11.1386 9.60096 6.7889
15 1 2 0.115888 11.1386 11.4908 8.12521
16 1 2 0.115888 25.3934 9.60096 6.7889
17 1 2 0.115889 15.5206 8.96083 0.969417
18 1 2 0.115889 21.0114 12.1309 13.9447
19 1 2 0.115888 22.648 13.0758 12.6084
20 1 2 0.115888 13.884 8.01592 2.30572
21 1 2 0.115889 21.0114 3.90092 8.12521
22 1 2 0.115889 15.5206 17.1908 6.7889
23 1 2 0.115887 13.884 16.2459 8.12521
24 1 2 0.115887 22.648 4.84583 6.7889
25 1 2 0.115889 22.648 16.2459 8.12521
26 1 2 0.115889 13.884 4.84583 6.7889
27 1 2 0.115887 15.5206 3.90092 8.12521
28 1 2 0.115887 21.0114 17.1908 6.7889
29 1 2 0.115889 21.0114 8.96083 0.969417
30 1 2 0.115889 15.5206 12.1309 13.9447
31 1 2 0.115887 13.884 13.0758 12.6084
32 1 2 0.115887 22.648 8.01592 2.30572
33 1 3 0.671939 27.399 18.7442 13.2542
34 1 3 0.671939 9.13299 2.34751 1.65994
35 1 3 0.671939 27.399 12.8934 9.117
36 1 3 0.671939 9.13299 8.19836 5.79712
37 1 3 0.67194 24.8655 14.3561 13.2542
38 1 3 0.67194 11.6665 6.73565 1.65994
39 1 3 0.67194 29.9325 17.2815 9.117
40 1 3 0.67194 6.5995 3.81022 5.79712
41 1 3 0.67194 24.8655 17.2815 9.117
42 1 3 0.67194 11.6665 3.81022 5.79712
43 1 3 0.67194 29.9325 14.3561 13.2542
44 1 3 0.67194 6.5995 6.73565 1.65994
45 1 3 -0.11508 27.399 19.957 14.1117
46 1 3 -0.11508 9.13299 1.13474 0.802379
47 1 3 -0.11508 27.399 11.6806 8.25944
48 1 3 -0.11508 9.13299 9.41113 6.65468
49 1 3 -0.11508 23.8152 13.7497 14.1117
50 1 3 -0.11508 12.7168 7.34203 0.802379
51 1 3 -0.11508 30.9828 17.8879 8.25944
52 1 3 -0.11508 5.54921 3.20384 6.65468
53 1 3 -0.11508 23.8152 17.8879 8.25944
54 1 3 -0.11508 12.7168 3.20384 6.65468
55 1 3 -0.11508 30.9828 13.7497 14.1117
56 1 3 -0.11508 5.54921 7.34203 0.802379
57 1 3 -0.0559 18.266 5.39949 13.5316
58 1 3 -0.0559 18.266 15.6923 1.38254
59 1 3 -0.055903 18.266 14.5575 0.580159
60 1 3 -0.055903 18.266 6.53422 14.334
61 1 3 -0.0559 26.1971 11.1132 7.85825
62 1 3 -0.0559 10.3349 9.9785 7.05587
63 1 3 -0.055903 10.3349 11.1132 7.85825
64 1 3 -0.055903 26.1971 9.9785 7.05587
65 1 3 -0.0559 14.7918 8.54005 0.580159
66 1 3 -0.0559 21.7402 12.5517 14.334
67 1 3 -0.055903 22.7229 13.1191 13.5316
68 1 3 -0.055903 13.8091 7.97268 1.38254
69 1 3 -0.0559 21.7402 3.39366 7.85825
70 1 3 -0.0559 14.7918 17.6981 7.05587
71 1 3 -0.055903 13.8091 17.1307 7.85825
72 1 3 -0.055903 22.7229 3.96103 7.05587
73 1 3 -0.055901 22.7229 17.1307 7.85825
74 1 3 -0.055901 13.8091 3.96103 7.05587
75 1 3 -0.055903 14.7918 3.39366 7.85825
76 1 3 -0.055903 21.7402 17.6981 7.05587
77 1 3 -0.0559 21.7402 8.54005 0.580159
78 1 3 -0.0559 14.7918 12.5517 14.334
79 1 3 -0.055903 13.8091 13.1191 13.5316
80 1 3 -0.055903 22.7229 7.97268 1.38254
81 1 4 -1.26215 27.399 15.8188 11.1856
82 1 4 -1.26215 9.13299 5.27293 3.72853
83 1 4 -0.60118 27.399 18.9383 11.9641
84 1 4 -0.60118 9.13299 2.15347 2.95001
85 1 4 -0.601179 27.399 17.5926 13.8671
86 1 4 -0.601179 9.13299 3.49912 1.04697
87 1 4 -0.601179 26.2336 13.3722 9.45555
88 1 4 -0.601179 10.2984 7.71958 5.45857
89 1 4 -0.60118 28.5643 13.3722 9.45555
90 1 4 -0.60118 7.96762 7.71958 5.45857
91 1 4 -0.60118 25.8628 14.9319 13.8671
92 1 4 -0.60118 10.6692 6.15984 1.04697
93 1 4 -0.601179 24.6974 14.2591 11.9641
94 1 4 -0.601179 11.8345 6.83267 2.95001
95 1 4 -0.60118 28.9351 18.0514 9.45555
96 1 4 -0.60118 7.59682 3.04037 5.45857
97 1 4 -0.601179 30.1005 16.0329 9.45555
98 1 4 -0.601179 6.43145 5.05885 5.45857
99 1 4 -0.601179 24.6974 16.0329 9.45555
100 1 4 -0.601179 11.8345 5.05885 5.45857
101 1 4 -0.60118 25.8628 18.0514 9.45555
102 1 4 -0.60118 10.6692 3.04037 5.45857
103 1 4 -0.60118 28.9351 14.9319 13.8671
104 1 4 -0.60118 7.59682 6.15984 1.04697
105 1 4 -0.60118 30.1005 14.2591 11.9641
106 1 4 -0.60118 6.43145 6.83267 2.95001
ITEM: TIMESTEP
32000
ITEM: NUMBER OF ATOMS
109
ITEM: BOX BOUNDS xy xz yz pp pp pp
0.0000000000000000e+00 3.6531964750000000e+01 9.1329911900000003e+00
0.0000000000000000e+00 2.1091739680000000e+01 9.1329911900000003e+00
0.0000000000000000e+00 1.4914112149999999e+01 5.2729349200000000e+00
ITEM: ATOMS id mol type q x y z
1 1 1 1.10383 27.399 17.6496 10.5383
2 1 1 1.10383 9.13299 3.44217 4.3758
3 1 1 1.10383 27.399 15.8188 13.1274
4 1 1 1.10383 9.13299 5.27293 1.78671
5 1 1 1.10383 25.8135 14.9034 10.5383
6 1 1 1.10383 10.7185 6.18832 4.3758
7 1 1 1.10383 28.9845 14.9034 10.5383
8 1 1 1.10383 7.5475 6.18832 4.3758
9 1 2 0.115889 18.266 5.48596 12.6084
10 1 2 0.115889 18.266 15.6058 2.30572
11 1 2 0.115888 18.266 13.716 0.969417
12 1 2 0.115888 18.266 7.37578 13.9447
13 1 2 0.11589 25.3934 11.4908 8.12521
14 1 2 0.11589 11.1386 9.60096 6.7889
15 1 2 0.115888 11.1386 11.4908 8.12521
16 1 2 0.115888 25.3934 9.60096 6.7889
17 1 2 0.115889 15.5206 8.96083 0.969417
18 1 2 0.115889 21.0114 12.1309 13.9447
19 1 2 0.115888 22.648 13.0758 12.6084
20 1 2 0.115888 13.884 8.01592 2.30572
21 1 2 0.115889 21.0114 3.90092 8.12521
22 1 2 0.115889 15.5206 17.1908 6.7889
23 1 2 0.115887 13.884 16.2459 8.12521
24 1 2 0.115887 22.648 4.84583 6.7889
25 1 2 0.115889 22.648 16.2459 8.12521
26 1 2 0.115889 13.884 4.84583 6.7889
27 1 2 0.115887 15.5206 3.90092 8.12521
28 1 2 0.115887 21.0114 17.1908 6.7889
29 1 2 0.115889 21.0114 8.96083 0.969417
30 1 2 0.115889 15.5206 12.1309 13.9447
31 1 2 0.115887 13.884 13.0758 12.6084
32 1 2 0.115887 22.648 8.01592 2.30572
33 1 3 0.671939 27.399 18.7442 13.2542
34 1 3 0.671939 9.13299 2.34751 1.65994
35 1 3 0.671939 27.399 12.8934 9.117
36 1 3 0.671939 9.13299 8.19836 5.79712
37 1 3 0.67194 24.8655 14.3561 13.2542
38 1 3 0.67194 11.6665 6.73565 1.65994
39 1 3 0.67194 29.9325 17.2815 9.117
40 1 3 0.67194 6.5995 3.81022 5.79712
41 1 3 0.67194 24.8655 17.2815 9.117
42 1 3 0.67194 11.6665 3.81022 5.79712
43 1 3 0.67194 29.9325 14.3561 13.2542
44 1 3 0.67194 6.5995 6.73565 1.65994
45 1 3 -0.11508 27.399 19.957 14.1117
46 1 3 -0.11508 9.13299 1.13474 0.802379
47 1 3 -0.11508 27.399 11.6806 8.25944
48 1 3 -0.11508 9.13299 9.41113 6.65468
49 1 3 -0.11508 23.8152 13.7497 14.1117
50 1 3 -0.11508 12.7168 7.34203 0.802379
51 1 3 -0.11508 30.9828 17.8879 8.25944
52 1 3 -0.11508 5.54921 3.20384 6.65468
53 1 3 -0.11508 23.8152 17.8879 8.25944
54 1 3 -0.11508 12.7168 3.20384 6.65468
55 1 3 -0.11508 30.9828 13.7497 14.1117
56 1 3 -0.11508 5.54921 7.34203 0.802379
57 1 3 -0.0559 18.266 5.39949 13.5316
58 1 3 -0.0559 18.266 15.6923 1.38254
59 1 3 -0.055903 18.266 14.5575 0.580159
60 1 3 -0.055903 18.266 6.53422 14.334
61 1 3 -0.0559 26.1971 11.1132 7.85825
62 1 3 -0.0559 10.3349 9.9785 7.05587
63 1 3 -0.055903 10.3349 11.1132 7.85825
64 1 3 -0.055903 26.1971 9.9785 7.05587
65 1 3 -0.0559 14.7918 8.54005 0.580159
66 1 3 -0.0559 21.7402 12.5517 14.334
67 1 3 -0.055903 22.7229 13.1191 13.5316
68 1 3 -0.055903 13.8091 7.97268 1.38254
69 1 3 -0.0559 21.7402 3.39366 7.85825
70 1 3 -0.0559 14.7918 17.6981 7.05587
71 1 3 -0.055903 13.8091 17.1307 7.85825
72 1 3 -0.055903 22.7229 3.96103 7.05587
73 1 3 -0.055901 22.7229 17.1307 7.85825
74 1 3 -0.055901 13.8091 3.96103 7.05587
75 1 3 -0.055903 14.7918 3.39366 7.85825
76 1 3 -0.055903 21.7402 17.6981 7.05587
77 1 3 -0.0559 21.7402 8.54005 0.580159
78 1 3 -0.0559 14.7918 12.5517 14.334
79 1 3 -0.055903 13.8091 13.1191 13.5316
80 1 3 -0.055903 22.7229 7.97268 1.38254
81 1 4 -1.26215 27.399 15.8188 11.1856
82 1 4 -1.26215 9.13299 5.27293 3.72853
83 1 4 -0.60118 27.399 18.9383 11.9641
84 1 4 -0.60118 9.13299 2.15347 2.95001
85 1 4 -0.601179 27.399 17.5926 13.8671
86 1 4 -0.601179 9.13299 3.49912 1.04697
87 1 4 -0.601179 26.2336 13.3722 9.45555
88 1 4 -0.601179 10.2984 7.71958 5.45857
89 1 4 -0.60118 28.5643 13.3722 9.45555
90 1 4 -0.60118 7.96762 7.71958 5.45857
91 1 4 -0.60118 25.8628 14.9319 13.8671
92 1 4 -0.60118 10.6692 6.15984 1.04697
93 1 4 -0.601179 24.6974 14.2591 11.9641
94 1 4 -0.601179 11.8345 6.83267 2.95001
95 1 4 -0.60118 28.9351 18.0514 9.45555
96 1 4 -0.60118 7.59682 3.04037 5.45857
97 1 4 -0.601179 30.1005 16.0329 9.45555
98 1 4 -0.601179 6.43145 5.05885 5.45857
99 1 4 -0.601179 24.6974 16.0329 9.45555
100 1 4 -0.601179 11.8345 5.05885 5.45857
101 1 4 -0.60118 25.8628 18.0514 9.45555
102 1 4 -0.60118 10.6692 3.04037 5.45857
103 1 4 -0.60118 28.9351 14.9319 13.8671
104 1 4 -0.60118 7.59682 6.15984 1.04697
105 1 4 -0.60118 30.1005 14.2591 11.9641
106 1 4 -0.60118 6.43145 6.83267 2.95001
107 2 5 -0.35 26.5809 15.5253 6.6399
108 2 6 0.7 26.141 16.2729 5.86976
109 2 5 -0.35 25.7011 17.0205 5.09962
ITEM: TIMESTEP
33000
ITEM: NUMBER OF ATOMS
106
ITEM: BOX BOUNDS xy xz yz pp pp pp
0.0000000000000000e+00 3.6531964750000000e+01 9.1329911900000003e+00
0.0000000000000000e+00 2.1091739680000000e+01 9.1329911900000003e+00
0.0000000000000000e+00 1.4914112149999999e+01 5.2729349200000000e+00
ITEM: ATOMS id mol type q x y z
1 1 1 1.10383 27.399 17.6496 10.5383
2 1 1 1.10383 9.13299 3.44217 4.3758
3 1 1 1.10383 27.399 15.8188 13.1274
4 1 1 1.10383 9.13299 5.27293 1.78671
5 1 1 1.10383 25.8135 14.9034 10.5383
6 1 1 1.10383 10.7185 6.18832 4.3758
7 1 1 1.10383 28.9845 14.9034 10.5383
8 1 1 1.10383 7.5475 6.18832 4.3758
9 1 2 0.115889 18.266 5.48596 12.6084
10 1 2 0.115889 18.266 15.6058 2.30572
11 1 2 0.115888 18.266 13.716 0.969417
12 1 2 0.115888 18.266 7.37578 13.9447
13 1 2 0.11589 25.3934 11.4908 8.12521
14 1 2 0.11589 11.1386 9.60096 6.7889
15 1 2 0.115888 11.1386 11.4908 8.12521
16 1 2 0.115888 25.3934 9.60096 6.7889
17 1 2 0.115889 15.5206 8.96083 0.969417
18 1 2 0.115889 21.0114 12.1309 13.9447
19 1 2 0.115888 22.648 13.0758 12.6084
20 1 2 0.115888 13.884 8.01592 2.30572
21 1 2 0.115889 21.0114 3.90092 8.12521
22 1 2 0.115889 15.5206 17.1908 6.7889
23 1 2 0.115887 13.884 16.2459 8.12521
24 1 2 0.115887 22.648 4.84583 6.7889
25 1 2 0.115889 22.648 16.2459 8.12521
26 1 2 0.115889 13.884 4.84583 6.7889
27 1 2 0.115887 15.5206 3.90092 8.12521
28 1 2 0.115887 21.0114 17.1908 6.7889
29 1 2 0.115889 21.0114 8.96083 0.969417
30 1 2 0.115889 15.5206 12.1309 13.9447
31 1 2 0.115887 13.884 13.0758 12.6084
32 1 2 0.115887 22.648 8.01592 2.30572
33 1 3 0.671939 27.399 18.7442 13.2542
34 1 3 0.671939 9.13299 2.34751 1.65994
35 1 3 0.671939 27.399 12.8934 9.117
36 1 3 0.671939 9.13299 8.19836 5.79712
37 1 3 0.67194 24.8655 14.3561 13.2542
38 1 3 0.67194 11.6665 6.73565 1.65994
39 1 3 0.67194 29.9325 17.2815 9.117
40 1 3 0.67194 6.5995 3.81022 5.79712
41 1 3 0.67194 24.8655 17.2815 9.117
42 1 3 0.67194 11.6665 3.81022 5.79712
43 1 3 0.67194 29.9325 14.3561 13.2542
44 1 3 0.67194 6.5995 6.73565 1.65994
45 1 3 -0.11508 27.399 19.957 14.1117
46 1 3 -0.11508 9.13299 1.13474 0.802379
47 1 3 -0.11508 27.399 11.6806 8.25944
48 1 3 -0.11508 9.13299 9.41113 6.65468
49 1 3 -0.11508 23.8152 13.7497 14.1117
50 1 3 -0.11508 12.7168 7.34203 0.802379
51 1 3 -0.11508 30.9828 17.8879 8.25944
52 1 3 -0.11508 5.54921 3.20384 6.65468
53 1 3 -0.11508 23.8152 17.8879 8.25944
54 1 3 -0.11508 12.7168 3.20384 6.65468
55 1 3 -0.11508 30.9828 13.7497 14.1117
56 1 3 -0.11508 5.54921 7.34203 0.802379
57 1 3 -0.0559 18.266 5.39949 13.5316
58 1 3 -0.0559 18.266 15.6923 1.38254
59 1 3 -0.055903 18.266 14.5575 0.580159
60 1 3 -0.055903 18.266 6.53422 14.334
61 1 3 -0.0559 26.1971 11.1132 7.85825
62 1 3 -0.0559 10.3349 9.9785 7.05587
63 1 3 -0.055903 10.3349 11.1132 7.85825
64 1 3 -0.055903 26.1971 9.9785 7.05587
65 1 3 -0.0559 14.7918 8.54005 0.580159
66 1 3 -0.0559 21.7402 12.5517 14.334
67 1 3 -0.055903 22.7229 13.1191 13.5316
68 1 3 -0.055903 13.8091 7.97268 1.38254
69 1 3 -0.0559 21.7402 3.39366 7.85825
70 1 3 -0.0559 14.7918 17.6981 7.05587
71 1 3 -0.055903 13.8091 17.1307 7.85825
72 1 3 -0.055903 22.7229 3.96103 7.05587
73 1 3 -0.055901 22.7229 17.1307 7.85825
74 1 3 -0.055901 13.8091 3.96103 7.05587
75 1 3 -0.055903 14.7918 3.39366 7.85825
76 1 3 -0.055903 21.7402 17.6981 7.05587
77 1 3 -0.0559 21.7402 8.54005 0.580159
78 1 3 -0.0559 14.7918 12.5517 14.334
79 1 3 -0.055903 13.8091 13.1191 13.5316
80 1 3 -0.055903 22.7229 7.97268 1.38254
81 1 4 -1.26215 27.399 15.8188 11.1856
82 1 4 -1.26215 9.13299 5.27293 3.72853
83 1 4 -0.60118 27.399 18.9383 11.9641
84 1 4 -0.60118 9.13299 2.15347 2.95001
85 1 4 -0.601179 27.399 17.5926 13.8671
86 1 4 -0.601179 9.13299 3.49912 1.04697
87 1 4 -0.601179 26.2336 13.3722 9.45555
88 1 4 -0.601179 10.2984 7.71958 5.45857
89 1 4 -0.60118 28.5643 13.3722 9.45555
90 1 4 -0.60118 7.96762 7.71958 5.45857
91 1 4 -0.60118 25.8628 14.9319 13.8671
92 1 4 -0.60118 10.6692 6.15984 1.04697
93 1 4 -0.601179 24.6974 14.2591 11.9641
94 1 4 -0.601179 11.8345 6.83267 2.95001
95 1 4 -0.60118 28.9351 18.0514 9.45555
96 1 4 -0.60118 7.59682 3.04037 5.45857
97 1 4 -0.601179 30.1005 16.0329 9.45555
98 1 4 -0.601179 6.43145 5.05885 5.45857
99 1 4 -0.601179 24.6974 16.0329 9.45555
100 1 4 -0.601179 11.8345 5.05885 5.45857
101 1 4 -0.60118 25.8628 18.0514 9.45555
102 1 4 -0.60118 10.6692 3.04037 5.45857
103 1 4 -0.60118 28.9351 14.9319 13.8671
104 1 4 -0.60118 7.59682 6.15984 1.04697
105 1 4 -0.60118 30.1005 14.2591 11.9641
106 1 4 -0.60118 6.43145 6.83267 2.95001
ITEM: TIMESTEP
34000
ITEM: NUMBER OF ATOMS
109
ITEM: BOX BOUNDS xy xz yz pp pp pp
0.0000000000000000e+00 3.6531964750000000e+01 9.1329911900000003e+00
0.0000000000000000e+00 2.1091739680000000e+01 9.1329911900000003e+00
0.0000000000000000e+00 1.4914112149999999e+01 5.2729349200000000e+00
ITEM: ATOMS id mol type q x y z
1 1 1 1.10383 27.399 17.6496 10.5383
2 1 1 1.10383 9.13299 3.44217 4.3758
3 1 1 1.10383 27.399 15.8188 13.1274
4 1 1 1.10383 9.13299 5.27293 1.78671
5 1 1 1.10383 25.8135 14.9034 10.5383
6 1 1 1.10383 10.7185 6.18832 4.3758
7 1 1 1.10383 28.9845 14.9034 10.5383
8 1 1 1.10383 7.5475 6.18832 4.3758
9 1 2 0.115889 18.266 5.48596 12.6084
10 1 2 0.115889 18.266 15.6058 2.30572
11 1 2 0.115888 18.266 13.716 0.969417
12 1 2 0.115888 18.266 7.37578 13.9447
13 1 2 0.11589 25.3934 11.4908 8.12521
14 1 2 0.11589 11.1386 9.60096 6.7889
15 1 2 0.115888 11.1386 11.4908 8.12521
16 1 2 0.115888 25.3934 9.60096 6.7889
17 1 2 0.115889 15.5206 8.96083 0.969417
18 1 2 0.115889 21.0114 12.1309 13.9447
19 1 2 0.115888 22.648 13.0758 12.6084
20 1 2 0.115888 13.884 8.01592 2.30572
21 1 2 0.115889 21.0114 3.90092 8.12521
22 1 2 0.115889 15.5206 17.1908 6.7889
23 1 2 0.115887 13.884 16.2459 8.12521
24 1 2 0.115887 22.648 4.84583 6.7889
25 1 2 0.115889 22.648 16.2459 8.12521
26 1 2 0.115889 13.884 4.84583 6.7889
27 1 2 0.115887 15.5206 3.90092 8.12521
28 1 2 0.115887 21.0114 17.1908 6.7889
29 1 2 0.115889 21.0114 8.96083 0.969417
30 1 2 0.115889 15.5206 12.1309 13.9447
31 1 2 0.115887 13.884 13.0758 12.6084
32 1 2 0.115887 22.648 8.01592 2.30572
33 1 3 0.671939 27.399 18.7442 13.2542
34 1 3 0.671939 9.13299 2.34751 1.65994
35 1 3 0.671939 27.399 12.8934 9.117
36 1 3 0.671939 9.13299 8.19836 5.79712
37 1 3 0.67194 24.8655 14.3561 13.2542
38 1 3 0.67194 11.6665 6.73565 1.65994
39 1 3 0.67194 29.9325 17.2815 9.117
40 1 3 0.67194 6.5995 3.81022 5.79712
41 1 3 0.67194 24.8655 17.2815 9.117
42 1 3 0.67194 11.6665 3.81022 5.79712
43 1 3 0.67194 29.9325 14.3561 13.2542
44 1 3 0.67194 6.5995 6.73565 1.65994
45 1 3 -0.11508 27.399 19.957 14.1117
46 1 3 -0.11508 9.13299 1.13474 0.802379
47 1 3 -0.11508 27.399 11.6806 8.25944
48 1 3 -0.11508 9.13299 9.41113 6.65468
49 1 3 -0.11508 23.8152 13.7497 14.1117
50 1 3 -0.11508 12.7168 7.34203 0.802379
51 1 3 -0.11508 30.9828 17.8879 8.25944
52 1 3 -0.11508 5.54921 3.20384 6.65468
53 1 3 -0.11508 23.8152 17.8879 8.25944
54 1 3 -0.11508 12.7168 3.20384 6.65468
55 1 3 -0.11508 30.9828 13.7497 14.1117
56 1 3 -0.11508 5.54921 7.34203 0.802379
57 1 3 -0.0559 18.266 5.39949 13.5316
58 1 3 -0.0559 18.266 15.6923 1.38254
59 1 3 -0.055903 18.266 14.5575 0.580159
60 1 3 -0.055903 18.266 6.53422 14.334
61 1 3 -0.0559 26.1971 11.1132 7.85825
62 1 3 -0.0559 10.3349 9.9785 7.05587
63 1 3 -0.055903 10.3349 11.1132 7.85825
64 1 3 -0.055903 26.1971 9.9785 7.05587
65 1 3 -0.0559 14.7918 8.54005 0.580159
66 1 3 -0.0559 21.7402 12.5517 14.334
67 1 3 -0.055903 22.7229 13.1191 13.5316
68 1 3 -0.055903 13.8091 7.97268 1.38254
69 1 3 -0.0559 21.7402 3.39366 7.85825
70 1 3 -0.0559 14.7918 17.6981 7.05587
71 1 3 -0.055903 13.8091 17.1307 7.85825
72 1 3 -0.055903 22.7229 3.96103 7.05587
73 1 3 -0.055901 22.7229 17.1307 7.85825
74 1 3 -0.055901 13.8091 3.96103 7.05587
75 1 3 -0.055903 14.7918 3.39366 7.85825
76 1 3 -0.055903 21.7402 17.6981 7.05587
77 1 3 -0.0559 21.7402 8.54005 0.580159
78 1 3 -0.0559 14.7918 12.5517 14.334
79 1 3 -0.055903 13.8091 13.1191 13.5316
80 1 3 -0.055903 22.7229 7.97268 1.38254
81 1 4 -1.26215 27.399 15.8188 11.1856
82 1 4 -1.26215 9.13299 5.27293 3.72853
83 1 4 -0.60118 27.399 18.9383 11.9641
84 1 4 -0.60118 9.13299 2.15347 2.95001
85 1 4 -0.601179 27.399 17.5926 13.8671
86 1 4 -0.601179 9.13299 3.49912 1.04697
87 1 4 -0.601179 26.2336 13.3722 9.45555
88 1 4 -0.601179 10.2984 7.71958 5.45857
89 1 4 -0.60118 28.5643 13.3722 9.45555
90 1 4 -0.60118 7.96762 7.71958 5.45857
91 1 4 -0.60118 25.8628 14.9319 13.8671
92 1 4 -0.60118 10.6692 6.15984 1.04697
93 1 4 -0.601179 24.6974 14.2591 11.9641
94 1 4 -0.601179 11.8345 6.83267 2.95001
95 1 4 -0.60118 28.9351 18.0514 9.45555
96 1 4 -0.60118 7.59682 3.04037 5.45857
97 1 4 -0.601179 30.1005 16.0329 9.45555
98 1 4 -0.601179 6.43145 5.05885 5.45857
99 1 4 -0.601179 24.6974 16.0329 9.45555
100 1 4 -0.601179 11.8345 5.05885 5.45857
101 1 4 -0.60118 25.8628 18.0514 9.45555
102 1 4 -0.60118 10.6692 3.04037 5.45857
103 1 4 -0.60118 28.9351 14.9319 13.8671
104 1 4 -0.60118 7.59682 6.15984 1.04697
105 1 4 -0.60118 30.1005 14.2591 11.9641
106 1 4 -0.60118 6.43145 6.83267 2.95001
107 2 5 -0.35 6.7709 10.0683 2.14759
108 2 6 0.7 25.2555 10.9367 2.88495
109 2 5 -0.35 25.4742 11.8051 3.62231
ITEM: TIMESTEP
35000
ITEM: NUMBER OF ATOMS
106
ITEM: BOX BOUNDS xy xz yz pp pp pp
0.0000000000000000e+00 3.6531964750000000e+01 9.1329911900000003e+00
0.0000000000000000e+00 2.1091739680000000e+01 9.1329911900000003e+00
0.0000000000000000e+00 1.4914112149999999e+01 5.2729349200000000e+00
ITEM: ATOMS id mol type q x y z
1 1 1 1.10383 27.399 17.6496 10.5383
2 1 1 1.10383 9.13299 3.44217 4.3758
3 1 1 1.10383 27.399 15.8188 13.1274
4 1 1 1.10383 9.13299 5.27293 1.78671
5 1 1 1.10383 25.8135 14.9034 10.5383
6 1 1 1.10383 10.7185 6.18832 4.3758
7 1 1 1.10383 28.9845 14.9034 10.5383
8 1 1 1.10383 7.5475 6.18832 4.3758
9 1 2 0.115889 18.266 5.48596 12.6084
10 1 2 0.115889 18.266 15.6058 2.30572
11 1 2 0.115888 18.266 13.716 0.969417
12 1 2 0.115888 18.266 7.37578 13.9447
13 1 2 0.11589 25.3934 11.4908 8.12521
14 1 2 0.11589 11.1386 9.60096 6.7889
15 1 2 0.115888 11.1386 11.4908 8.12521
16 1 2 0.115888 25.3934 9.60096 6.7889
17 1 2 0.115889 15.5206 8.96083 0.969417
18 1 2 0.115889 21.0114 12.1309 13.9447
19 1 2 0.115888 22.648 13.0758 12.6084
20 1 2 0.115888 13.884 8.01592 2.30572
21 1 2 0.115889 21.0114 3.90092 8.12521
22 1 2 0.115889 15.5206 17.1908 6.7889
23 1 2 0.115887 13.884 16.2459 8.12521
24 1 2 0.115887 22.648 4.84583 6.7889
25 1 2 0.115889 22.648 16.2459 8.12521
26 1 2 0.115889 13.884 4.84583 6.7889
27 1 2 0.115887 15.5206 3.90092 8.12521
28 1 2 0.115887 21.0114 17.1908 6.7889
29 1 2 0.115889 21.0114 8.96083 0.969417
30 1 2 0.115889 15.5206 12.1309 13.9447
31 1 2 0.115887 13.884 13.0758 12.6084
32 1 2 0.115887 22.648 8.01592 2.30572
33 1 3 0.671939 27.399 18.7442 13.2542
34 1 3 0.671939 9.13299 2.34751 1.65994
35 1 3 0.671939 27.399 12.8934 9.117
36 1 3 0.671939 9.13299 8.19836 5.79712
37 1 3 0.67194 24.8655 14.3561 13.2542
38 1 3 0.67194 11.6665 6.73565 1.65994
39 1 3 0.67194 29.9325 17.2815 9.117
40 1 3 0.67194 6.5995 3.81022 5.79712
41 1 3 0.67194 24.8655 17.2815 9.117
42 1 3 0.67194 11.6665 3.81022 5.79712
43 1 3 0.67194 29.9325 14.3561 13.2542
44 1 3 0.67194 6.5995 6.73565 1.65994
45 1 3 -0.11508 27.399 19.957 14.1117
46 1 3 -0.11508 9.13299 1.13474 0.802379
47 1 3 -0.11508 27.399 11.6806 8.25944
48 1 3 -0.11508 9.13299 9.41113 6.65468
49 1 3 -0.11508 23.8152 13.7497 14.1117
50 1 3 -0.11508 12.7168 7.34203 0.802379
51 1 3 -0.11508 30.9828 17.8879 8.25944
52 1 3 -0.11508 5.54921 3.20384 6.65468
53 1 3 -0.11508 23.8152 17.8879 8.25944
54 1 3 -0.11508 12.7168 3.20384 6.65468
55 1 3 -0.11508 30.9828 13.7497 14.1117
56 1 3 -0.11508 5.54921 7.34203 0.802379
57 1 3 -0.0559 18.266 5.39949 13.5316
58 1 3 -0.0559 18.266 15.6923 1.38254
59 1 3 -0.055903 18.266 14.5575 0.580159
60 1 3 -0.055903 18.266 6.53422 14.334
61 1 3 -0.0559 26.1971 11.1132 7.85825
62 1 3 -0.0559 10.3349 9.9785 7.05587
63 1 3 -0.055903 10.3349 11.1132 7.85825
64 1 3 -0.055903 26.1971 9.9785 7.05587
65 1 3 -0.0559 14.7918 8.54005 0.580159
66 1 3 -0.0559 21.7402 12.5517 14.334
67 1 3 -0.055903 22.7229 13.1191 13.5316
68 1 3 -0.055903 13.8091 7.97268 1.38254
69 1 3 -0.0559 21.7402 3.39366 7.85825
70 1 3 -0.0559 14.7918 17.6981 7.05587
71 1 3 -0.055903 13.8091 17.1307 7.85825
72 1 3 -0.055903 22.7229 3.96103 7.05587
73 1 3 -0.055901 22.7229 17.1307 7.85825
74 1 3 -0.055901 13.8091 3.96103 7.05587
75 1 3 -0.055903 14.7918 3.39366 7.85825
76 1 3 -0.055903 21.7402 17.6981 7.05587
77 1 3 -0.0559 21.7402 8.54005 0.580159
78 1 3 -0.0559 14.7918 12.5517 14.334
79 1 3 -0.055903 13.8091 13.1191 13.5316
80 1 3 -0.055903 22.7229 7.97268 1.38254
81 1 4 -1.26215 27.399 15.8188 11.1856
82 1 4 -1.26215 9.13299 5.27293 3.72853
83 1 4 -0.60118 27.399 18.9383 11.9641
84 1 4 -0.60118 9.13299 2.15347 2.95001
85 1 4 -0.601179 27.399 17.5926 13.8671
86 1 4 -0.601179 9.13299 3.49912 1.04697
87 1 4 -0.601179 26.2336 13.3722 9.45555
88 1 4 -0.601179 10.2984 7.71958 5.45857
89 1 4 -0.60118 28.5643 13.3722 9.45555
90 1 4 -0.60118 7.96762 7.71958 5.45857
91 1 4 -0.60118 25.8628 14.9319 13.8671
92 1 4 -0.60118 10.6692 6.15984 1.04697
93 1 4 -0.601179 24.6974 14.2591 11.9641
94 1 4 -0.601179 11.8345 6.83267 2.95001
95 1 4 -0.60118 28.9351 18.0514 9.45555
96 1 4 -0.60118 7.59682 3.04037 5.45857
97 1 4 -0.601179 30.1005 16.0329 9.45555
98 1 4 -0.601179 6.43145 5.05885 5.45857
99 1 4 -0.601179 24.6974 16.0329 9.45555
100 1 4 -0.601179 11.8345 5.05885 5.45857
101 1 4 -0.60118 25.8628 18.0514 9.45555
102 1 4 -0.60118 10.6692 3.04037 5.45857
103 1 4 -0.60118 28.9351 14.9319 13.8671
104 1 4 -0.60118 7.59682 6.15984 1.04697
105 1 4 -0.60118 30.1005 14.2591 11.9641
106 1 4 -0.60118 6.43145 6.83267 2.95001
ITEM: TIMESTEP
36000
ITEM: NUMBER OF ATOMS
109
ITEM: BOX BOUNDS xy xz yz pp pp pp
0.0000000000000000e+00 3.6531964750000000e+01 9.1329911900000003e+00
0.0000000000000000e+00 2.1091739680000000e+01 9.1329911900000003e+00
0.0000000000000000e+00 1.4914112149999999e+01 5.2729349200000000e+00
ITEM: ATOMS id mol type q x y z
1 1 1 1.10383 27.399 17.6496 10.5383
2 1 1 1.10383 9.13299 3.44217 4.3758
3 1 1 1.10383 27.399 15.8188 13.1274
4 1 1 1.10383 9.13299 5.27293 1.78671
5 1 1 1.10383 25.8135 14.9034 10.5383
6 1 1 1.10383 10.7185 6.18832 4.3758
7 1 1 1.10383 28.9845 14.9034 10.5383
8 1 1 1.10383 7.5475 6.18832 4.3758
9 1 2 0.115889 18.266 5.48596 12.6084
10 1 2 0.115889 18.266 15.6058 2.30572
11 1 2 0.115888 18.266 13.716 0.969417
12 1 2 0.115888 18.266 7.37578 13.9447
13 1 2 0.11589 25.3934 11.4908 8.12521
14 1 2 0.11589 11.1386 9.60096 6.7889
15 1 2 0.115888 11.1386 11.4908 8.12521
16 1 2 0.115888 25.3934 9.60096 6.7889
17 1 2 0.115889 15.5206 8.96083 0.969417
18 1 2 0.115889 21.0114 12.1309 13.9447
19 1 2 0.115888 22.648 13.0758 12.6084
20 1 2 0.115888 13.884 8.01592 2.30572
21 1 2 0.115889 21.0114 3.90092 8.12521
22 1 2 0.115889 15.5206 17.1908 6.7889
23 1 2 0.115887 13.884 16.2459 8.12521
24 1 2 0.115887 22.648 4.84583 6.7889
25 1 2 0.115889 22.648 16.2459 8.12521
26 1 2 0.115889 13.884 4.84583 6.7889
27 1 2 0.115887 15.5206 3.90092 8.12521
28 1 2 0.115887 21.0114 17.1908 6.7889
29 1 2 0.115889 21.0114 8.96083 0.969417
30 1 2 0.115889 15.5206 12.1309 13.9447
31 1 2 0.115887 13.884 13.0758 12.6084
32 1 2 0.115887 22.648 8.01592 2.30572
33 1 3 0.671939 27.399 18.7442 13.2542
34 1 3 0.671939 9.13299 2.34751 1.65994
35 1 3 0.671939 27.399 12.8934 9.117
36 1 3 0.671939 9.13299 8.19836 5.79712
37 1 3 0.67194 24.8655 14.3561 13.2542
38 1 3 0.67194 11.6665 6.73565 1.65994
39 1 3 0.67194 29.9325 17.2815 9.117
40 1 3 0.67194 6.5995 3.81022 5.79712
41 1 3 0.67194 24.8655 17.2815 9.117
42 1 3 0.67194 11.6665 3.81022 5.79712
43 1 3 0.67194 29.9325 14.3561 13.2542
44 1 3 0.67194 6.5995 6.73565 1.65994
45 1 3 -0.11508 27.399 19.957 14.1117
46 1 3 -0.11508 9.13299 1.13474 0.802379
47 1 3 -0.11508 27.399 11.6806 8.25944
48 1 3 -0.11508 9.13299 9.41113 6.65468
49 1 3 -0.11508 23.8152 13.7497 14.1117
50 1 3 -0.11508 12.7168 7.34203 0.802379
51 1 3 -0.11508 30.9828 17.8879 8.25944
52 1 3 -0.11508 5.54921 3.20384 6.65468
53 1 3 -0.11508 23.8152 17.8879 8.25944
54 1 3 -0.11508 12.7168 3.20384 6.65468
55 1 3 -0.11508 30.9828 13.7497 14.1117
56 1 3 -0.11508 5.54921 7.34203 0.802379
57 1 3 -0.0559 18.266 5.39949 13.5316
58 1 3 -0.0559 18.266 15.6923 1.38254
59 1 3 -0.055903 18.266 14.5575 0.580159
60 1 3 -0.055903 18.266 6.53422 14.334
61 1 3 -0.0559 26.1971 11.1132 7.85825
62 1 3 -0.0559 10.3349 9.9785 7.05587
63 1 3 -0.055903 10.3349 11.1132 7.85825
64 1 3 -0.055903 26.1971 9.9785 7.05587
65 1 3 -0.0559 14.7918 8.54005 0.580159
66 1 3 -0.0559 21.7402 12.5517 14.334
67 1 3 -0.055903 22.7229 13.1191 13.5316
68 1 3 -0.055903 13.8091 7.97268 1.38254
69 1 3 -0.0559 21.7402 3.39366 7.85825
70 1 3 -0.0559 14.7918 17.6981 7.05587
71 1 3 -0.055903 13.8091 17.1307 7.85825
72 1 3 -0.055903 22.7229 3.96103 7.05587
73 1 3 -0.055901 22.7229 17.1307 7.85825
74 1 3 -0.055901 13.8091 3.96103 7.05587
75 1 3 -0.055903 14.7918 3.39366 7.85825
76 1 3 -0.055903 21.7402 17.6981 7.05587
77 1 3 -0.0559 21.7402 8.54005 0.580159
78 1 3 -0.0559 14.7918 12.5517 14.334
79 1 3 -0.055903 13.8091 13.1191 13.5316
80 1 3 -0.055903 22.7229 7.97268 1.38254
81 1 4 -1.26215 27.399 15.8188 11.1856
82 1 4 -1.26215 9.13299 5.27293 3.72853
83 1 4 -0.60118 27.399 18.9383 11.9641
84 1 4 -0.60118 9.13299 2.15347 2.95001
85 1 4 -0.601179 27.399 17.5926 13.8671
86 1 4 -0.601179 9.13299 3.49912 1.04697
87 1 4 -0.601179 26.2336 13.3722 9.45555
88 1 4 -0.601179 10.2984 7.71958 5.45857
89 1 4 -0.60118 28.5643 13.3722 9.45555
90 1 4 -0.60118 7.96762 7.71958 5.45857
91 1 4 -0.60118 25.8628 14.9319 13.8671
92 1 4 -0.60118 10.6692 6.15984 1.04697
93 1 4 -0.601179 24.6974 14.2591 11.9641
94 1 4 -0.601179 11.8345 6.83267 2.95001
95 1 4 -0.60118 28.9351 18.0514 9.45555
96 1 4 -0.60118 7.59682 3.04037 5.45857
97 1 4 -0.601179 30.1005 16.0329 9.45555
98 1 4 -0.601179 6.43145 5.05885 5.45857
99 1 4 -0.601179 24.6974 16.0329 9.45555
100 1 4 -0.601179 11.8345 5.05885 5.45857
101 1 4 -0.60118 25.8628 18.0514 9.45555
102 1 4 -0.60118 10.6692 3.04037 5.45857
103 1 4 -0.60118 28.9351 14.9319 13.8671
104 1 4 -0.60118 7.59682 6.15984 1.04697
105 1 4 -0.60118 30.1005 14.2591 11.9641
106 1 4 -0.60118 6.43145 6.83267 2.95001
107 2 5 -0.35 9.08425 10.6757 1.84679
108 2 6 0.7 9.75175 10.1568 1.05254
109 2 5 -0.35 10.4192 9.63797 0.258281
ITEM: TIMESTEP
37000
ITEM: NUMBER OF ATOMS
106
ITEM: BOX BOUNDS xy xz yz pp pp pp
0.0000000000000000e+00 3.6531964750000000e+01 9.1329911900000003e+00
0.0000000000000000e+00 2.1091739680000000e+01 9.1329911900000003e+00
0.0000000000000000e+00 1.4914112149999999e+01 5.2729349200000000e+00
ITEM: ATOMS id mol type q x y z
1 1 1 1.10383 27.399 17.6496 10.5383
2 1 1 1.10383 9.13299 3.44217 4.3758
3 1 1 1.10383 27.399 15.8188 13.1274
4 1 1 1.10383 9.13299 5.27293 1.78671
5 1 1 1.10383 25.8135 14.9034 10.5383
6 1 1 1.10383 10.7185 6.18832 4.3758
7 1 1 1.10383 28.9845 14.9034 10.5383
8 1 1 1.10383 7.5475 6.18832 4.3758
9 1 2 0.115889 18.266 5.48596 12.6084
10 1 2 0.115889 18.266 15.6058 2.30572
11 1 2 0.115888 18.266 13.716 0.969417
12 1 2 0.115888 18.266 7.37578 13.9447
13 1 2 0.11589 25.3934 11.4908 8.12521
14 1 2 0.11589 11.1386 9.60096 6.7889
15 1 2 0.115888 11.1386 11.4908 8.12521
16 1 2 0.115888 25.3934 9.60096 6.7889
17 1 2 0.115889 15.5206 8.96083 0.969417
18 1 2 0.115889 21.0114 12.1309 13.9447
19 1 2 0.115888 22.648 13.0758 12.6084
20 1 2 0.115888 13.884 8.01592 2.30572
21 1 2 0.115889 21.0114 3.90092 8.12521
22 1 2 0.115889 15.5206 17.1908 6.7889
23 1 2 0.115887 13.884 16.2459 8.12521
24 1 2 0.115887 22.648 4.84583 6.7889
25 1 2 0.115889 22.648 16.2459 8.12521
26 1 2 0.115889 13.884 4.84583 6.7889
27 1 2 0.115887 15.5206 3.90092 8.12521
28 1 2 0.115887 21.0114 17.1908 6.7889
29 1 2 0.115889 21.0114 8.96083 0.969417
30 1 2 0.115889 15.5206 12.1309 13.9447
31 1 2 0.115887 13.884 13.0758 12.6084
32 1 2 0.115887 22.648 8.01592 2.30572
33 1 3 0.671939 27.399 18.7442 13.2542
34 1 3 0.671939 9.13299 2.34751 1.65994
35 1 3 0.671939 27.399 12.8934 9.117
36 1 3 0.671939 9.13299 8.19836 5.79712
37 1 3 0.67194 24.8655 14.3561 13.2542
38 1 3 0.67194 11.6665 6.73565 1.65994
39 1 3 0.67194 29.9325 17.2815 9.117
40 1 3 0.67194 6.5995 3.81022 5.79712
41 1 3 0.67194 24.8655 17.2815 9.117
42 1 3 0.67194 11.6665 3.81022 5.79712
43 1 3 0.67194 29.9325 14.3561 13.2542
44 1 3 0.67194 6.5995 6.73565 1.65994
45 1 3 -0.11508 27.399 19.957 14.1117
46 1 3 -0.11508 9.13299 1.13474 0.802379
47 1 3 -0.11508 27.399 11.6806 8.25944
48 1 3 -0.11508 9.13299 9.41113 6.65468
49 1 3 -0.11508 23.8152 13.7497 14.1117
50 1 3 -0.11508 12.7168 7.34203 0.802379
51 1 3 -0.11508 30.9828 17.8879 8.25944
52 1 3 -0.11508 5.54921 3.20384 6.65468
53 1 3 -0.11508 23.8152 17.8879 8.25944
54 1 3 -0.11508 12.7168 3.20384 6.65468
55 1 3 -0.11508 30.9828 13.7497 14.1117
56 1 3 -0.11508 5.54921 7.34203 0.802379
57 1 3 -0.0559 18.266 5.39949 13.5316
58 1 3 -0.0559 18.266 15.6923 1.38254
59 1 3 -0.055903 18.266 14.5575 0.580159
60 1 3 -0.055903 18.266 6.53422 14.334
61 1 3 -0.0559 26.1971 11.1132 7.85825
62 1 3 -0.0559 10.3349 9.9785 7.05587
63 1 3 -0.055903 10.3349 11.1132 7.85825
64 1 3 -0.055903 26.1971 9.9785 7.05587
65 1 3 -0.0559 14.7918 8.54005 0.580159
66 1 3 -0.0559 21.7402 12.5517 14.334
67 1 3 -0.055903 22.7229 13.1191 13.5316
68 1 3 -0.055903 13.8091 7.97268 1.38254
69 1 3 -0.0559 21.7402 3.39366 7.85825
70 1 3 -0.0559 14.7918 17.6981 7.05587
71 1 3 -0.055903 13.8091 17.1307 7.85825
72 1 3 -0.055903 22.7229 3.96103 7.05587
73 1 3 -0.055901 22.7229 17.1307 7.85825
74 1 3 -0.055901 13.8091 3.96103 7.05587
75 1 3 -0.055903 14.7918 3.39366 7.85825
76 1 3 -0.055903 21.7402 17.6981 7.05587
77 1 3 -0.0559 21.7402 8.54005 0.580159
78 1 3 -0.0559 14.7918 12.5517 14.334
79 1 3 -0.055903 13.8091 13.1191 13.5316
80 1 3 -0.055903 22.7229 7.97268 1.38254
81 1 4 -1.26215 27.399 15.8188 11.1856
82 1 4 -1.26215 9.13299 5.27293 3.72853
83 1 4 -0.60118 27.399 18.9383 11.9641
84 1 4 -0.60118 9.13299 2.15347 2.95001
85 1 4 -0.601179 27.399 17.5926 13.8671
86 1 4 -0.601179 9.13299 3.49912 1.04697
87 1 4 -0.601179 26.2336 13.3722 9.45555
88 1 4 -0.601179 10.2984 7.71958 5.45857
89 1 4 -0.60118 28.5643 13.3722 9.45555
90 1 4 -0.60118 7.96762 7.71958 5.45857
91 1 4 -0.60118 25.8628 14.9319 13.8671
92 1 4 -0.60118 10.6692 6.15984 1.04697
93 1 4 -0.601179 24.6974 14.2591 11.9641
94 1 4 -0.601179 11.8345 6.83267 2.95001
95 1 4 -0.60118 28.9351 18.0514 9.45555
96 1 4 -0.60118 7.59682 3.04037 5.45857
97 1 4 -0.601179 30.1005 16.0329 9.45555
98 1 4 -0.601179 6.43145 5.05885 5.45857
99 1 4 -0.601179 24.6974 16.0329 9.45555
100 1 4 -0.601179 11.8345 5.05885 5.45857
101 1 4 -0.60118 25.8628 18.0514 9.45555
102 1 4 -0.60118 10.6692 3.04037 5.45857
103 1 4 -0.60118 28.9351 14.9319 13.8671
104 1 4 -0.60118 7.59682 6.15984 1.04697
105 1 4 -0.60118 30.1005 14.2591 11.9641
106 1 4 -0.60118 6.43145 6.83267 2.95001
ITEM: TIMESTEP
38000
ITEM: NUMBER OF ATOMS
106
ITEM: BOX BOUNDS xy xz yz pp pp pp
0.0000000000000000e+00 3.6531964750000000e+01 9.1329911900000003e+00
0.0000000000000000e+00 2.1091739680000000e+01 9.1329911900000003e+00
0.0000000000000000e+00 1.4914112149999999e+01 5.2729349200000000e+00
ITEM: ATOMS id mol type q x y z
1 1 1 1.10383 27.399 17.6496 10.5383
2 1 1 1.10383 9.13299 3.44217 4.3758
3 1 1 1.10383 27.399 15.8188 13.1274
4 1 1 1.10383 9.13299 5.27293 1.78671
5 1 1 1.10383 25.8135 14.9034 10.5383
6 1 1 1.10383 10.7185 6.18832 4.3758
7 1 1 1.10383 28.9845 14.9034 10.5383
8 1 1 1.10383 7.5475 6.18832 4.3758
9 1 2 0.115889 18.266 5.48596 12.6084
10 1 2 0.115889 18.266 15.6058 2.30572
11 1 2 0.115888 18.266 13.716 0.969417
12 1 2 0.115888 18.266 7.37578 13.9447
13 1 2 0.11589 25.3934 11.4908 8.12521
14 1 2 0.11589 11.1386 9.60096 6.7889
15 1 2 0.115888 11.1386 11.4908 8.12521
16 1 2 0.115888 25.3934 9.60096 6.7889
17 1 2 0.115889 15.5206 8.96083 0.969417
18 1 2 0.115889 21.0114 12.1309 13.9447
19 1 2 0.115888 22.648 13.0758 12.6084
20 1 2 0.115888 13.884 8.01592 2.30572
21 1 2 0.115889 21.0114 3.90092 8.12521
22 1 2 0.115889 15.5206 17.1908 6.7889
23 1 2 0.115887 13.884 16.2459 8.12521
24 1 2 0.115887 22.648 4.84583 6.7889
25 1 2 0.115889 22.648 16.2459 8.12521
26 1 2 0.115889 13.884 4.84583 6.7889
27 1 2 0.115887 15.5206 3.90092 8.12521
28 1 2 0.115887 21.0114 17.1908 6.7889
29 1 2 0.115889 21.0114 8.96083 0.969417
30 1 2 0.115889 15.5206 12.1309 13.9447
31 1 2 0.115887 13.884 13.0758 12.6084
32 1 2 0.115887 22.648 8.01592 2.30572
33 1 3 0.671939 27.399 18.7442 13.2542
34 1 3 0.671939 9.13299 2.34751 1.65994
35 1 3 0.671939 27.399 12.8934 9.117
36 1 3 0.671939 9.13299 8.19836 5.79712
37 1 3 0.67194 24.8655 14.3561 13.2542
38 1 3 0.67194 11.6665 6.73565 1.65994
39 1 3 0.67194 29.9325 17.2815 9.117
40 1 3 0.67194 6.5995 3.81022 5.79712
41 1 3 0.67194 24.8655 17.2815 9.117
42 1 3 0.67194 11.6665 3.81022 5.79712
43 1 3 0.67194 29.9325 14.3561 13.2542
44 1 3 0.67194 6.5995 6.73565 1.65994
45 1 3 -0.11508 27.399 19.957 14.1117
46 1 3 -0.11508 9.13299 1.13474 0.802379
47 1 3 -0.11508 27.399 11.6806 8.25944
48 1 3 -0.11508 9.13299 9.41113 6.65468
49 1 3 -0.11508 23.8152 13.7497 14.1117
50 1 3 -0.11508 12.7168 7.34203 0.802379
51 1 3 -0.11508 30.9828 17.8879 8.25944
52 1 3 -0.11508 5.54921 3.20384 6.65468
53 1 3 -0.11508 23.8152 17.8879 8.25944
54 1 3 -0.11508 12.7168 3.20384 6.65468
55 1 3 -0.11508 30.9828 13.7497 14.1117
56 1 3 -0.11508 5.54921 7.34203 0.802379
57 1 3 -0.0559 18.266 5.39949 13.5316
58 1 3 -0.0559 18.266 15.6923 1.38254
59 1 3 -0.055903 18.266 14.5575 0.580159
60 1 3 -0.055903 18.266 6.53422 14.334
61 1 3 -0.0559 26.1971 11.1132 7.85825
62 1 3 -0.0559 10.3349 9.9785 7.05587
63 1 3 -0.055903 10.3349 11.1132 7.85825
64 1 3 -0.055903 26.1971 9.9785 7.05587
65 1 3 -0.0559 14.7918 8.54005 0.580159
66 1 3 -0.0559 21.7402 12.5517 14.334
67 1 3 -0.055903 22.7229 13.1191 13.5316
68 1 3 -0.055903 13.8091 7.97268 1.38254
69 1 3 -0.0559 21.7402 3.39366 7.85825
70 1 3 -0.0559 14.7918 17.6981 7.05587
71 1 3 -0.055903 13.8091 17.1307 7.85825
72 1 3 -0.055903 22.7229 3.96103 7.05587
73 1 3 -0.055901 22.7229 17.1307 7.85825
74 1 3 -0.055901 13.8091 3.96103 7.05587
75 1 3 -0.055903 14.7918 3.39366 7.85825
76 1 3 -0.055903 21.7402 17.6981 7.05587
77 1 3 -0.0559 21.7402 8.54005 0.580159
78 1 3 -0.0559 14.7918 12.5517 14.334
79 1 3 -0.055903 13.8091 13.1191 13.5316
80 1 3 -0.055903 22.7229 7.97268 1.38254
81 1 4 -1.26215 27.399 15.8188 11.1856
82 1 4 -1.26215 9.13299 5.27293 3.72853
83 1 4 -0.60118 27.399 18.9383 11.9641
84 1 4 -0.60118 9.13299 2.15347 2.95001
85 1 4 -0.601179 27.399 17.5926 13.8671
86 1 4 -0.601179 9.13299 3.49912 1.04697
87 1 4 -0.601179 26.2336 13.3722 9.45555
88 1 4 -0.601179 10.2984 7.71958 5.45857
89 1 4 -0.60118 28.5643 13.3722 9.45555
90 1 4 -0.60118 7.96762 7.71958 5.45857
91 1 4 -0.60118 25.8628 14.9319 13.8671
92 1 4 -0.60118 10.6692 6.15984 1.04697
93 1 4 -0.601179 24.6974 14.2591 11.9641
94 1 4 -0.601179 11.8345 6.83267 2.95001
95 1 4 -0.60118 28.9351 18.0514 9.45555
96 1 4 -0.60118 7.59682 3.04037 5.45857
97 1 4 -0.601179 30.1005 16.0329 9.45555
98 1 4 -0.601179 6.43145 5.05885 5.45857
99 1 4 -0.601179 24.6974 16.0329 9.45555
100 1 4 -0.601179 11.8345 5.05885 5.45857
101 1 4 -0.60118 25.8628 18.0514 9.45555
102 1 4 -0.60118 10.6692 3.04037 5.45857
103 1 4 -0.60118 28.9351 14.9319 13.8671
104 1 4 -0.60118 7.59682 6.15984 1.04697
105 1 4 -0.60118 30.1005 14.2591 11.9641
106 1 4 -0.60118 6.43145 6.83267 2.95001
ITEM: TIMESTEP
39000
ITEM: NUMBER OF ATOMS
109
ITEM: BOX BOUNDS xy xz yz pp pp pp
0.0000000000000000e+00 3.6531964750000000e+01 9.1329911900000003e+00
0.0000000000000000e+00 2.1091739680000000e+01 9.1329911900000003e+00
0.0000000000000000e+00 1.4914112149999999e+01 5.2729349200000000e+00
ITEM: ATOMS id mol type q x y z
1 1 1 1.10383 27.399 17.6496 10.5383
2 1 1 1.10383 9.13299 3.44217 4.3758
3 1 1 1.10383 27.399 15.8188 13.1274
4 1 1 1.10383 9.13299 5.27293 1.78671
5 1 1 1.10383 25.8135 14.9034 10.5383
6 1 1 1.10383 10.7185 6.18832 4.3758
7 1 1 1.10383 28.9845 14.9034 10.5383
8 1 1 1.10383 7.5475 6.18832 4.3758
9 1 2 0.115889 18.266 5.48596 12.6084
10 1 2 0.115889 18.266 15.6058 2.30572
11 1 2 0.115888 18.266 13.716 0.969417
12 1 2 0.115888 18.266 7.37578 13.9447
13 1 2 0.11589 25.3934 11.4908 8.12521
14 1 2 0.11589 11.1386 9.60096 6.7889
15 1 2 0.115888 11.1386 11.4908 8.12521
16 1 2 0.115888 25.3934 9.60096 6.7889
17 1 2 0.115889 15.5206 8.96083 0.969417
18 1 2 0.115889 21.0114 12.1309 13.9447
19 1 2 0.115888 22.648 13.0758 12.6084
20 1 2 0.115888 13.884 8.01592 2.30572
21 1 2 0.115889 21.0114 3.90092 8.12521
22 1 2 0.115889 15.5206 17.1908 6.7889
23 1 2 0.115887 13.884 16.2459 8.12521
24 1 2 0.115887 22.648 4.84583 6.7889
25 1 2 0.115889 22.648 16.2459 8.12521
26 1 2 0.115889 13.884 4.84583 6.7889
27 1 2 0.115887 15.5206 3.90092 8.12521
28 1 2 0.115887 21.0114 17.1908 6.7889
29 1 2 0.115889 21.0114 8.96083 0.969417
30 1 2 0.115889 15.5206 12.1309 13.9447
31 1 2 0.115887 13.884 13.0758 12.6084
32 1 2 0.115887 22.648 8.01592 2.30572
33 1 3 0.671939 27.399 18.7442 13.2542
34 1 3 0.671939 9.13299 2.34751 1.65994
35 1 3 0.671939 27.399 12.8934 9.117
36 1 3 0.671939 9.13299 8.19836 5.79712
37 1 3 0.67194 24.8655 14.3561 13.2542
38 1 3 0.67194 11.6665 6.73565 1.65994
39 1 3 0.67194 29.9325 17.2815 9.117
40 1 3 0.67194 6.5995 3.81022 5.79712
41 1 3 0.67194 24.8655 17.2815 9.117
42 1 3 0.67194 11.6665 3.81022 5.79712
43 1 3 0.67194 29.9325 14.3561 13.2542
44 1 3 0.67194 6.5995 6.73565 1.65994
45 1 3 -0.11508 27.399 19.957 14.1117
46 1 3 -0.11508 9.13299 1.13474 0.802379
47 1 3 -0.11508 27.399 11.6806 8.25944
48 1 3 -0.11508 9.13299 9.41113 6.65468
49 1 3 -0.11508 23.8152 13.7497 14.1117
50 1 3 -0.11508 12.7168 7.34203 0.802379
51 1 3 -0.11508 30.9828 17.8879 8.25944
52 1 3 -0.11508 5.54921 3.20384 6.65468
53 1 3 -0.11508 23.8152 17.8879 8.25944
54 1 3 -0.11508 12.7168 3.20384 6.65468
55 1 3 -0.11508 30.9828 13.7497 14.1117
56 1 3 -0.11508 5.54921 7.34203 0.802379
57 1 3 -0.0559 18.266 5.39949 13.5316
58 1 3 -0.0559 18.266 15.6923 1.38254
59 1 3 -0.055903 18.266 14.5575 0.580159
60 1 3 -0.055903 18.266 6.53422 14.334
61 1 3 -0.0559 26.1971 11.1132 7.85825
62 1 3 -0.0559 10.3349 9.9785 7.05587
63 1 3 -0.055903 10.3349 11.1132 7.85825
64 1 3 -0.055903 26.1971 9.9785 7.05587
65 1 3 -0.0559 14.7918 8.54005 0.580159
66 1 3 -0.0559 21.7402 12.5517 14.334
67 1 3 -0.055903 22.7229 13.1191 13.5316
68 1 3 -0.055903 13.8091 7.97268 1.38254
69 1 3 -0.0559 21.7402 3.39366 7.85825
70 1 3 -0.0559 14.7918 17.6981 7.05587
71 1 3 -0.055903 13.8091 17.1307 7.85825
72 1 3 -0.055903 22.7229 3.96103 7.05587
73 1 3 -0.055901 22.7229 17.1307 7.85825
74 1 3 -0.055901 13.8091 3.96103 7.05587
75 1 3 -0.055903 14.7918 3.39366 7.85825
76 1 3 -0.055903 21.7402 17.6981 7.05587
77 1 3 -0.0559 21.7402 8.54005 0.580159
78 1 3 -0.0559 14.7918 12.5517 14.334
79 1 3 -0.055903 13.8091 13.1191 13.5316
80 1 3 -0.055903 22.7229 7.97268 1.38254
81 1 4 -1.26215 27.399 15.8188 11.1856
82 1 4 -1.26215 9.13299 5.27293 3.72853
83 1 4 -0.60118 27.399 18.9383 11.9641
84 1 4 -0.60118 9.13299 2.15347 2.95001
85 1 4 -0.601179 27.399 17.5926 13.8671
86 1 4 -0.601179 9.13299 3.49912 1.04697
87 1 4 -0.601179 26.2336 13.3722 9.45555
88 1 4 -0.601179 10.2984 7.71958 5.45857
89 1 4 -0.60118 28.5643 13.3722 9.45555
90 1 4 -0.60118 7.96762 7.71958 5.45857
91 1 4 -0.60118 25.8628 14.9319 13.8671
92 1 4 -0.60118 10.6692 6.15984 1.04697
93 1 4 -0.601179 24.6974 14.2591 11.9641
94 1 4 -0.601179 11.8345 6.83267 2.95001
95 1 4 -0.60118 28.9351 18.0514 9.45555
96 1 4 -0.60118 7.59682 3.04037 5.45857
97 1 4 -0.601179 30.1005 16.0329 9.45555
98 1 4 -0.601179 6.43145 5.05885 5.45857
99 1 4 -0.601179 24.6974 16.0329 9.45555
100 1 4 -0.601179 11.8345 5.05885 5.45857
101 1 4 -0.60118 25.8628 18.0514 9.45555
102 1 4 -0.60118 10.6692 3.04037 5.45857
103 1 4 -0.60118 28.9351 14.9319 13.8671
104 1 4 -0.60118 7.59682 6.15984 1.04697
105 1 4 -0.60118 30.1005 14.2591 11.9641
106 1 4 -0.60118 6.43145 6.83267 2.95001
113 4 5 -0.35 15.4028 6.26318 11.7386
114 4 6 0.7 15.3376 6.28561 10.5806
115 4 5 -0.35 15.2724 6.30804 9.42269
ITEM: TIMESTEP
40000
ITEM: NUMBER OF ATOMS
109
ITEM: BOX BOUNDS xy xz yz pp pp pp
0.0000000000000000e+00 3.6531964750000000e+01 9.1329911900000003e+00
0.0000000000000000e+00 2.1091739680000000e+01 9.1329911900000003e+00
0.0000000000000000e+00 1.4914112149999999e+01 5.2729349200000000e+00
ITEM: ATOMS id mol type q x y z
1 1 1 1.10383 27.399 17.6496 10.5383
2 1 1 1.10383 9.13299 3.44217 4.3758
3 1 1 1.10383 27.399 15.8188 13.1274
4 1 1 1.10383 9.13299 5.27293 1.78671
5 1 1 1.10383 25.8135 14.9034 10.5383
6 1 1 1.10383 10.7185 6.18832 4.3758
7 1 1 1.10383 28.9845 14.9034 10.5383
8 1 1 1.10383 7.5475 6.18832 4.3758
9 1 2 0.115889 18.266 5.48596 12.6084
10 1 2 0.115889 18.266 15.6058 2.30572
11 1 2 0.115888 18.266 13.716 0.969417
12 1 2 0.115888 18.266 7.37578 13.9447
13 1 2 0.11589 25.3934 11.4908 8.12521
14 1 2 0.11589 11.1386 9.60096 6.7889
15 1 2 0.115888 11.1386 11.4908 8.12521
16 1 2 0.115888 25.3934 9.60096 6.7889
17 1 2 0.115889 15.5206 8.96083 0.969417
18 1 2 0.115889 21.0114 12.1309 13.9447
19 1 2 0.115888 22.648 13.0758 12.6084
20 1 2 0.115888 13.884 8.01592 2.30572
21 1 2 0.115889 21.0114 3.90092 8.12521
22 1 2 0.115889 15.5206 17.1908 6.7889
23 1 2 0.115887 13.884 16.2459 8.12521
24 1 2 0.115887 22.648 4.84583 6.7889
25 1 2 0.115889 22.648 16.2459 8.12521
26 1 2 0.115889 13.884 4.84583 6.7889
27 1 2 0.115887 15.5206 3.90092 8.12521
28 1 2 0.115887 21.0114 17.1908 6.7889
29 1 2 0.115889 21.0114 8.96083 0.969417
30 1 2 0.115889 15.5206 12.1309 13.9447
31 1 2 0.115887 13.884 13.0758 12.6084
32 1 2 0.115887 22.648 8.01592 2.30572
33 1 3 0.671939 27.399 18.7442 13.2542
34 1 3 0.671939 9.13299 2.34751 1.65994
35 1 3 0.671939 27.399 12.8934 9.117
36 1 3 0.671939 9.13299 8.19836 5.79712
37 1 3 0.67194 24.8655 14.3561 13.2542
38 1 3 0.67194 11.6665 6.73565 1.65994
39 1 3 0.67194 29.9325 17.2815 9.117
40 1 3 0.67194 6.5995 3.81022 5.79712
41 1 3 0.67194 24.8655 17.2815 9.117
42 1 3 0.67194 11.6665 3.81022 5.79712
43 1 3 0.67194 29.9325 14.3561 13.2542
44 1 3 0.67194 6.5995 6.73565 1.65994
45 1 3 -0.11508 27.399 19.957 14.1117
46 1 3 -0.11508 9.13299 1.13474 0.802379
47 1 3 -0.11508 27.399 11.6806 8.25944
48 1 3 -0.11508 9.13299 9.41113 6.65468
49 1 3 -0.11508 23.8152 13.7497 14.1117
50 1 3 -0.11508 12.7168 7.34203 0.802379
51 1 3 -0.11508 30.9828 17.8879 8.25944
52 1 3 -0.11508 5.54921 3.20384 6.65468
53 1 3 -0.11508 23.8152 17.8879 8.25944
54 1 3 -0.11508 12.7168 3.20384 6.65468
55 1 3 -0.11508 30.9828 13.7497 14.1117
56 1 3 -0.11508 5.54921 7.34203 0.802379
57 1 3 -0.0559 18.266 5.39949 13.5316
58 1 3 -0.0559 18.266 15.6923 1.38254
59 1 3 -0.055903 18.266 14.5575 0.580159
60 1 3 -0.055903 18.266 6.53422 14.334
61 1 3 -0.0559 26.1971 11.1132 7.85825
62 1 3 -0.0559 10.3349 9.9785 7.05587
63 1 3 -0.055903 10.3349 11.1132 7.85825
64 1 3 -0.055903 26.1971 9.9785 7.05587
65 1 3 -0.0559 14.7918 8.54005 0.580159
66 1 3 -0.0559 21.7402 12.5517 14.334
67 1 3 -0.055903 22.7229 13.1191 13.5316
68 1 3 -0.055903 13.8091 7.97268 1.38254
69 1 3 -0.0559 21.7402 3.39366 7.85825
70 1 3 -0.0559 14.7918 17.6981 7.05587
71 1 3 -0.055903 13.8091 17.1307 7.85825
72 1 3 -0.055903 22.7229 3.96103 7.05587
73 1 3 -0.055901 22.7229 17.1307 7.85825
74 1 3 -0.055901 13.8091 3.96103 7.05587
75 1 3 -0.055903 14.7918 3.39366 7.85825
76 1 3 -0.055903 21.7402 17.6981 7.05587
77 1 3 -0.0559 21.7402 8.54005 0.580159
78 1 3 -0.0559 14.7918 12.5517 14.334
79 1 3 -0.055903 13.8091 13.1191 13.5316
80 1 3 -0.055903 22.7229 7.97268 1.38254
81 1 4 -1.26215 27.399 15.8188 11.1856
82 1 4 -1.26215 9.13299 5.27293 3.72853
83 1 4 -0.60118 27.399 18.9383 11.9641
84 1 4 -0.60118 9.13299 2.15347 2.95001
85 1 4 -0.601179 27.399 17.5926 13.8671
86 1 4 -0.601179 9.13299 3.49912 1.04697
87 1 4 -0.601179 26.2336 13.3722 9.45555
88 1 4 -0.601179 10.2984 7.71958 5.45857
89 1 4 -0.60118 28.5643 13.3722 9.45555
90 1 4 -0.60118 7.96762 7.71958 5.45857
91 1 4 -0.60118 25.8628 14.9319 13.8671
92 1 4 -0.60118 10.6692 6.15984 1.04697
93 1 4 -0.601179 24.6974 14.2591 11.9641
94 1 4 -0.601179 11.8345 6.83267 2.95001
95 1 4 -0.60118 28.9351 18.0514 9.45555
96 1 4 -0.60118 7.59682 3.04037 5.45857
97 1 4 -0.601179 30.1005 16.0329 9.45555
98 1 4 -0.601179 6.43145 5.05885 5.45857
99 1 4 -0.601179 24.6974 16.0329 9.45555
100 1 4 -0.601179 11.8345 5.05885 5.45857
101 1 4 -0.60118 25.8628 18.0514 9.45555
102 1 4 -0.60118 10.6692 3.04037 5.45857
103 1 4 -0.60118 28.9351 14.9319 13.8671
104 1 4 -0.60118 7.59682 6.15984 1.04697
105 1 4 -0.60118 30.1005 14.2591 11.9641
106 1 4 -0.60118 6.43145 6.83267 2.95001
107 2 5 -0.35 12.0165 10.197 13.6446
108 2 6 0.7 29.3198 10.7785 13.9288
109 2 5 -0.35 28.3571 11.36 14.213
ITEM: TIMESTEP
41000
ITEM: NUMBER OF ATOMS
106
ITEM: BOX BOUNDS xy xz yz pp pp pp
0.0000000000000000e+00 3.6531964750000000e+01 9.1329911900000003e+00
0.0000000000000000e+00 2.1091739680000000e+01 9.1329911900000003e+00
0.0000000000000000e+00 1.4914112149999999e+01 5.2729349200000000e+00
ITEM: ATOMS id mol type q x y z
1 1 1 1.10383 27.399 17.6496 10.5383
2 1 1 1.10383 9.13299 3.44217 4.3758
3 1 1 1.10383 27.399 15.8188 13.1274
4 1 1 1.10383 9.13299 5.27293 1.78671
5 1 1 1.10383 25.8135 14.9034 10.5383
6 1 1 1.10383 10.7185 6.18832 4.3758
7 1 1 1.10383 28.9845 14.9034 10.5383
8 1 1 1.10383 7.5475 6.18832 4.3758
9 1 2 0.115889 18.266 5.48596 12.6084
10 1 2 0.115889 18.266 15.6058 2.30572
11 1 2 0.115888 18.266 13.716 0.969417
12 1 2 0.115888 18.266 7.37578 13.9447
13 1 2 0.11589 25.3934 11.4908 8.12521
14 1 2 0.11589 11.1386 9.60096 6.7889
15 1 2 0.115888 11.1386 11.4908 8.12521
16 1 2 0.115888 25.3934 9.60096 6.7889
17 1 2 0.115889 15.5206 8.96083 0.969417
18 1 2 0.115889 21.0114 12.1309 13.9447
19 1 2 0.115888 22.648 13.0758 12.6084
20 1 2 0.115888 13.884 8.01592 2.30572
21 1 2 0.115889 21.0114 3.90092 8.12521
22 1 2 0.115889 15.5206 17.1908 6.7889
23 1 2 0.115887 13.884 16.2459 8.12521
24 1 2 0.115887 22.648 4.84583 6.7889
25 1 2 0.115889 22.648 16.2459 8.12521
26 1 2 0.115889 13.884 4.84583 6.7889
27 1 2 0.115887 15.5206 3.90092 8.12521
28 1 2 0.115887 21.0114 17.1908 6.7889
29 1 2 0.115889 21.0114 8.96083 0.969417
30 1 2 0.115889 15.5206 12.1309 13.9447
31 1 2 0.115887 13.884 13.0758 12.6084
32 1 2 0.115887 22.648 8.01592 2.30572
33 1 3 0.671939 27.399 18.7442 13.2542
34 1 3 0.671939 9.13299 2.34751 1.65994
35 1 3 0.671939 27.399 12.8934 9.117
36 1 3 0.671939 9.13299 8.19836 5.79712
37 1 3 0.67194 24.8655 14.3561 13.2542
38 1 3 0.67194 11.6665 6.73565 1.65994
39 1 3 0.67194 29.9325 17.2815 9.117
40 1 3 0.67194 6.5995 3.81022 5.79712
41 1 3 0.67194 24.8655 17.2815 9.117
42 1 3 0.67194 11.6665 3.81022 5.79712
43 1 3 0.67194 29.9325 14.3561 13.2542
44 1 3 0.67194 6.5995 6.73565 1.65994
45 1 3 -0.11508 27.399 19.957 14.1117
46 1 3 -0.11508 9.13299 1.13474 0.802379
47 1 3 -0.11508 27.399 11.6806 8.25944
48 1 3 -0.11508 9.13299 9.41113 6.65468
49 1 3 -0.11508 23.8152 13.7497 14.1117
50 1 3 -0.11508 12.7168 7.34203 0.802379
51 1 3 -0.11508 30.9828 17.8879 8.25944
52 1 3 -0.11508 5.54921 3.20384 6.65468
53 1 3 -0.11508 23.8152 17.8879 8.25944
54 1 3 -0.11508 12.7168 3.20384 6.65468
55 1 3 -0.11508 30.9828 13.7497 14.1117
56 1 3 -0.11508 5.54921 7.34203 0.802379
57 1 3 -0.0559 18.266 5.39949 13.5316
58 1 3 -0.0559 18.266 15.6923 1.38254
59 1 3 -0.055903 18.266 14.5575 0.580159
60 1 3 -0.055903 18.266 6.53422 14.334
61 1 3 -0.0559 26.1971 11.1132 7.85825
62 1 3 -0.0559 10.3349 9.9785 7.05587
63 1 3 -0.055903 10.3349 11.1132 7.85825
64 1 3 -0.055903 26.1971 9.9785 7.05587
65 1 3 -0.0559 14.7918 8.54005 0.580159
66 1 3 -0.0559 21.7402 12.5517 14.334
67 1 3 -0.055903 22.7229 13.1191 13.5316
68 1 3 -0.055903 13.8091 7.97268 1.38254
69 1 3 -0.0559 21.7402 3.39366 7.85825
70 1 3 -0.0559 14.7918 17.6981 7.05587
71 1 3 -0.055903 13.8091 17.1307 7.85825
72 1 3 -0.055903 22.7229 3.96103 7.05587
73 1 3 -0.055901 22.7229 17.1307 7.85825
74 1 3 -0.055901 13.8091 3.96103 7.05587
75 1 3 -0.055903 14.7918 3.39366 7.85825
76 1 3 -0.055903 21.7402 17.6981 7.05587
77 1 3 -0.0559 21.7402 8.54005 0.580159
78 1 3 -0.0559 14.7918 12.5517 14.334
79 1 3 -0.055903 13.8091 13.1191 13.5316
80 1 3 -0.055903 22.7229 7.97268 1.38254
81 1 4 -1.26215 27.399 15.8188 11.1856
82 1 4 -1.26215 9.13299 5.27293 3.72853
83 1 4 -0.60118 27.399 18.9383 11.9641
84 1 4 -0.60118 9.13299 2.15347 2.95001
85 1 4 -0.601179 27.399 17.5926 13.8671
86 1 4 -0.601179 9.13299 3.49912 1.04697
87 1 4 -0.601179 26.2336 13.3722 9.45555
88 1 4 -0.601179 10.2984 7.71958 5.45857
89 1 4 -0.60118 28.5643 13.3722 9.45555
90 1 4 -0.60118 7.96762 7.71958 5.45857
91 1 4 -0.60118 25.8628 14.9319 13.8671
92 1 4 -0.60118 10.6692 6.15984 1.04697
93 1 4 -0.601179 24.6974 14.2591 11.9641
94 1 4 -0.601179 11.8345 6.83267 2.95001
95 1 4 -0.60118 28.9351 18.0514 9.45555
96 1 4 -0.60118 7.59682 3.04037 5.45857
97 1 4 -0.601179 30.1005 16.0329 9.45555
98 1 4 -0.601179 6.43145 5.05885 5.45857
99 1 4 -0.601179 24.6974 16.0329 9.45555
100 1 4 -0.601179 11.8345 5.05885 5.45857
101 1 4 -0.60118 25.8628 18.0514 9.45555
102 1 4 -0.60118 10.6692 3.04037 5.45857
103 1 4 -0.60118 28.9351 14.9319 13.8671
104 1 4 -0.60118 7.59682 6.15984 1.04697
105 1 4 -0.60118 30.1005 14.2591 11.9641
106 1 4 -0.60118 6.43145 6.83267 2.95001
ITEM: TIMESTEP
42000
ITEM: NUMBER OF ATOMS
106
ITEM: BOX BOUNDS xy xz yz pp pp pp
0.0000000000000000e+00 3.6531964750000000e+01 9.1329911900000003e+00
0.0000000000000000e+00 2.1091739680000000e+01 9.1329911900000003e+00
0.0000000000000000e+00 1.4914112149999999e+01 5.2729349200000000e+00
ITEM: ATOMS id mol type q x y z
1 1 1 1.10383 27.399 17.6496 10.5383
2 1 1 1.10383 9.13299 3.44217 4.3758
3 1 1 1.10383 27.399 15.8188 13.1274
4 1 1 1.10383 9.13299 5.27293 1.78671
5 1 1 1.10383 25.8135 14.9034 10.5383
6 1 1 1.10383 10.7185 6.18832 4.3758
7 1 1 1.10383 28.9845 14.9034 10.5383
8 1 1 1.10383 7.5475 6.18832 4.3758
9 1 2 0.115889 18.266 5.48596 12.6084
10 1 2 0.115889 18.266 15.6058 2.30572
11 1 2 0.115888 18.266 13.716 0.969417
12 1 2 0.115888 18.266 7.37578 13.9447
13 1 2 0.11589 25.3934 11.4908 8.12521
14 1 2 0.11589 11.1386 9.60096 6.7889
15 1 2 0.115888 11.1386 11.4908 8.12521
16 1 2 0.115888 25.3934 9.60096 6.7889
17 1 2 0.115889 15.5206 8.96083 0.969417
18 1 2 0.115889 21.0114 12.1309 13.9447
19 1 2 0.115888 22.648 13.0758 12.6084
20 1 2 0.115888 13.884 8.01592 2.30572
21 1 2 0.115889 21.0114 3.90092 8.12521
22 1 2 0.115889 15.5206 17.1908 6.7889
23 1 2 0.115887 13.884 16.2459 8.12521
24 1 2 0.115887 22.648 4.84583 6.7889
25 1 2 0.115889 22.648 16.2459 8.12521
26 1 2 0.115889 13.884 4.84583 6.7889
27 1 2 0.115887 15.5206 3.90092 8.12521
28 1 2 0.115887 21.0114 17.1908 6.7889
29 1 2 0.115889 21.0114 8.96083 0.969417
30 1 2 0.115889 15.5206 12.1309 13.9447
31 1 2 0.115887 13.884 13.0758 12.6084
32 1 2 0.115887 22.648 8.01592 2.30572
33 1 3 0.671939 27.399 18.7442 13.2542
34 1 3 0.671939 9.13299 2.34751 1.65994
35 1 3 0.671939 27.399 12.8934 9.117
36 1 3 0.671939 9.13299 8.19836 5.79712
37 1 3 0.67194 24.8655 14.3561 13.2542
38 1 3 0.67194 11.6665 6.73565 1.65994
39 1 3 0.67194 29.9325 17.2815 9.117
40 1 3 0.67194 6.5995 3.81022 5.79712
41 1 3 0.67194 24.8655 17.2815 9.117
42 1 3 0.67194 11.6665 3.81022 5.79712
43 1 3 0.67194 29.9325 14.3561 13.2542
44 1 3 0.67194 6.5995 6.73565 1.65994
45 1 3 -0.11508 27.399 19.957 14.1117
46 1 3 -0.11508 9.13299 1.13474 0.802379
47 1 3 -0.11508 27.399 11.6806 8.25944
48 1 3 -0.11508 9.13299 9.41113 6.65468
49 1 3 -0.11508 23.8152 13.7497 14.1117
50 1 3 -0.11508 12.7168 7.34203 0.802379
51 1 3 -0.11508 30.9828 17.8879 8.25944
52 1 3 -0.11508 5.54921 3.20384 6.65468
53 1 3 -0.11508 23.8152 17.8879 8.25944
54 1 3 -0.11508 12.7168 3.20384 6.65468
55 1 3 -0.11508 30.9828 13.7497 14.1117
56 1 3 -0.11508 5.54921 7.34203 0.802379
57 1 3 -0.0559 18.266 5.39949 13.5316
58 1 3 -0.0559 18.266 15.6923 1.38254
59 1 3 -0.055903 18.266 14.5575 0.580159
60 1 3 -0.055903 18.266 6.53422 14.334
61 1 3 -0.0559 26.1971 11.1132 7.85825
62 1 3 -0.0559 10.3349 9.9785 7.05587
63 1 3 -0.055903 10.3349 11.1132 7.85825
64 1 3 -0.055903 26.1971 9.9785 7.05587
65 1 3 -0.0559 14.7918 8.54005 0.580159
66 1 3 -0.0559 21.7402 12.5517 14.334
67 1 3 -0.055903 22.7229 13.1191 13.5316
68 1 3 -0.055903 13.8091 7.97268 1.38254
69 1 3 -0.0559 21.7402 3.39366 7.85825
70 1 3 -0.0559 14.7918 17.6981 7.05587
71 1 3 -0.055903 13.8091 17.1307 7.85825
72 1 3 -0.055903 22.7229 3.96103 7.05587
73 1 3 -0.055901 22.7229 17.1307 7.85825
74 1 3 -0.055901 13.8091 3.96103 7.05587
75 1 3 -0.055903 14.7918 3.39366 7.85825
76 1 3 -0.055903 21.7402 17.6981 7.05587
77 1 3 -0.0559 21.7402 8.54005 0.580159
78 1 3 -0.0559 14.7918 12.5517 14.334
79 1 3 -0.055903 13.8091 13.1191 13.5316
80 1 3 -0.055903 22.7229 7.97268 1.38254
81 1 4 -1.26215 27.399 15.8188 11.1856
82 1 4 -1.26215 9.13299 5.27293 3.72853
83 1 4 -0.60118 27.399 18.9383 11.9641
84 1 4 -0.60118 9.13299 2.15347 2.95001
85 1 4 -0.601179 27.399 17.5926 13.8671
86 1 4 -0.601179 9.13299 3.49912 1.04697
87 1 4 -0.601179 26.2336 13.3722 9.45555
88 1 4 -0.601179 10.2984 7.71958 5.45857
89 1 4 -0.60118 28.5643 13.3722 9.45555
90 1 4 -0.60118 7.96762 7.71958 5.45857
91 1 4 -0.60118 25.8628 14.9319 13.8671
92 1 4 -0.60118 10.6692 6.15984 1.04697
93 1 4 -0.601179 24.6974 14.2591 11.9641
94 1 4 -0.601179 11.8345 6.83267 2.95001
95 1 4 -0.60118 28.9351 18.0514 9.45555
96 1 4 -0.60118 7.59682 3.04037 5.45857
97 1 4 -0.601179 30.1005 16.0329 9.45555
98 1 4 -0.601179 6.43145 5.05885 5.45857
99 1 4 -0.601179 24.6974 16.0329 9.45555
100 1 4 -0.601179 11.8345 5.05885 5.45857
101 1 4 -0.60118 25.8628 18.0514 9.45555
102 1 4 -0.60118 10.6692 3.04037 5.45857
103 1 4 -0.60118 28.9351 14.9319 13.8671
104 1 4 -0.60118 7.59682 6.15984 1.04697
105 1 4 -0.60118 30.1005 14.2591 11.9641
106 1 4 -0.60118 6.43145 6.83267 2.95001
ITEM: TIMESTEP
43000
ITEM: NUMBER OF ATOMS
109
ITEM: BOX BOUNDS xy xz yz pp pp pp
0.0000000000000000e+00 3.6531964750000000e+01 9.1329911900000003e+00
0.0000000000000000e+00 2.1091739680000000e+01 9.1329911900000003e+00
0.0000000000000000e+00 1.4914112149999999e+01 5.2729349200000000e+00
ITEM: ATOMS id mol type q x y z
1 1 1 1.10383 27.399 17.6496 10.5383
2 1 1 1.10383 9.13299 3.44217 4.3758
3 1 1 1.10383 27.399 15.8188 13.1274
4 1 1 1.10383 9.13299 5.27293 1.78671
5 1 1 1.10383 25.8135 14.9034 10.5383
6 1 1 1.10383 10.7185 6.18832 4.3758
7 1 1 1.10383 28.9845 14.9034 10.5383
8 1 1 1.10383 7.5475 6.18832 4.3758
9 1 2 0.115889 18.266 5.48596 12.6084
10 1 2 0.115889 18.266 15.6058 2.30572
11 1 2 0.115888 18.266 13.716 0.969417
12 1 2 0.115888 18.266 7.37578 13.9447
13 1 2 0.11589 25.3934 11.4908 8.12521
14 1 2 0.11589 11.1386 9.60096 6.7889
15 1 2 0.115888 11.1386 11.4908 8.12521
16 1 2 0.115888 25.3934 9.60096 6.7889
17 1 2 0.115889 15.5206 8.96083 0.969417
18 1 2 0.115889 21.0114 12.1309 13.9447
19 1 2 0.115888 22.648 13.0758 12.6084
20 1 2 0.115888 13.884 8.01592 2.30572
21 1 2 0.115889 21.0114 3.90092 8.12521
22 1 2 0.115889 15.5206 17.1908 6.7889
23 1 2 0.115887 13.884 16.2459 8.12521
24 1 2 0.115887 22.648 4.84583 6.7889
25 1 2 0.115889 22.648 16.2459 8.12521
26 1 2 0.115889 13.884 4.84583 6.7889
27 1 2 0.115887 15.5206 3.90092 8.12521
28 1 2 0.115887 21.0114 17.1908 6.7889
29 1 2 0.115889 21.0114 8.96083 0.969417
30 1 2 0.115889 15.5206 12.1309 13.9447
31 1 2 0.115887 13.884 13.0758 12.6084
32 1 2 0.115887 22.648 8.01592 2.30572
33 1 3 0.671939 27.399 18.7442 13.2542
34 1 3 0.671939 9.13299 2.34751 1.65994
35 1 3 0.671939 27.399 12.8934 9.117
36 1 3 0.671939 9.13299 8.19836 5.79712
37 1 3 0.67194 24.8655 14.3561 13.2542
38 1 3 0.67194 11.6665 6.73565 1.65994
39 1 3 0.67194 29.9325 17.2815 9.117
40 1 3 0.67194 6.5995 3.81022 5.79712
41 1 3 0.67194 24.8655 17.2815 9.117
42 1 3 0.67194 11.6665 3.81022 5.79712
43 1 3 0.67194 29.9325 14.3561 13.2542
44 1 3 0.67194 6.5995 6.73565 1.65994
45 1 3 -0.11508 27.399 19.957 14.1117
46 1 3 -0.11508 9.13299 1.13474 0.802379
47 1 3 -0.11508 27.399 11.6806 8.25944
48 1 3 -0.11508 9.13299 9.41113 6.65468
49 1 3 -0.11508 23.8152 13.7497 14.1117
50 1 3 -0.11508 12.7168 7.34203 0.802379
51 1 3 -0.11508 30.9828 17.8879 8.25944
52 1 3 -0.11508 5.54921 3.20384 6.65468
53 1 3 -0.11508 23.8152 17.8879 8.25944
54 1 3 -0.11508 12.7168 3.20384 6.65468
55 1 3 -0.11508 30.9828 13.7497 14.1117
56 1 3 -0.11508 5.54921 7.34203 0.802379
57 1 3 -0.0559 18.266 5.39949 13.5316
58 1 3 -0.0559 18.266 15.6923 1.38254
59 1 3 -0.055903 18.266 14.5575 0.580159
60 1 3 -0.055903 18.266 6.53422 14.334
61 1 3 -0.0559 26.1971 11.1132 7.85825
62 1 3 -0.0559 10.3349 9.9785 7.05587
63 1 3 -0.055903 10.3349 11.1132 7.85825
64 1 3 -0.055903 26.1971 9.9785 7.05587
65 1 3 -0.0559 14.7918 8.54005 0.580159
66 1 3 -0.0559 21.7402 12.5517 14.334
67 1 3 -0.055903 22.7229 13.1191 13.5316
68 1 3 -0.055903 13.8091 7.97268 1.38254
69 1 3 -0.0559 21.7402 3.39366 7.85825
70 1 3 -0.0559 14.7918 17.6981 7.05587
71 1 3 -0.055903 13.8091 17.1307 7.85825
72 1 3 -0.055903 22.7229 3.96103 7.05587
73 1 3 -0.055901 22.7229 17.1307 7.85825
74 1 3 -0.055901 13.8091 3.96103 7.05587
75 1 3 -0.055903 14.7918 3.39366 7.85825
76 1 3 -0.055903 21.7402 17.6981 7.05587
77 1 3 -0.0559 21.7402 8.54005 0.580159
78 1 3 -0.0559 14.7918 12.5517 14.334
79 1 3 -0.055903 13.8091 13.1191 13.5316
80 1 3 -0.055903 22.7229 7.97268 1.38254
81 1 4 -1.26215 27.399 15.8188 11.1856
82 1 4 -1.26215 9.13299 5.27293 3.72853
83 1 4 -0.60118 27.399 18.9383 11.9641
84 1 4 -0.60118 9.13299 2.15347 2.95001
85 1 4 -0.601179 27.399 17.5926 13.8671
86 1 4 -0.601179 9.13299 3.49912 1.04697
87 1 4 -0.601179 26.2336 13.3722 9.45555
88 1 4 -0.601179 10.2984 7.71958 5.45857
89 1 4 -0.60118 28.5643 13.3722 9.45555
90 1 4 -0.60118 7.96762 7.71958 5.45857
91 1 4 -0.60118 25.8628 14.9319 13.8671
92 1 4 -0.60118 10.6692 6.15984 1.04697
93 1 4 -0.601179 24.6974 14.2591 11.9641
94 1 4 -0.601179 11.8345 6.83267 2.95001
95 1 4 -0.60118 28.9351 18.0514 9.45555
96 1 4 -0.60118 7.59682 3.04037 5.45857
97 1 4 -0.601179 30.1005 16.0329 9.45555
98 1 4 -0.601179 6.43145 5.05885 5.45857
99 1 4 -0.601179 24.6974 16.0329 9.45555
100 1 4 -0.601179 11.8345 5.05885 5.45857
101 1 4 -0.60118 25.8628 18.0514 9.45555
102 1 4 -0.60118 10.6692 3.04037 5.45857
103 1 4 -0.60118 28.9351 14.9319 13.8671
104 1 4 -0.60118 7.59682 6.15984 1.04697
105 1 4 -0.60118 30.1005 14.2591 11.9641
106 1 4 -0.60118 6.43145 6.83267 2.95001
107 2 5 -0.35 27.5034 14.7505 3.54569
108 2 6 0.7 9.42801 14.5613 2.4172
109 2 5 -0.35 9.61856 14.3721 1.2887
ITEM: TIMESTEP
44000
ITEM: NUMBER OF ATOMS
112
ITEM: BOX BOUNDS xy xz yz pp pp pp
0.0000000000000000e+00 3.6531964750000000e+01 9.1329911900000003e+00
0.0000000000000000e+00 2.1091739680000000e+01 9.1329911900000003e+00
0.0000000000000000e+00 1.4914112149999999e+01 5.2729349200000000e+00
ITEM: ATOMS id mol type q x y z
1 1 1 1.10383 27.399 17.6496 10.5383
2 1 1 1.10383 9.13299 3.44217 4.3758
3 1 1 1.10383 27.399 15.8188 13.1274
4 1 1 1.10383 9.13299 5.27293 1.78671
5 1 1 1.10383 25.8135 14.9034 10.5383
6 1 1 1.10383 10.7185 6.18832 4.3758
7 1 1 1.10383 28.9845 14.9034 10.5383
8 1 1 1.10383 7.5475 6.18832 4.3758
9 1 2 0.115889 18.266 5.48596 12.6084
10 1 2 0.115889 18.266 15.6058 2.30572
11 1 2 0.115888 18.266 13.716 0.969417
12 1 2 0.115888 18.266 7.37578 13.9447
13 1 2 0.11589 25.3934 11.4908 8.12521
14 1 2 0.11589 11.1386 9.60096 6.7889
15 1 2 0.115888 11.1386 11.4908 8.12521
16 1 2 0.115888 25.3934 9.60096 6.7889
17 1 2 0.115889 15.5206 8.96083 0.969417
18 1 2 0.115889 21.0114 12.1309 13.9447
19 1 2 0.115888 22.648 13.0758 12.6084
20 1 2 0.115888 13.884 8.01592 2.30572
21 1 2 0.115889 21.0114 3.90092 8.12521
22 1 2 0.115889 15.5206 17.1908 6.7889
23 1 2 0.115887 13.884 16.2459 8.12521
24 1 2 0.115887 22.648 4.84583 6.7889
25 1 2 0.115889 22.648 16.2459 8.12521
26 1 2 0.115889 13.884 4.84583 6.7889
27 1 2 0.115887 15.5206 3.90092 8.12521
28 1 2 0.115887 21.0114 17.1908 6.7889
29 1 2 0.115889 21.0114 8.96083 0.969417
30 1 2 0.115889 15.5206 12.1309 13.9447
31 1 2 0.115887 13.884 13.0758 12.6084
32 1 2 0.115887 22.648 8.01592 2.30572
33 1 3 0.671939 27.399 18.7442 13.2542
34 1 3 0.671939 9.13299 2.34751 1.65994
35 1 3 0.671939 27.399 12.8934 9.117
36 1 3 0.671939 9.13299 8.19836 5.79712
37 1 3 0.67194 24.8655 14.3561 13.2542
38 1 3 0.67194 11.6665 6.73565 1.65994
39 1 3 0.67194 29.9325 17.2815 9.117
40 1 3 0.67194 6.5995 3.81022 5.79712
41 1 3 0.67194 24.8655 17.2815 9.117
42 1 3 0.67194 11.6665 3.81022 5.79712
43 1 3 0.67194 29.9325 14.3561 13.2542
44 1 3 0.67194 6.5995 6.73565 1.65994
45 1 3 -0.11508 27.399 19.957 14.1117
46 1 3 -0.11508 9.13299 1.13474 0.802379
47 1 3 -0.11508 27.399 11.6806 8.25944
48 1 3 -0.11508 9.13299 9.41113 6.65468
49 1 3 -0.11508 23.8152 13.7497 14.1117
50 1 3 -0.11508 12.7168 7.34203 0.802379
51 1 3 -0.11508 30.9828 17.8879 8.25944
52 1 3 -0.11508 5.54921 3.20384 6.65468
53 1 3 -0.11508 23.8152 17.8879 8.25944
54 1 3 -0.11508 12.7168 3.20384 6.65468
55 1 3 -0.11508 30.9828 13.7497 14.1117
56 1 3 -0.11508 5.54921 7.34203 0.802379
57 1 3 -0.0559 18.266 5.39949 13.5316
58 1 3 -0.0559 18.266 15.6923 1.38254
59 1 3 -0.055903 18.266 14.5575 0.580159
60 1 3 -0.055903 18.266 6.53422 14.334
61 1 3 -0.0559 26.1971 11.1132 7.85825
62 1 3 -0.0559 10.3349 9.9785 7.05587
63 1 3 -0.055903 10.3349 11.1132 7.85825
64 1 3 -0.055903 26.1971 9.9785 7.05587
65 1 3 -0.0559 14.7918 8.54005 0.580159
66 1 3 -0.0559 21.7402 12.5517 14.334
67 1 3 -0.055903 22.7229 13.1191 13.5316
68 1 3 -0.055903 13.8091 7.97268 1.38254
69 1 3 -0.0559 21.7402 3.39366 7.85825
70 1 3 -0.0559 14.7918 17.6981 7.05587
71 1 3 -0.055903 13.8091 17.1307 7.85825
72 1 3 -0.055903 22.7229 3.96103 7.05587
73 1 3 -0.055901 22.7229 17.1307 7.85825
74 1 3 -0.055901 13.8091 3.96103 7.05587
75 1 3 -0.055903 14.7918 3.39366 7.85825
76 1 3 -0.055903 21.7402 17.6981 7.05587
77 1 3 -0.0559 21.7402 8.54005 0.580159
78 1 3 -0.0559 14.7918 12.5517 14.334
79 1 3 -0.055903 13.8091 13.1191 13.5316
80 1 3 -0.055903 22.7229 7.97268 1.38254
81 1 4 -1.26215 27.399 15.8188 11.1856
82 1 4 -1.26215 9.13299 5.27293 3.72853
83 1 4 -0.60118 27.399 18.9383 11.9641
84 1 4 -0.60118 9.13299 2.15347 2.95001
85 1 4 -0.601179 27.399 17.5926 13.8671
86 1 4 -0.601179 9.13299 3.49912 1.04697
87 1 4 -0.601179 26.2336 13.3722 9.45555
88 1 4 -0.601179 10.2984 7.71958 5.45857
89 1 4 -0.60118 28.5643 13.3722 9.45555
90 1 4 -0.60118 7.96762 7.71958 5.45857
91 1 4 -0.60118 25.8628 14.9319 13.8671
92 1 4 -0.60118 10.6692 6.15984 1.04697
93 1 4 -0.601179 24.6974 14.2591 11.9641
94 1 4 -0.601179 11.8345 6.83267 2.95001
95 1 4 -0.60118 28.9351 18.0514 9.45555
96 1 4 -0.60118 7.59682 3.04037 5.45857
97 1 4 -0.601179 30.1005 16.0329 9.45555
98 1 4 -0.601179 6.43145 5.05885 5.45857
99 1 4 -0.601179 24.6974 16.0329 9.45555
100 1 4 -0.601179 11.8345 5.05885 5.45857
101 1 4 -0.60118 25.8628 18.0514 9.45555
102 1 4 -0.60118 10.6692 3.04037 5.45857
103 1 4 -0.60118 28.9351 14.9319 13.8671
104 1 4 -0.60118 7.59682 6.15984 1.04697
105 1 4 -0.60118 30.1005 14.2591 11.9641
106 1 4 -0.60118 6.43145 6.83267 2.95001
107 2 5 -0.35 28.3743 16.1846 6.77483
108 2 6 0.7 27.9769 15.6681 5.81522
109 2 5 -0.35 27.5794 15.1516 4.8556
110 3 5 -0.35 13.6611 10.6771 7.45957
111 3 6 0.7 13.2377 10.3416 8.48609
112 3 5 -0.35 12.8143 10.0061 9.51262
ITEM: TIMESTEP
45000
ITEM: NUMBER OF ATOMS
106
ITEM: BOX BOUNDS xy xz yz pp pp pp
0.0000000000000000e+00 3.6531964750000000e+01 9.1329911900000003e+00
0.0000000000000000e+00 2.1091739680000000e+01 9.1329911900000003e+00
0.0000000000000000e+00 1.4914112149999999e+01 5.2729349200000000e+00
ITEM: ATOMS id mol type q x y z
1 1 1 1.10383 27.399 17.6496 10.5383
2 1 1 1.10383 9.13299 3.44217 4.3758
3 1 1 1.10383 27.399 15.8188 13.1274
4 1 1 1.10383 9.13299 5.27293 1.78671
5 1 1 1.10383 25.8135 14.9034 10.5383
6 1 1 1.10383 10.7185 6.18832 4.3758
7 1 1 1.10383 28.9845 14.9034 10.5383
8 1 1 1.10383 7.5475 6.18832 4.3758
9 1 2 0.115889 18.266 5.48596 12.6084
10 1 2 0.115889 18.266 15.6058 2.30572
11 1 2 0.115888 18.266 13.716 0.969417
12 1 2 0.115888 18.266 7.37578 13.9447
13 1 2 0.11589 25.3934 11.4908 8.12521
14 1 2 0.11589 11.1386 9.60096 6.7889
15 1 2 0.115888 11.1386 11.4908 8.12521
16 1 2 0.115888 25.3934 9.60096 6.7889
17 1 2 0.115889 15.5206 8.96083 0.969417
18 1 2 0.115889 21.0114 12.1309 13.9447
19 1 2 0.115888 22.648 13.0758 12.6084
20 1 2 0.115888 13.884 8.01592 2.30572
21 1 2 0.115889 21.0114 3.90092 8.12521
22 1 2 0.115889 15.5206 17.1908 6.7889
23 1 2 0.115887 13.884 16.2459 8.12521
24 1 2 0.115887 22.648 4.84583 6.7889
25 1 2 0.115889 22.648 16.2459 8.12521
26 1 2 0.115889 13.884 4.84583 6.7889
27 1 2 0.115887 15.5206 3.90092 8.12521
28 1 2 0.115887 21.0114 17.1908 6.7889
29 1 2 0.115889 21.0114 8.96083 0.969417
30 1 2 0.115889 15.5206 12.1309 13.9447
31 1 2 0.115887 13.884 13.0758 12.6084
32 1 2 0.115887 22.648 8.01592 2.30572
33 1 3 0.671939 27.399 18.7442 13.2542
34 1 3 0.671939 9.13299 2.34751 1.65994
35 1 3 0.671939 27.399 12.8934 9.117
36 1 3 0.671939 9.13299 8.19836 5.79712
37 1 3 0.67194 24.8655 14.3561 13.2542
38 1 3 0.67194 11.6665 6.73565 1.65994
39 1 3 0.67194 29.9325 17.2815 9.117
40 1 3 0.67194 6.5995 3.81022 5.79712
41 1 3 0.67194 24.8655 17.2815 9.117
42 1 3 0.67194 11.6665 3.81022 5.79712
43 1 3 0.67194 29.9325 14.3561 13.2542
44 1 3 0.67194 6.5995 6.73565 1.65994
45 1 3 -0.11508 27.399 19.957 14.1117
46 1 3 -0.11508 9.13299 1.13474 0.802379
47 1 3 -0.11508 27.399 11.6806 8.25944
48 1 3 -0.11508 9.13299 9.41113 6.65468
49 1 3 -0.11508 23.8152 13.7497 14.1117
50 1 3 -0.11508 12.7168 7.34203 0.802379
51 1 3 -0.11508 30.9828 17.8879 8.25944
52 1 3 -0.11508 5.54921 3.20384 6.65468
53 1 3 -0.11508 23.8152 17.8879 8.25944
54 1 3 -0.11508 12.7168 3.20384 6.65468
55 1 3 -0.11508 30.9828 13.7497 14.1117
56 1 3 -0.11508 5.54921 7.34203 0.802379
57 1 3 -0.0559 18.266 5.39949 13.5316
58 1 3 -0.0559 18.266 15.6923 1.38254
59 1 3 -0.055903 18.266 14.5575 0.580159
60 1 3 -0.055903 18.266 6.53422 14.334
61 1 3 -0.0559 26.1971 11.1132 7.85825
62 1 3 -0.0559 10.3349 9.9785 7.05587
63 1 3 -0.055903 10.3349 11.1132 7.85825
64 1 3 -0.055903 26.1971 9.9785 7.05587
65 1 3 -0.0559 14.7918 8.54005 0.580159
66 1 3 -0.0559 21.7402 12.5517 14.334
67 1 3 -0.055903 22.7229 13.1191 13.5316
68 1 3 -0.055903 13.8091 7.97268 1.38254
69 1 3 -0.0559 21.7402 3.39366 7.85825
70 1 3 -0.0559 14.7918 17.6981 7.05587
71 1 3 -0.055903 13.8091 17.1307 7.85825
72 1 3 -0.055903 22.7229 3.96103 7.05587
73 1 3 -0.055901 22.7229 17.1307 7.85825
74 1 3 -0.055901 13.8091 3.96103 7.05587
75 1 3 -0.055903 14.7918 3.39366 7.85825
76 1 3 -0.055903 21.7402 17.6981 7.05587
77 1 3 -0.0559 21.7402 8.54005 0.580159
78 1 3 -0.0559 14.7918 12.5517 14.334
79 1 3 -0.055903 13.8091 13.1191 13.5316
80 1 3 -0.055903 22.7229 7.97268 1.38254
81 1 4 -1.26215 27.399 15.8188 11.1856
82 1 4 -1.26215 9.13299 5.27293 3.72853
83 1 4 -0.60118 27.399 18.9383 11.9641
84 1 4 -0.60118 9.13299 2.15347 2.95001
85 1 4 -0.601179 27.399 17.5926 13.8671
86 1 4 -0.601179 9.13299 3.49912 1.04697
87 1 4 -0.601179 26.2336 13.3722 9.45555
88 1 4 -0.601179 10.2984 7.71958 5.45857
89 1 4 -0.60118 28.5643 13.3722 9.45555
90 1 4 -0.60118 7.96762 7.71958 5.45857
91 1 4 -0.60118 25.8628 14.9319 13.8671
92 1 4 -0.60118 10.6692 6.15984 1.04697
93 1 4 -0.601179 24.6974 14.2591 11.9641
94 1 4 -0.601179 11.8345 6.83267 2.95001
95 1 4 -0.60118 28.9351 18.0514 9.45555
96 1 4 -0.60118 7.59682 3.04037 5.45857
97 1 4 -0.601179 30.1005 16.0329 9.45555
98 1 4 -0.601179 6.43145 5.05885 5.45857
99 1 4 -0.601179 24.6974 16.0329 9.45555
100 1 4 -0.601179 11.8345 5.05885 5.45857
101 1 4 -0.60118 25.8628 18.0514 9.45555
102 1 4 -0.60118 10.6692 3.04037 5.45857
103 1 4 -0.60118 28.9351 14.9319 13.8671
104 1 4 -0.60118 7.59682 6.15984 1.04697
105 1 4 -0.60118 30.1005 14.2591 11.9641
106 1 4 -0.60118 6.43145 6.83267 2.95001
ITEM: TIMESTEP
46000
ITEM: NUMBER OF ATOMS
106
ITEM: BOX BOUNDS xy xz yz pp pp pp
0.0000000000000000e+00 3.6531964750000000e+01 9.1329911900000003e+00
0.0000000000000000e+00 2.1091739680000000e+01 9.1329911900000003e+00
0.0000000000000000e+00 1.4914112149999999e+01 5.2729349200000000e+00
ITEM: ATOMS id mol type q x y z
1 1 1 1.10383 27.399 17.6496 10.5383
2 1 1 1.10383 9.13299 3.44217 4.3758
3 1 1 1.10383 27.399 15.8188 13.1274
4 1 1 1.10383 9.13299 5.27293 1.78671
5 1 1 1.10383 25.8135 14.9034 10.5383
6 1 1 1.10383 10.7185 6.18832 4.3758
7 1 1 1.10383 28.9845 14.9034 10.5383
8 1 1 1.10383 7.5475 6.18832 4.3758
9 1 2 0.115889 18.266 5.48596 12.6084
10 1 2 0.115889 18.266 15.6058 2.30572
11 1 2 0.115888 18.266 13.716 0.969417
12 1 2 0.115888 18.266 7.37578 13.9447
13 1 2 0.11589 25.3934 11.4908 8.12521
14 1 2 0.11589 11.1386 9.60096 6.7889
15 1 2 0.115888 11.1386 11.4908 8.12521
16 1 2 0.115888 25.3934 9.60096 6.7889
17 1 2 0.115889 15.5206 8.96083 0.969417
18 1 2 0.115889 21.0114 12.1309 13.9447
19 1 2 0.115888 22.648 13.0758 12.6084
20 1 2 0.115888 13.884 8.01592 2.30572
21 1 2 0.115889 21.0114 3.90092 8.12521
22 1 2 0.115889 15.5206 17.1908 6.7889
23 1 2 0.115887 13.884 16.2459 8.12521
24 1 2 0.115887 22.648 4.84583 6.7889
25 1 2 0.115889 22.648 16.2459 8.12521
26 1 2 0.115889 13.884 4.84583 6.7889
27 1 2 0.115887 15.5206 3.90092 8.12521
28 1 2 0.115887 21.0114 17.1908 6.7889
29 1 2 0.115889 21.0114 8.96083 0.969417
30 1 2 0.115889 15.5206 12.1309 13.9447
31 1 2 0.115887 13.884 13.0758 12.6084
32 1 2 0.115887 22.648 8.01592 2.30572
33 1 3 0.671939 27.399 18.7442 13.2542
34 1 3 0.671939 9.13299 2.34751 1.65994
35 1 3 0.671939 27.399 12.8934 9.117
36 1 3 0.671939 9.13299 8.19836 5.79712
37 1 3 0.67194 24.8655 14.3561 13.2542
38 1 3 0.67194 11.6665 6.73565 1.65994
39 1 3 0.67194 29.9325 17.2815 9.117
40 1 3 0.67194 6.5995 3.81022 5.79712
41 1 3 0.67194 24.8655 17.2815 9.117
42 1 3 0.67194 11.6665 3.81022 5.79712
43 1 3 0.67194 29.9325 14.3561 13.2542
44 1 3 0.67194 6.5995 6.73565 1.65994
45 1 3 -0.11508 27.399 19.957 14.1117
46 1 3 -0.11508 9.13299 1.13474 0.802379
47 1 3 -0.11508 27.399 11.6806 8.25944
48 1 3 -0.11508 9.13299 9.41113 6.65468
49 1 3 -0.11508 23.8152 13.7497 14.1117
50 1 3 -0.11508 12.7168 7.34203 0.802379
51 1 3 -0.11508 30.9828 17.8879 8.25944
52 1 3 -0.11508 5.54921 3.20384 6.65468
53 1 3 -0.11508 23.8152 17.8879 8.25944
54 1 3 -0.11508 12.7168 3.20384 6.65468
55 1 3 -0.11508 30.9828 13.7497 14.1117
56 1 3 -0.11508 5.54921 7.34203 0.802379
57 1 3 -0.0559 18.266 5.39949 13.5316
58 1 3 -0.0559 18.266 15.6923 1.38254
59 1 3 -0.055903 18.266 14.5575 0.580159
60 1 3 -0.055903 18.266 6.53422 14.334
61 1 3 -0.0559 26.1971 11.1132 7.85825
62 1 3 -0.0559 10.3349 9.9785 7.05587
63 1 3 -0.055903 10.3349 11.1132 7.85825
64 1 3 -0.055903 26.1971 9.9785 7.05587
65 1 3 -0.0559 14.7918 8.54005 0.580159
66 1 3 -0.0559 21.7402 12.5517 14.334
67 1 3 -0.055903 22.7229 13.1191 13.5316
68 1 3 -0.055903 13.8091 7.97268 1.38254
69 1 3 -0.0559 21.7402 3.39366 7.85825
70 1 3 -0.0559 14.7918 17.6981 7.05587
71 1 3 -0.055903 13.8091 17.1307 7.85825
72 1 3 -0.055903 22.7229 3.96103 7.05587
73 1 3 -0.055901 22.7229 17.1307 7.85825
74 1 3 -0.055901 13.8091 3.96103 7.05587
75 1 3 -0.055903 14.7918 3.39366 7.85825
76 1 3 -0.055903 21.7402 17.6981 7.05587
77 1 3 -0.0559 21.7402 8.54005 0.580159
78 1 3 -0.0559 14.7918 12.5517 14.334
79 1 3 -0.055903 13.8091 13.1191 13.5316
80 1 3 -0.055903 22.7229 7.97268 1.38254
81 1 4 -1.26215 27.399 15.8188 11.1856
82 1 4 -1.26215 9.13299 5.27293 3.72853
83 1 4 -0.60118 27.399 18.9383 11.9641
84 1 4 -0.60118 9.13299 2.15347 2.95001
85 1 4 -0.601179 27.399 17.5926 13.8671
86 1 4 -0.601179 9.13299 3.49912 1.04697
87 1 4 -0.601179 26.2336 13.3722 9.45555
88 1 4 -0.601179 10.2984 7.71958 5.45857
89 1 4 -0.60118 28.5643 13.3722 9.45555
90 1 4 -0.60118 7.96762 7.71958 5.45857
91 1 4 -0.60118 25.8628 14.9319 13.8671
92 1 4 -0.60118 10.6692 6.15984 1.04697
93 1 4 -0.601179 24.6974 14.2591 11.9641
94 1 4 -0.601179 11.8345 6.83267 2.95001
95 1 4 -0.60118 28.9351 18.0514 9.45555
96 1 4 -0.60118 7.59682 3.04037 5.45857
97 1 4 -0.601179 30.1005 16.0329 9.45555
98 1 4 -0.601179 6.43145 5.05885 5.45857
99 1 4 -0.601179 24.6974 16.0329 9.45555
100 1 4 -0.601179 11.8345 5.05885 5.45857
101 1 4 -0.60118 25.8628 18.0514 9.45555
102 1 4 -0.60118 10.6692 3.04037 5.45857
103 1 4 -0.60118 28.9351 14.9319 13.8671
104 1 4 -0.60118 7.59682 6.15984 1.04697
105 1 4 -0.60118 30.1005 14.2591 11.9641
106 1 4 -0.60118 6.43145 6.83267 2.95001
ITEM: TIMESTEP
47000
ITEM: NUMBER OF ATOMS
112
ITEM: BOX BOUNDS xy xz yz pp pp pp
0.0000000000000000e+00 3.6531964750000000e+01 9.1329911900000003e+00
0.0000000000000000e+00 2.1091739680000000e+01 9.1329911900000003e+00
0.0000000000000000e+00 1.4914112149999999e+01 5.2729349200000000e+00
ITEM: ATOMS id mol type q x y z
1 1 1 1.10383 27.399 17.6496 10.5383
2 1 1 1.10383 9.13299 3.44217 4.3758
3 1 1 1.10383 27.399 15.8188 13.1274
4 1 1 1.10383 9.13299 5.27293 1.78671
5 1 1 1.10383 25.8135 14.9034 10.5383
6 1 1 1.10383 10.7185 6.18832 4.3758
7 1 1 1.10383 28.9845 14.9034 10.5383
8 1 1 1.10383 7.5475 6.18832 4.3758
9 1 2 0.115889 18.266 5.48596 12.6084
10 1 2 0.115889 18.266 15.6058 2.30572
11 1 2 0.115888 18.266 13.716 0.969417
12 1 2 0.115888 18.266 7.37578 13.9447
13 1 2 0.11589 25.3934 11.4908 8.12521
14 1 2 0.11589 11.1386 9.60096 6.7889
15 1 2 0.115888 11.1386 11.4908 8.12521
16 1 2 0.115888 25.3934 9.60096 6.7889
17 1 2 0.115889 15.5206 8.96083 0.969417
18 1 2 0.115889 21.0114 12.1309 13.9447
19 1 2 0.115888 22.648 13.0758 12.6084
20 1 2 0.115888 13.884 8.01592 2.30572
21 1 2 0.115889 21.0114 3.90092 8.12521
22 1 2 0.115889 15.5206 17.1908 6.7889
23 1 2 0.115887 13.884 16.2459 8.12521
24 1 2 0.115887 22.648 4.84583 6.7889
25 1 2 0.115889 22.648 16.2459 8.12521
26 1 2 0.115889 13.884 4.84583 6.7889
27 1 2 0.115887 15.5206 3.90092 8.12521
28 1 2 0.115887 21.0114 17.1908 6.7889
29 1 2 0.115889 21.0114 8.96083 0.969417
30 1 2 0.115889 15.5206 12.1309 13.9447
31 1 2 0.115887 13.884 13.0758 12.6084
32 1 2 0.115887 22.648 8.01592 2.30572
33 1 3 0.671939 27.399 18.7442 13.2542
34 1 3 0.671939 9.13299 2.34751 1.65994
35 1 3 0.671939 27.399 12.8934 9.117
36 1 3 0.671939 9.13299 8.19836 5.79712
37 1 3 0.67194 24.8655 14.3561 13.2542
38 1 3 0.67194 11.6665 6.73565 1.65994
39 1 3 0.67194 29.9325 17.2815 9.117
40 1 3 0.67194 6.5995 3.81022 5.79712
41 1 3 0.67194 24.8655 17.2815 9.117
42 1 3 0.67194 11.6665 3.81022 5.79712
43 1 3 0.67194 29.9325 14.3561 13.2542
44 1 3 0.67194 6.5995 6.73565 1.65994
45 1 3 -0.11508 27.399 19.957 14.1117
46 1 3 -0.11508 9.13299 1.13474 0.802379
47 1 3 -0.11508 27.399 11.6806 8.25944
48 1 3 -0.11508 9.13299 9.41113 6.65468
49 1 3 -0.11508 23.8152 13.7497 14.1117
50 1 3 -0.11508 12.7168 7.34203 0.802379
51 1 3 -0.11508 30.9828 17.8879 8.25944
52 1 3 -0.11508 5.54921 3.20384 6.65468
53 1 3 -0.11508 23.8152 17.8879 8.25944
54 1 3 -0.11508 12.7168 3.20384 6.65468
55 1 3 -0.11508 30.9828 13.7497 14.1117
56 1 3 -0.11508 5.54921 7.34203 0.802379
57 1 3 -0.0559 18.266 5.39949 13.5316
58 1 3 -0.0559 18.266 15.6923 1.38254
59 1 3 -0.055903 18.266 14.5575 0.580159
60 1 3 -0.055903 18.266 6.53422 14.334
61 1 3 -0.0559 26.1971 11.1132 7.85825
62 1 3 -0.0559 10.3349 9.9785 7.05587
63 1 3 -0.055903 10.3349 11.1132 7.85825
64 1 3 -0.055903 26.1971 9.9785 7.05587
65 1 3 -0.0559 14.7918 8.54005 0.580159
66 1 3 -0.0559 21.7402 12.5517 14.334
67 1 3 -0.055903 22.7229 13.1191 13.5316
68 1 3 -0.055903 13.8091 7.97268 1.38254
69 1 3 -0.0559 21.7402 3.39366 7.85825
70 1 3 -0.0559 14.7918 17.6981 7.05587
71 1 3 -0.055903 13.8091 17.1307 7.85825
72 1 3 -0.055903 22.7229 3.96103 7.05587
73 1 3 -0.055901 22.7229 17.1307 7.85825
74 1 3 -0.055901 13.8091 3.96103 7.05587
75 1 3 -0.055903 14.7918 3.39366 7.85825
76 1 3 -0.055903 21.7402 17.6981 7.05587
77 1 3 -0.0559 21.7402 8.54005 0.580159
78 1 3 -0.0559 14.7918 12.5517 14.334
79 1 3 -0.055903 13.8091 13.1191 13.5316
80 1 3 -0.055903 22.7229 7.97268 1.38254
81 1 4 -1.26215 27.399 15.8188 11.1856
82 1 4 -1.26215 9.13299 5.27293 3.72853
83 1 4 -0.60118 27.399 18.9383 11.9641
84 1 4 -0.60118 9.13299 2.15347 2.95001
85 1 4 -0.601179 27.399 17.5926 13.8671
86 1 4 -0.601179 9.13299 3.49912 1.04697
87 1 4 -0.601179 26.2336 13.3722 9.45555
88 1 4 -0.601179 10.2984 7.71958 5.45857
89 1 4 -0.60118 28.5643 13.3722 9.45555
90 1 4 -0.60118 7.96762 7.71958 5.45857
91 1 4 -0.60118 25.8628 14.9319 13.8671
92 1 4 -0.60118 10.6692 6.15984 1.04697
93 1 4 -0.601179 24.6974 14.2591 11.9641
94 1 4 -0.601179 11.8345 6.83267 2.95001
95 1 4 -0.60118 28.9351 18.0514 9.45555
96 1 4 -0.60118 7.59682 3.04037 5.45857
97 1 4 -0.601179 30.1005 16.0329 9.45555
98 1 4 -0.601179 6.43145 5.05885 5.45857
99 1 4 -0.601179 24.6974 16.0329 9.45555
100 1 4 -0.601179 11.8345 5.05885 5.45857
101 1 4 -0.60118 25.8628 18.0514 9.45555
102 1 4 -0.60118 10.6692 3.04037 5.45857
103 1 4 -0.60118 28.9351 14.9319 13.8671
104 1 4 -0.60118 7.59682 6.15984 1.04697
105 1 4 -0.60118 30.1005 14.2591 11.9641
106 1 4 -0.60118 6.43145 6.83267 2.95001
107 2 5 -0.35 9.20624 5.15387 7.21958
108 2 6 0.7 9.27586 4.641 8.25771
109 2 5 -0.35 9.34548 4.12813 9.29584
110 3 5 -0.35 28.0559 10.9639 11.8758
111 3 6 0.7 29.0384 10.4725 12.2484
112 3 5 -0.35 11.7549 9.98099 12.621
ITEM: TIMESTEP
48000
ITEM: NUMBER OF ATOMS
109
ITEM: BOX BOUNDS xy xz yz pp pp pp
0.0000000000000000e+00 3.6531964750000000e+01 9.1329911900000003e+00
0.0000000000000000e+00 2.1091739680000000e+01 9.1329911900000003e+00
0.0000000000000000e+00 1.4914112149999999e+01 5.2729349200000000e+00
ITEM: ATOMS id mol type q x y z
1 1 1 1.10383 27.399 17.6496 10.5383
2 1 1 1.10383 9.13299 3.44217 4.3758
3 1 1 1.10383 27.399 15.8188 13.1274
4 1 1 1.10383 9.13299 5.27293 1.78671
5 1 1 1.10383 25.8135 14.9034 10.5383
6 1 1 1.10383 10.7185 6.18832 4.3758
7 1 1 1.10383 28.9845 14.9034 10.5383
8 1 1 1.10383 7.5475 6.18832 4.3758
9 1 2 0.115889 18.266 5.48596 12.6084
10 1 2 0.115889 18.266 15.6058 2.30572
11 1 2 0.115888 18.266 13.716 0.969417
12 1 2 0.115888 18.266 7.37578 13.9447
13 1 2 0.11589 25.3934 11.4908 8.12521
14 1 2 0.11589 11.1386 9.60096 6.7889
15 1 2 0.115888 11.1386 11.4908 8.12521
16 1 2 0.115888 25.3934 9.60096 6.7889
17 1 2 0.115889 15.5206 8.96083 0.969417
18 1 2 0.115889 21.0114 12.1309 13.9447
19 1 2 0.115888 22.648 13.0758 12.6084
20 1 2 0.115888 13.884 8.01592 2.30572
21 1 2 0.115889 21.0114 3.90092 8.12521
22 1 2 0.115889 15.5206 17.1908 6.7889
23 1 2 0.115887 13.884 16.2459 8.12521
24 1 2 0.115887 22.648 4.84583 6.7889
25 1 2 0.115889 22.648 16.2459 8.12521
26 1 2 0.115889 13.884 4.84583 6.7889
27 1 2 0.115887 15.5206 3.90092 8.12521
28 1 2 0.115887 21.0114 17.1908 6.7889
29 1 2 0.115889 21.0114 8.96083 0.969417
30 1 2 0.115889 15.5206 12.1309 13.9447
31 1 2 0.115887 13.884 13.0758 12.6084
32 1 2 0.115887 22.648 8.01592 2.30572
33 1 3 0.671939 27.399 18.7442 13.2542
34 1 3 0.671939 9.13299 2.34751 1.65994
35 1 3 0.671939 27.399 12.8934 9.117
36 1 3 0.671939 9.13299 8.19836 5.79712
37 1 3 0.67194 24.8655 14.3561 13.2542
38 1 3 0.67194 11.6665 6.73565 1.65994
39 1 3 0.67194 29.9325 17.2815 9.117
40 1 3 0.67194 6.5995 3.81022 5.79712
41 1 3 0.67194 24.8655 17.2815 9.117
42 1 3 0.67194 11.6665 3.81022 5.79712
43 1 3 0.67194 29.9325 14.3561 13.2542
44 1 3 0.67194 6.5995 6.73565 1.65994
45 1 3 -0.11508 27.399 19.957 14.1117
46 1 3 -0.11508 9.13299 1.13474 0.802379
47 1 3 -0.11508 27.399 11.6806 8.25944
48 1 3 -0.11508 9.13299 9.41113 6.65468
49 1 3 -0.11508 23.8152 13.7497 14.1117
50 1 3 -0.11508 12.7168 7.34203 0.802379
51 1 3 -0.11508 30.9828 17.8879 8.25944
52 1 3 -0.11508 5.54921 3.20384 6.65468
53 1 3 -0.11508 23.8152 17.8879 8.25944
54 1 3 -0.11508 12.7168 3.20384 6.65468
55 1 3 -0.11508 30.9828 13.7497 14.1117
56 1 3 -0.11508 5.54921 7.34203 0.802379
57 1 3 -0.0559 18.266 5.39949 13.5316
58 1 3 -0.0559 18.266 15.6923 1.38254
59 1 3 -0.055903 18.266 14.5575 0.580159
60 1 3 -0.055903 18.266 6.53422 14.334
61 1 3 -0.0559 26.1971 11.1132 7.85825
62 1 3 -0.0559 10.3349 9.9785 7.05587
63 1 3 -0.055903 10.3349 11.1132 7.85825
64 1 3 -0.055903 26.1971 9.9785 7.05587
65 1 3 -0.0559 14.7918 8.54005 0.580159
66 1 3 -0.0559 21.7402 12.5517 14.334
67 1 3 -0.055903 22.7229 13.1191 13.5316
68 1 3 -0.055903 13.8091 7.97268 1.38254
69 1 3 -0.0559 21.7402 3.39366 7.85825
70 1 3 -0.0559 14.7918 17.6981 7.05587
71 1 3 -0.055903 13.8091 17.1307 7.85825
72 1 3 -0.055903 22.7229 3.96103 7.05587
73 1 3 -0.055901 22.7229 17.1307 7.85825
74 1 3 -0.055901 13.8091 3.96103 7.05587
75 1 3 -0.055903 14.7918 3.39366 7.85825
76 1 3 -0.055903 21.7402 17.6981 7.05587
77 1 3 -0.0559 21.7402 8.54005 0.580159
78 1 3 -0.0559 14.7918 12.5517 14.334
79 1 3 -0.055903 13.8091 13.1191 13.5316
80 1 3 -0.055903 22.7229 7.97268 1.38254
81 1 4 -1.26215 27.399 15.8188 11.1856
82 1 4 -1.26215 9.13299 5.27293 3.72853
83 1 4 -0.60118 27.399 18.9383 11.9641
84 1 4 -0.60118 9.13299 2.15347 2.95001
85 1 4 -0.601179 27.399 17.5926 13.8671
86 1 4 -0.601179 9.13299 3.49912 1.04697
87 1 4 -0.601179 26.2336 13.3722 9.45555
88 1 4 -0.601179 10.2984 7.71958 5.45857
89 1 4 -0.60118 28.5643 13.3722 9.45555
90 1 4 -0.60118 7.96762 7.71958 5.45857
91 1 4 -0.60118 25.8628 14.9319 13.8671
92 1 4 -0.60118 10.6692 6.15984 1.04697
93 1 4 -0.601179 24.6974 14.2591 11.9641
94 1 4 -0.601179 11.8345 6.83267 2.95001
95 1 4 -0.60118 28.9351 18.0514 9.45555
96 1 4 -0.60118 7.59682 3.04037 5.45857
97 1 4 -0.601179 30.1005 16.0329 9.45555
98 1 4 -0.601179 6.43145 5.05885 5.45857
99 1 4 -0.601179 24.6974 16.0329 9.45555
100 1 4 -0.601179 11.8345 5.05885 5.45857
101 1 4 -0.60118 25.8628 18.0514 9.45555
102 1 4 -0.60118 10.6692 3.04037 5.45857
103 1 4 -0.60118 28.9351 14.9319 13.8671
104 1 4 -0.60118 7.59682 6.15984 1.04697
105 1 4 -0.60118 30.1005 14.2591 11.9641
106 1 4 -0.60118 6.43145 6.83267 2.95001
107 2 5 -0.35 22.2347 7.54478 9.29767
108 2 6 0.7 21.5518 7.27528 8.39953
109 2 5 -0.35 20.869 7.00577 7.50138
ITEM: TIMESTEP
49000
ITEM: NUMBER OF ATOMS
106
ITEM: BOX BOUNDS xy xz yz pp pp pp
0.0000000000000000e+00 3.6531964750000000e+01 9.1329911900000003e+00
0.0000000000000000e+00 2.1091739680000000e+01 9.1329911900000003e+00
0.0000000000000000e+00 1.4914112149999999e+01 5.2729349200000000e+00
ITEM: ATOMS id mol type q x y z
1 1 1 1.10383 27.399 17.6496 10.5383
2 1 1 1.10383 9.13299 3.44217 4.3758
3 1 1 1.10383 27.399 15.8188 13.1274
4 1 1 1.10383 9.13299 5.27293 1.78671
5 1 1 1.10383 25.8135 14.9034 10.5383
6 1 1 1.10383 10.7185 6.18832 4.3758
7 1 1 1.10383 28.9845 14.9034 10.5383
8 1 1 1.10383 7.5475 6.18832 4.3758
9 1 2 0.115889 18.266 5.48596 12.6084
10 1 2 0.115889 18.266 15.6058 2.30572
11 1 2 0.115888 18.266 13.716 0.969417
12 1 2 0.115888 18.266 7.37578 13.9447
13 1 2 0.11589 25.3934 11.4908 8.12521
14 1 2 0.11589 11.1386 9.60096 6.7889
15 1 2 0.115888 11.1386 11.4908 8.12521
16 1 2 0.115888 25.3934 9.60096 6.7889
17 1 2 0.115889 15.5206 8.96083 0.969417
18 1 2 0.115889 21.0114 12.1309 13.9447
19 1 2 0.115888 22.648 13.0758 12.6084
20 1 2 0.115888 13.884 8.01592 2.30572
21 1 2 0.115889 21.0114 3.90092 8.12521
22 1 2 0.115889 15.5206 17.1908 6.7889
23 1 2 0.115887 13.884 16.2459 8.12521
24 1 2 0.115887 22.648 4.84583 6.7889
25 1 2 0.115889 22.648 16.2459 8.12521
26 1 2 0.115889 13.884 4.84583 6.7889
27 1 2 0.115887 15.5206 3.90092 8.12521
28 1 2 0.115887 21.0114 17.1908 6.7889
29 1 2 0.115889 21.0114 8.96083 0.969417
30 1 2 0.115889 15.5206 12.1309 13.9447
31 1 2 0.115887 13.884 13.0758 12.6084
32 1 2 0.115887 22.648 8.01592 2.30572
33 1 3 0.671939 27.399 18.7442 13.2542
34 1 3 0.671939 9.13299 2.34751 1.65994
35 1 3 0.671939 27.399 12.8934 9.117
36 1 3 0.671939 9.13299 8.19836 5.79712
37 1 3 0.67194 24.8655 14.3561 13.2542
38 1 3 0.67194 11.6665 6.73565 1.65994
39 1 3 0.67194 29.9325 17.2815 9.117
40 1 3 0.67194 6.5995 3.81022 5.79712
41 1 3 0.67194 24.8655 17.2815 9.117
42 1 3 0.67194 11.6665 3.81022 5.79712
43 1 3 0.67194 29.9325 14.3561 13.2542
44 1 3 0.67194 6.5995 6.73565 1.65994
45 1 3 -0.11508 27.399 19.957 14.1117
46 1 3 -0.11508 9.13299 1.13474 0.802379
47 1 3 -0.11508 27.399 11.6806 8.25944
48 1 3 -0.11508 9.13299 9.41113 6.65468
49 1 3 -0.11508 23.8152 13.7497 14.1117
50 1 3 -0.11508 12.7168 7.34203 0.802379
51 1 3 -0.11508 30.9828 17.8879 8.25944
52 1 3 -0.11508 5.54921 3.20384 6.65468
53 1 3 -0.11508 23.8152 17.8879 8.25944
54 1 3 -0.11508 12.7168 3.20384 6.65468
55 1 3 -0.11508 30.9828 13.7497 14.1117
56 1 3 -0.11508 5.54921 7.34203 0.802379
57 1 3 -0.0559 18.266 5.39949 13.5316
58 1 3 -0.0559 18.266 15.6923 1.38254
59 1 3 -0.055903 18.266 14.5575 0.580159
60 1 3 -0.055903 18.266 6.53422 14.334
61 1 3 -0.0559 26.1971 11.1132 7.85825
62 1 3 -0.0559 10.3349 9.9785 7.05587
63 1 3 -0.055903 10.3349 11.1132 7.85825
64 1 3 -0.055903 26.1971 9.9785 7.05587
65 1 3 -0.0559 14.7918 8.54005 0.580159
66 1 3 -0.0559 21.7402 12.5517 14.334
67 1 3 -0.055903 22.7229 13.1191 13.5316
68 1 3 -0.055903 13.8091 7.97268 1.38254
69 1 3 -0.0559 21.7402 3.39366 7.85825
70 1 3 -0.0559 14.7918 17.6981 7.05587
71 1 3 -0.055903 13.8091 17.1307 7.85825
72 1 3 -0.055903 22.7229 3.96103 7.05587
73 1 3 -0.055901 22.7229 17.1307 7.85825
74 1 3 -0.055901 13.8091 3.96103 7.05587
75 1 3 -0.055903 14.7918 3.39366 7.85825
76 1 3 -0.055903 21.7402 17.6981 7.05587
77 1 3 -0.0559 21.7402 8.54005 0.580159
78 1 3 -0.0559 14.7918 12.5517 14.334
79 1 3 -0.055903 13.8091 13.1191 13.5316
80 1 3 -0.055903 22.7229 7.97268 1.38254
81 1 4 -1.26215 27.399 15.8188 11.1856
82 1 4 -1.26215 9.13299 5.27293 3.72853
83 1 4 -0.60118 27.399 18.9383 11.9641
84 1 4 -0.60118 9.13299 2.15347 2.95001
85 1 4 -0.601179 27.399 17.5926 13.8671
86 1 4 -0.601179 9.13299 3.49912 1.04697
87 1 4 -0.601179 26.2336 13.3722 9.45555
88 1 4 -0.601179 10.2984 7.71958 5.45857
89 1 4 -0.60118 28.5643 13.3722 9.45555
90 1 4 -0.60118 7.96762 7.71958 5.45857
91 1 4 -0.60118 25.8628 14.9319 13.8671
92 1 4 -0.60118 10.6692 6.15984 1.04697
93 1 4 -0.601179 24.6974 14.2591 11.9641
94 1 4 -0.601179 11.8345 6.83267 2.95001
95 1 4 -0.60118 28.9351 18.0514 9.45555
96 1 4 -0.60118 7.59682 3.04037 5.45857
97 1 4 -0.601179 30.1005 16.0329 9.45555
98 1 4 -0.601179 6.43145 5.05885 5.45857
99 1 4 -0.601179 24.6974 16.0329 9.45555
100 1 4 -0.601179 11.8345 5.05885 5.45857
101 1 4 -0.60118 25.8628 18.0514 9.45555
102 1 4 -0.60118 10.6692 3.04037 5.45857
103 1 4 -0.60118 28.9351 14.9319 13.8671
104 1 4 -0.60118 7.59682 6.15984 1.04697
105 1 4 -0.60118 30.1005 14.2591 11.9641
106 1 4 -0.60118 6.43145 6.83267 2.95001
ITEM: TIMESTEP
50000
ITEM: NUMBER OF ATOMS
106
ITEM: BOX BOUNDS xy xz yz pp pp pp
0.0000000000000000e+00 3.6531964750000000e+01 9.1329911900000003e+00
0.0000000000000000e+00 2.1091739680000000e+01 9.1329911900000003e+00
0.0000000000000000e+00 1.4914112149999999e+01 5.2729349200000000e+00
ITEM: ATOMS id mol type q x y z
1 1 1 1.10383 27.399 17.6496 10.5383
2 1 1 1.10383 9.13299 3.44217 4.3758
3 1 1 1.10383 27.399 15.8188 13.1274
4 1 1 1.10383 9.13299 5.27293 1.78671
5 1 1 1.10383 25.8135 14.9034 10.5383
6 1 1 1.10383 10.7185 6.18832 4.3758
7 1 1 1.10383 28.9845 14.9034 10.5383
8 1 1 1.10383 7.5475 6.18832 4.3758
9 1 2 0.115889 18.266 5.48596 12.6084
10 1 2 0.115889 18.266 15.6058 2.30572
11 1 2 0.115888 18.266 13.716 0.969417
12 1 2 0.115888 18.266 7.37578 13.9447
13 1 2 0.11589 25.3934 11.4908 8.12521
14 1 2 0.11589 11.1386 9.60096 6.7889
15 1 2 0.115888 11.1386 11.4908 8.12521
16 1 2 0.115888 25.3934 9.60096 6.7889
17 1 2 0.115889 15.5206 8.96083 0.969417
18 1 2 0.115889 21.0114 12.1309 13.9447
19 1 2 0.115888 22.648 13.0758 12.6084
20 1 2 0.115888 13.884 8.01592 2.30572
21 1 2 0.115889 21.0114 3.90092 8.12521
22 1 2 0.115889 15.5206 17.1908 6.7889
23 1 2 0.115887 13.884 16.2459 8.12521
24 1 2 0.115887 22.648 4.84583 6.7889
25 1 2 0.115889 22.648 16.2459 8.12521
26 1 2 0.115889 13.884 4.84583 6.7889
27 1 2 0.115887 15.5206 3.90092 8.12521
28 1 2 0.115887 21.0114 17.1908 6.7889
29 1 2 0.115889 21.0114 8.96083 0.969417
30 1 2 0.115889 15.5206 12.1309 13.9447
31 1 2 0.115887 13.884 13.0758 12.6084
32 1 2 0.115887 22.648 8.01592 2.30572
33 1 3 0.671939 27.399 18.7442 13.2542
34 1 3 0.671939 9.13299 2.34751 1.65994
35 1 3 0.671939 27.399 12.8934 9.117
36 1 3 0.671939 9.13299 8.19836 5.79712
37 1 3 0.67194 24.8655 14.3561 13.2542
38 1 3 0.67194 11.6665 6.73565 1.65994
39 1 3 0.67194 29.9325 17.2815 9.117
40 1 3 0.67194 6.5995 3.81022 5.79712
41 1 3 0.67194 24.8655 17.2815 9.117
42 1 3 0.67194 11.6665 3.81022 5.79712
43 1 3 0.67194 29.9325 14.3561 13.2542
44 1 3 0.67194 6.5995 6.73565 1.65994
45 1 3 -0.11508 27.399 19.957 14.1117
46 1 3 -0.11508 9.13299 1.13474 0.802379
47 1 3 -0.11508 27.399 11.6806 8.25944
48 1 3 -0.11508 9.13299 9.41113 6.65468
49 1 3 -0.11508 23.8152 13.7497 14.1117
50 1 3 -0.11508 12.7168 7.34203 0.802379
51 1 3 -0.11508 30.9828 17.8879 8.25944
52 1 3 -0.11508 5.54921 3.20384 6.65468
53 1 3 -0.11508 23.8152 17.8879 8.25944
54 1 3 -0.11508 12.7168 3.20384 6.65468
55 1 3 -0.11508 30.9828 13.7497 14.1117
56 1 3 -0.11508 5.54921 7.34203 0.802379
57 1 3 -0.0559 18.266 5.39949 13.5316
58 1 3 -0.0559 18.266 15.6923 1.38254
59 1 3 -0.055903 18.266 14.5575 0.580159
60 1 3 -0.055903 18.266 6.53422 14.334
61 1 3 -0.0559 26.1971 11.1132 7.85825
62 1 3 -0.0559 10.3349 9.9785 7.05587
63 1 3 -0.055903 10.3349 11.1132 7.85825
64 1 3 -0.055903 26.1971 9.9785 7.05587
65 1 3 -0.0559 14.7918 8.54005 0.580159
66 1 3 -0.0559 21.7402 12.5517 14.334
67 1 3 -0.055903 22.7229 13.1191 13.5316
68 1 3 -0.055903 13.8091 7.97268 1.38254
69 1 3 -0.0559 21.7402 3.39366 7.85825
70 1 3 -0.0559 14.7918 17.6981 7.05587
71 1 3 -0.055903 13.8091 17.1307 7.85825
72 1 3 -0.055903 22.7229 3.96103 7.05587
73 1 3 -0.055901 22.7229 17.1307 7.85825
74 1 3 -0.055901 13.8091 3.96103 7.05587
75 1 3 -0.055903 14.7918 3.39366 7.85825
76 1 3 -0.055903 21.7402 17.6981 7.05587
77 1 3 -0.0559 21.7402 8.54005 0.580159
78 1 3 -0.0559 14.7918 12.5517 14.334
79 1 3 -0.055903 13.8091 13.1191 13.5316
80 1 3 -0.055903 22.7229 7.97268 1.38254
81 1 4 -1.26215 27.399 15.8188 11.1856
82 1 4 -1.26215 9.13299 5.27293 3.72853
83 1 4 -0.60118 27.399 18.9383 11.9641
84 1 4 -0.60118 9.13299 2.15347 2.95001
85 1 4 -0.601179 27.399 17.5926 13.8671
86 1 4 -0.601179 9.13299 3.49912 1.04697
87 1 4 -0.601179 26.2336 13.3722 9.45555
88 1 4 -0.601179 10.2984 7.71958 5.45857
89 1 4 -0.60118 28.5643 13.3722 9.45555
90 1 4 -0.60118 7.96762 7.71958 5.45857
91 1 4 -0.60118 25.8628 14.9319 13.8671
92 1 4 -0.60118 10.6692 6.15984 1.04697
93 1 4 -0.601179 24.6974 14.2591 11.9641
94 1 4 -0.601179 11.8345 6.83267 2.95001
95 1 4 -0.60118 28.9351 18.0514 9.45555
96 1 4 -0.60118 7.59682 3.04037 5.45857
97 1 4 -0.601179 30.1005 16.0329 9.45555
98 1 4 -0.601179 6.43145 5.05885 5.45857
99 1 4 -0.601179 24.6974 16.0329 9.45555
100 1 4 -0.601179 11.8345 5.05885 5.45857
101 1 4 -0.60118 25.8628 18.0514 9.45555
102 1 4 -0.60118 10.6692 3.04037 5.45857
103 1 4 -0.60118 28.9351 14.9319 13.8671
104 1 4 -0.60118 7.59682 6.15984 1.04697
105 1 4 -0.60118 30.1005 14.2591 11.9641
106 1 4 -0.60118 6.43145 6.83267 2.95001
ITEM: TIMESTEP
51000
ITEM: NUMBER OF ATOMS
106
ITEM: BOX BOUNDS xy xz yz pp pp pp
0.0000000000000000e+00 3.6531964750000000e+01 9.1329911900000003e+00
0.0000000000000000e+00 2.1091739680000000e+01 9.1329911900000003e+00
0.0000000000000000e+00 1.4914112149999999e+01 5.2729349200000000e+00
ITEM: ATOMS id mol type q x y z
1 1 1 1.10383 27.399 17.6496 10.5383
2 1 1 1.10383 9.13299 3.44217 4.3758
3 1 1 1.10383 27.399 15.8188 13.1274
4 1 1 1.10383 9.13299 5.27293 1.78671
5 1 1 1.10383 25.8135 14.9034 10.5383
6 1 1 1.10383 10.7185 6.18832 4.3758
7 1 1 1.10383 28.9845 14.9034 10.5383
8 1 1 1.10383 7.5475 6.18832 4.3758
9 1 2 0.115889 18.266 5.48596 12.6084
10 1 2 0.115889 18.266 15.6058 2.30572
11 1 2 0.115888 18.266 13.716 0.969417
12 1 2 0.115888 18.266 7.37578 13.9447
13 1 2 0.11589 25.3934 11.4908 8.12521
14 1 2 0.11589 11.1386 9.60096 6.7889
15 1 2 0.115888 11.1386 11.4908 8.12521
16 1 2 0.115888 25.3934 9.60096 6.7889
17 1 2 0.115889 15.5206 8.96083 0.969417
18 1 2 0.115889 21.0114 12.1309 13.9447
19 1 2 0.115888 22.648 13.0758 12.6084
20 1 2 0.115888 13.884 8.01592 2.30572
21 1 2 0.115889 21.0114 3.90092 8.12521
22 1 2 0.115889 15.5206 17.1908 6.7889
23 1 2 0.115887 13.884 16.2459 8.12521
24 1 2 0.115887 22.648 4.84583 6.7889
25 1 2 0.115889 22.648 16.2459 8.12521
26 1 2 0.115889 13.884 4.84583 6.7889
27 1 2 0.115887 15.5206 3.90092 8.12521
28 1 2 0.115887 21.0114 17.1908 6.7889
29 1 2 0.115889 21.0114 8.96083 0.969417
30 1 2 0.115889 15.5206 12.1309 13.9447
31 1 2 0.115887 13.884 13.0758 12.6084
32 1 2 0.115887 22.648 8.01592 2.30572
33 1 3 0.671939 27.399 18.7442 13.2542
34 1 3 0.671939 9.13299 2.34751 1.65994
35 1 3 0.671939 27.399 12.8934 9.117
36 1 3 0.671939 9.13299 8.19836 5.79712
37 1 3 0.67194 24.8655 14.3561 13.2542
38 1 3 0.67194 11.6665 6.73565 1.65994
39 1 3 0.67194 29.9325 17.2815 9.117
40 1 3 0.67194 6.5995 3.81022 5.79712
41 1 3 0.67194 24.8655 17.2815 9.117
42 1 3 0.67194 11.6665 3.81022 5.79712
43 1 3 0.67194 29.9325 14.3561 13.2542
44 1 3 0.67194 6.5995 6.73565 1.65994
45 1 3 -0.11508 27.399 19.957 14.1117
46 1 3 -0.11508 9.13299 1.13474 0.802379
47 1 3 -0.11508 27.399 11.6806 8.25944
48 1 3 -0.11508 9.13299 9.41113 6.65468
49 1 3 -0.11508 23.8152 13.7497 14.1117
50 1 3 -0.11508 12.7168 7.34203 0.802379
51 1 3 -0.11508 30.9828 17.8879 8.25944
52 1 3 -0.11508 5.54921 3.20384 6.65468
53 1 3 -0.11508 23.8152 17.8879 8.25944
54 1 3 -0.11508 12.7168 3.20384 6.65468
55 1 3 -0.11508 30.9828 13.7497 14.1117
56 1 3 -0.11508 5.54921 7.34203 0.802379
57 1 3 -0.0559 18.266 5.39949 13.5316
58 1 3 -0.0559 18.266 15.6923 1.38254
59 1 3 -0.055903 18.266 14.5575 0.580159
60 1 3 -0.055903 18.266 6.53422 14.334
61 1 3 -0.0559 26.1971 11.1132 7.85825
62 1 3 -0.0559 10.3349 9.9785 7.05587
63 1 3 -0.055903 10.3349 11.1132 7.85825
64 1 3 -0.055903 26.1971 9.9785 7.05587
65 1 3 -0.0559 14.7918 8.54005 0.580159
66 1 3 -0.0559 21.7402 12.5517 14.334
67 1 3 -0.055903 22.7229 13.1191 13.5316
68 1 3 -0.055903 13.8091 7.97268 1.38254
69 1 3 -0.0559 21.7402 3.39366 7.85825
70 1 3 -0.0559 14.7918 17.6981 7.05587
71 1 3 -0.055903 13.8091 17.1307 7.85825
72 1 3 -0.055903 22.7229 3.96103 7.05587
73 1 3 -0.055901 22.7229 17.1307 7.85825
74 1 3 -0.055901 13.8091 3.96103 7.05587
75 1 3 -0.055903 14.7918 3.39366 7.85825
76 1 3 -0.055903 21.7402 17.6981 7.05587
77 1 3 -0.0559 21.7402 8.54005 0.580159
78 1 3 -0.0559 14.7918 12.5517 14.334
79 1 3 -0.055903 13.8091 13.1191 13.5316
80 1 3 -0.055903 22.7229 7.97268 1.38254
81 1 4 -1.26215 27.399 15.8188 11.1856
82 1 4 -1.26215 9.13299 5.27293 3.72853
83 1 4 -0.60118 27.399 18.9383 11.9641
84 1 4 -0.60118 9.13299 2.15347 2.95001
85 1 4 -0.601179 27.399 17.5926 13.8671
86 1 4 -0.601179 9.13299 3.49912 1.04697
87 1 4 -0.601179 26.2336 13.3722 9.45555
88 1 4 -0.601179 10.2984 7.71958 5.45857
89 1 4 -0.60118 28.5643 13.3722 9.45555
90 1 4 -0.60118 7.96762 7.71958 5.45857
91 1 4 -0.60118 25.8628 14.9319 13.8671
92 1 4 -0.60118 10.6692 6.15984 1.04697
93 1 4 -0.601179 24.6974 14.2591 11.9641
94 1 4 -0.601179 11.8345 6.83267 2.95001
95 1 4 -0.60118 28.9351 18.0514 9.45555
96 1 4 -0.60118 7.59682 3.04037 5.45857
97 1 4 -0.601179 30.1005 16.0329 9.45555
98 1 4 -0.601179 6.43145 5.05885 5.45857
99 1 4 -0.601179 24.6974 16.0329 9.45555
100 1 4 -0.601179 11.8345 5.05885 5.45857
101 1 4 -0.60118 25.8628 18.0514 9.45555
102 1 4 -0.60118 10.6692 3.04037 5.45857
103 1 4 -0.60118 28.9351 14.9319 13.8671
104 1 4 -0.60118 7.59682 6.15984 1.04697
105 1 4 -0.60118 30.1005 14.2591 11.9641
106 1 4 -0.60118 6.43145 6.83267 2.95001
ITEM: TIMESTEP
52000
ITEM: NUMBER OF ATOMS
112
ITEM: BOX BOUNDS xy xz yz pp pp pp
0.0000000000000000e+00 3.6531964750000000e+01 9.1329911900000003e+00
0.0000000000000000e+00 2.1091739680000000e+01 9.1329911900000003e+00
0.0000000000000000e+00 1.4914112149999999e+01 5.2729349200000000e+00
ITEM: ATOMS id mol type q x y z
1 1 1 1.10383 27.399 17.6496 10.5383
2 1 1 1.10383 9.13299 3.44217 4.3758
3 1 1 1.10383 27.399 15.8188 13.1274
4 1 1 1.10383 9.13299 5.27293 1.78671
5 1 1 1.10383 25.8135 14.9034 10.5383
6 1 1 1.10383 10.7185 6.18832 4.3758
7 1 1 1.10383 28.9845 14.9034 10.5383
8 1 1 1.10383 7.5475 6.18832 4.3758
9 1 2 0.115889 18.266 5.48596 12.6084
10 1 2 0.115889 18.266 15.6058 2.30572
11 1 2 0.115888 18.266 13.716 0.969417
12 1 2 0.115888 18.266 7.37578 13.9447
13 1 2 0.11589 25.3934 11.4908 8.12521
14 1 2 0.11589 11.1386 9.60096 6.7889
15 1 2 0.115888 11.1386 11.4908 8.12521
16 1 2 0.115888 25.3934 9.60096 6.7889
17 1 2 0.115889 15.5206 8.96083 0.969417
18 1 2 0.115889 21.0114 12.1309 13.9447
19 1 2 0.115888 22.648 13.0758 12.6084
20 1 2 0.115888 13.884 8.01592 2.30572
21 1 2 0.115889 21.0114 3.90092 8.12521
22 1 2 0.115889 15.5206 17.1908 6.7889
23 1 2 0.115887 13.884 16.2459 8.12521
24 1 2 0.115887 22.648 4.84583 6.7889
25 1 2 0.115889 22.648 16.2459 8.12521
26 1 2 0.115889 13.884 4.84583 6.7889
27 1 2 0.115887 15.5206 3.90092 8.12521
28 1 2 0.115887 21.0114 17.1908 6.7889
29 1 2 0.115889 21.0114 8.96083 0.969417
30 1 2 0.115889 15.5206 12.1309 13.9447
31 1 2 0.115887 13.884 13.0758 12.6084
32 1 2 0.115887 22.648 8.01592 2.30572
33 1 3 0.671939 27.399 18.7442 13.2542
34 1 3 0.671939 9.13299 2.34751 1.65994
35 1 3 0.671939 27.399 12.8934 9.117
36 1 3 0.671939 9.13299 8.19836 5.79712
37 1 3 0.67194 24.8655 14.3561 13.2542
38 1 3 0.67194 11.6665 6.73565 1.65994
39 1 3 0.67194 29.9325 17.2815 9.117
40 1 3 0.67194 6.5995 3.81022 5.79712
41 1 3 0.67194 24.8655 17.2815 9.117
42 1 3 0.67194 11.6665 3.81022 5.79712
43 1 3 0.67194 29.9325 14.3561 13.2542
44 1 3 0.67194 6.5995 6.73565 1.65994
45 1 3 -0.11508 27.399 19.957 14.1117
46 1 3 -0.11508 9.13299 1.13474 0.802379
47 1 3 -0.11508 27.399 11.6806 8.25944
48 1 3 -0.11508 9.13299 9.41113 6.65468
49 1 3 -0.11508 23.8152 13.7497 14.1117
50 1 3 -0.11508 12.7168 7.34203 0.802379
51 1 3 -0.11508 30.9828 17.8879 8.25944
52 1 3 -0.11508 5.54921 3.20384 6.65468
53 1 3 -0.11508 23.8152 17.8879 8.25944
54 1 3 -0.11508 12.7168 3.20384 6.65468
55 1 3 -0.11508 30.9828 13.7497 14.1117
56 1 3 -0.11508 5.54921 7.34203 0.802379
57 1 3 -0.0559 18.266 5.39949 13.5316
58 1 3 -0.0559 18.266 15.6923 1.38254
59 1 3 -0.055903 18.266 14.5575 0.580159
60 1 3 -0.055903 18.266 6.53422 14.334
61 1 3 -0.0559 26.1971 11.1132 7.85825
62 1 3 -0.0559 10.3349 9.9785 7.05587
63 1 3 -0.055903 10.3349 11.1132 7.85825
64 1 3 -0.055903 26.1971 9.9785 7.05587
65 1 3 -0.0559 14.7918 8.54005 0.580159
66 1 3 -0.0559 21.7402 12.5517 14.334
67 1 3 -0.055903 22.7229 13.1191 13.5316
68 1 3 -0.055903 13.8091 7.97268 1.38254
69 1 3 -0.0559 21.7402 3.39366 7.85825
70 1 3 -0.0559 14.7918 17.6981 7.05587
71 1 3 -0.055903 13.8091 17.1307 7.85825
72 1 3 -0.055903 22.7229 3.96103 7.05587
73 1 3 -0.055901 22.7229 17.1307 7.85825
74 1 3 -0.055901 13.8091 3.96103 7.05587
75 1 3 -0.055903 14.7918 3.39366 7.85825
76 1 3 -0.055903 21.7402 17.6981 7.05587
77 1 3 -0.0559 21.7402 8.54005 0.580159
78 1 3 -0.0559 14.7918 12.5517 14.334
79 1 3 -0.055903 13.8091 13.1191 13.5316
80 1 3 -0.055903 22.7229 7.97268 1.38254
81 1 4 -1.26215 27.399 15.8188 11.1856
82 1 4 -1.26215 9.13299 5.27293 3.72853
83 1 4 -0.60118 27.399 18.9383 11.9641
84 1 4 -0.60118 9.13299 2.15347 2.95001
85 1 4 -0.601179 27.399 17.5926 13.8671
86 1 4 -0.601179 9.13299 3.49912 1.04697
87 1 4 -0.601179 26.2336 13.3722 9.45555
88 1 4 -0.601179 10.2984 7.71958 5.45857
89 1 4 -0.60118 28.5643 13.3722 9.45555
90 1 4 -0.60118 7.96762 7.71958 5.45857
91 1 4 -0.60118 25.8628 14.9319 13.8671
92 1 4 -0.60118 10.6692 6.15984 1.04697
93 1 4 -0.601179 24.6974 14.2591 11.9641
94 1 4 -0.601179 11.8345 6.83267 2.95001
95 1 4 -0.60118 28.9351 18.0514 9.45555
96 1 4 -0.60118 7.59682 3.04037 5.45857
97 1 4 -0.601179 30.1005 16.0329 9.45555
98 1 4 -0.601179 6.43145 5.05885 5.45857
99 1 4 -0.601179 24.6974 16.0329 9.45555
100 1 4 -0.601179 11.8345 5.05885 5.45857
101 1 4 -0.60118 25.8628 18.0514 9.45555
102 1 4 -0.60118 10.6692 3.04037 5.45857
103 1 4 -0.60118 28.9351 14.9319 13.8671
104 1 4 -0.60118 7.59682 6.15984 1.04697
105 1 4 -0.60118 30.1005 14.2591 11.9641
106 1 4 -0.60118 6.43145 6.83267 2.95001
107 2 5 -0.35 13.954 1.43678 3.60173
108 2 6 0.7 14.9992 1.59316 4.07987
109 2 5 -0.35 16.0444 1.74955 4.55801
110 3 5 -0.35 20.3139 15.5402 4.0136
111 3 6 0.7 21.1977 14.8961 3.62668
112 3 5 -0.35 22.0815 14.2521 3.23977
ITEM: TIMESTEP
53000
ITEM: NUMBER OF ATOMS
106
ITEM: BOX BOUNDS xy xz yz pp pp pp
0.0000000000000000e+00 3.6531964750000000e+01 9.1329911900000003e+00
0.0000000000000000e+00 2.1091739680000000e+01 9.1329911900000003e+00
0.0000000000000000e+00 1.4914112149999999e+01 5.2729349200000000e+00
ITEM: ATOMS id mol type q x y z
1 1 1 1.10383 27.399 17.6496 10.5383
2 1 1 1.10383 9.13299 3.44217 4.3758
3 1 1 1.10383 27.399 15.8188 13.1274
4 1 1 1.10383 9.13299 5.27293 1.78671
5 1 1 1.10383 25.8135 14.9034 10.5383
6 1 1 1.10383 10.7185 6.18832 4.3758
7 1 1 1.10383 28.9845 14.9034 10.5383
8 1 1 1.10383 7.5475 6.18832 4.3758
9 1 2 0.115889 18.266 5.48596 12.6084
10 1 2 0.115889 18.266 15.6058 2.30572
11 1 2 0.115888 18.266 13.716 0.969417
12 1 2 0.115888 18.266 7.37578 13.9447
13 1 2 0.11589 25.3934 11.4908 8.12521
14 1 2 0.11589 11.1386 9.60096 6.7889
15 1 2 0.115888 11.1386 11.4908 8.12521
16 1 2 0.115888 25.3934 9.60096 6.7889
17 1 2 0.115889 15.5206 8.96083 0.969417
18 1 2 0.115889 21.0114 12.1309 13.9447
19 1 2 0.115888 22.648 13.0758 12.6084
20 1 2 0.115888 13.884 8.01592 2.30572
21 1 2 0.115889 21.0114 3.90092 8.12521
22 1 2 0.115889 15.5206 17.1908 6.7889
23 1 2 0.115887 13.884 16.2459 8.12521
24 1 2 0.115887 22.648 4.84583 6.7889
25 1 2 0.115889 22.648 16.2459 8.12521
26 1 2 0.115889 13.884 4.84583 6.7889
27 1 2 0.115887 15.5206 3.90092 8.12521
28 1 2 0.115887 21.0114 17.1908 6.7889
29 1 2 0.115889 21.0114 8.96083 0.969417
30 1 2 0.115889 15.5206 12.1309 13.9447
31 1 2 0.115887 13.884 13.0758 12.6084
32 1 2 0.115887 22.648 8.01592 2.30572
33 1 3 0.671939 27.399 18.7442 13.2542
34 1 3 0.671939 9.13299 2.34751 1.65994
35 1 3 0.671939 27.399 12.8934 9.117
36 1 3 0.671939 9.13299 8.19836 5.79712
37 1 3 0.67194 24.8655 14.3561 13.2542
38 1 3 0.67194 11.6665 6.73565 1.65994
39 1 3 0.67194 29.9325 17.2815 9.117
40 1 3 0.67194 6.5995 3.81022 5.79712
41 1 3 0.67194 24.8655 17.2815 9.117
42 1 3 0.67194 11.6665 3.81022 5.79712
43 1 3 0.67194 29.9325 14.3561 13.2542
44 1 3 0.67194 6.5995 6.73565 1.65994
45 1 3 -0.11508 27.399 19.957 14.1117
46 1 3 -0.11508 9.13299 1.13474 0.802379
47 1 3 -0.11508 27.399 11.6806 8.25944
48 1 3 -0.11508 9.13299 9.41113 6.65468
49 1 3 -0.11508 23.8152 13.7497 14.1117
50 1 3 -0.11508 12.7168 7.34203 0.802379
51 1 3 -0.11508 30.9828 17.8879 8.25944
52 1 3 -0.11508 5.54921 3.20384 6.65468
53 1 3 -0.11508 23.8152 17.8879 8.25944
54 1 3 -0.11508 12.7168 3.20384 6.65468
55 1 3 -0.11508 30.9828 13.7497 14.1117
56 1 3 -0.11508 5.54921 7.34203 0.802379
57 1 3 -0.0559 18.266 5.39949 13.5316
58 1 3 -0.0559 18.266 15.6923 1.38254
59 1 3 -0.055903 18.266 14.5575 0.580159
60 1 3 -0.055903 18.266 6.53422 14.334
61 1 3 -0.0559 26.1971 11.1132 7.85825
62 1 3 -0.0559 10.3349 9.9785 7.05587
63 1 3 -0.055903 10.3349 11.1132 7.85825
64 1 3 -0.055903 26.1971 9.9785 7.05587
65 1 3 -0.0559 14.7918 8.54005 0.580159
66 1 3 -0.0559 21.7402 12.5517 14.334
67 1 3 -0.055903 22.7229 13.1191 13.5316
68 1 3 -0.055903 13.8091 7.97268 1.38254
69 1 3 -0.0559 21.7402 3.39366 7.85825
70 1 3 -0.0559 14.7918 17.6981 7.05587
71 1 3 -0.055903 13.8091 17.1307 7.85825
72 1 3 -0.055903 22.7229 3.96103 7.05587
73 1 3 -0.055901 22.7229 17.1307 7.85825
74 1 3 -0.055901 13.8091 3.96103 7.05587
75 1 3 -0.055903 14.7918 3.39366 7.85825
76 1 3 -0.055903 21.7402 17.6981 7.05587
77 1 3 -0.0559 21.7402 8.54005 0.580159
78 1 3 -0.0559 14.7918 12.5517 14.334
79 1 3 -0.055903 13.8091 13.1191 13.5316
80 1 3 -0.055903 22.7229 7.97268 1.38254
81 1 4 -1.26215 27.399 15.8188 11.1856
82 1 4 -1.26215 9.13299 5.27293 3.72853
83 1 4 -0.60118 27.399 18.9383 11.9641
84 1 4 -0.60118 9.13299 2.15347 2.95001
85 1 4 -0.601179 27.399 17.5926 13.8671
86 1 4 -0.601179 9.13299 3.49912 1.04697
87 1 4 -0.601179 26.2336 13.3722 9.45555
88 1 4 -0.601179 10.2984 7.71958 5.45857
89 1 4 -0.60118 28.5643 13.3722 9.45555
90 1 4 -0.60118 7.96762 7.71958 5.45857
91 1 4 -0.60118 25.8628 14.9319 13.8671
92 1 4 -0.60118 10.6692 6.15984 1.04697
93 1 4 -0.601179 24.6974 14.2591 11.9641
94 1 4 -0.601179 11.8345 6.83267 2.95001
95 1 4 -0.60118 28.9351 18.0514 9.45555
96 1 4 -0.60118 7.59682 3.04037 5.45857
97 1 4 -0.601179 30.1005 16.0329 9.45555
98 1 4 -0.601179 6.43145 5.05885 5.45857
99 1 4 -0.601179 24.6974 16.0329 9.45555
100 1 4 -0.601179 11.8345 5.05885 5.45857
101 1 4 -0.60118 25.8628 18.0514 9.45555
102 1 4 -0.60118 10.6692 3.04037 5.45857
103 1 4 -0.60118 28.9351 14.9319 13.8671
104 1 4 -0.60118 7.59682 6.15984 1.04697
105 1 4 -0.60118 30.1005 14.2591 11.9641
106 1 4 -0.60118 6.43145 6.83267 2.95001
ITEM: TIMESTEP
54000
ITEM: NUMBER OF ATOMS
106
ITEM: BOX BOUNDS xy xz yz pp pp pp
0.0000000000000000e+00 3.6531964750000000e+01 9.1329911900000003e+00
0.0000000000000000e+00 2.1091739680000000e+01 9.1329911900000003e+00
0.0000000000000000e+00 1.4914112149999999e+01 5.2729349200000000e+00
ITEM: ATOMS id mol type q x y z
1 1 1 1.10383 27.399 17.6496 10.5383
2 1 1 1.10383 9.13299 3.44217 4.3758
3 1 1 1.10383 27.399 15.8188 13.1274
4 1 1 1.10383 9.13299 5.27293 1.78671
5 1 1 1.10383 25.8135 14.9034 10.5383
6 1 1 1.10383 10.7185 6.18832 4.3758
7 1 1 1.10383 28.9845 14.9034 10.5383
8 1 1 1.10383 7.5475 6.18832 4.3758
9 1 2 0.115889 18.266 5.48596 12.6084
10 1 2 0.115889 18.266 15.6058 2.30572
11 1 2 0.115888 18.266 13.716 0.969417
12 1 2 0.115888 18.266 7.37578 13.9447
13 1 2 0.11589 25.3934 11.4908 8.12521
14 1 2 0.11589 11.1386 9.60096 6.7889
15 1 2 0.115888 11.1386 11.4908 8.12521
16 1 2 0.115888 25.3934 9.60096 6.7889
17 1 2 0.115889 15.5206 8.96083 0.969417
18 1 2 0.115889 21.0114 12.1309 13.9447
19 1 2 0.115888 22.648 13.0758 12.6084
20 1 2 0.115888 13.884 8.01592 2.30572
21 1 2 0.115889 21.0114 3.90092 8.12521
22 1 2 0.115889 15.5206 17.1908 6.7889
23 1 2 0.115887 13.884 16.2459 8.12521
24 1 2 0.115887 22.648 4.84583 6.7889
25 1 2 0.115889 22.648 16.2459 8.12521
26 1 2 0.115889 13.884 4.84583 6.7889
27 1 2 0.115887 15.5206 3.90092 8.12521
28 1 2 0.115887 21.0114 17.1908 6.7889
29 1 2 0.115889 21.0114 8.96083 0.969417
30 1 2 0.115889 15.5206 12.1309 13.9447
31 1 2 0.115887 13.884 13.0758 12.6084
32 1 2 0.115887 22.648 8.01592 2.30572
33 1 3 0.671939 27.399 18.7442 13.2542
34 1 3 0.671939 9.13299 2.34751 1.65994
35 1 3 0.671939 27.399 12.8934 9.117
36 1 3 0.671939 9.13299 8.19836 5.79712
37 1 3 0.67194 24.8655 14.3561 13.2542
38 1 3 0.67194 11.6665 6.73565 1.65994
39 1 3 0.67194 29.9325 17.2815 9.117
40 1 3 0.67194 6.5995 3.81022 5.79712
41 1 3 0.67194 24.8655 17.2815 9.117
42 1 3 0.67194 11.6665 3.81022 5.79712
43 1 3 0.67194 29.9325 14.3561 13.2542
44 1 3 0.67194 6.5995 6.73565 1.65994
45 1 3 -0.11508 27.399 19.957 14.1117
46 1 3 -0.11508 9.13299 1.13474 0.802379
47 1 3 -0.11508 27.399 11.6806 8.25944
48 1 3 -0.11508 9.13299 9.41113 6.65468
49 1 3 -0.11508 23.8152 13.7497 14.1117
50 1 3 -0.11508 12.7168 7.34203 0.802379
51 1 3 -0.11508 30.9828 17.8879 8.25944
52 1 3 -0.11508 5.54921 3.20384 6.65468
53 1 3 -0.11508 23.8152 17.8879 8.25944
54 1 3 -0.11508 12.7168 3.20384 6.65468
55 1 3 -0.11508 30.9828 13.7497 14.1117
56 1 3 -0.11508 5.54921 7.34203 0.802379
57 1 3 -0.0559 18.266 5.39949 13.5316
58 1 3 -0.0559 18.266 15.6923 1.38254
59 1 3 -0.055903 18.266 14.5575 0.580159
60 1 3 -0.055903 18.266 6.53422 14.334
61 1 3 -0.0559 26.1971 11.1132 7.85825
62 1 3 -0.0559 10.3349 9.9785 7.05587
63 1 3 -0.055903 10.3349 11.1132 7.85825
64 1 3 -0.055903 26.1971 9.9785 7.05587
65 1 3 -0.0559 14.7918 8.54005 0.580159
66 1 3 -0.0559 21.7402 12.5517 14.334
67 1 3 -0.055903 22.7229 13.1191 13.5316
68 1 3 -0.055903 13.8091 7.97268 1.38254
69 1 3 -0.0559 21.7402 3.39366 7.85825
70 1 3 -0.0559 14.7918 17.6981 7.05587
71 1 3 -0.055903 13.8091 17.1307 7.85825
72 1 3 -0.055903 22.7229 3.96103 7.05587
73 1 3 -0.055901 22.7229 17.1307 7.85825
74 1 3 -0.055901 13.8091 3.96103 7.05587
75 1 3 -0.055903 14.7918 3.39366 7.85825
76 1 3 -0.055903 21.7402 17.6981 7.05587
77 1 3 -0.0559 21.7402 8.54005 0.580159
78 1 3 -0.0559 14.7918 12.5517 14.334
79 1 3 -0.055903 13.8091 13.1191 13.5316
80 1 3 -0.055903 22.7229 7.97268 1.38254
81 1 4 -1.26215 27.399 15.8188 11.1856
82 1 4 -1.26215 9.13299 5.27293 3.72853
83 1 4 -0.60118 27.399 18.9383 11.9641
84 1 4 -0.60118 9.13299 2.15347 2.95001
85 1 4 -0.601179 27.399 17.5926 13.8671
86 1 4 -0.601179 9.13299 3.49912 1.04697
87 1 4 -0.601179 26.2336 13.3722 9.45555
88 1 4 -0.601179 10.2984 7.71958 5.45857
89 1 4 -0.60118 28.5643 13.3722 9.45555
90 1 4 -0.60118 7.96762 7.71958 5.45857
91 1 4 -0.60118 25.8628 14.9319 13.8671
92 1 4 -0.60118 10.6692 6.15984 1.04697
93 1 4 -0.601179 24.6974 14.2591 11.9641
94 1 4 -0.601179 11.8345 6.83267 2.95001
95 1 4 -0.60118 28.9351 18.0514 9.45555
96 1 4 -0.60118 7.59682 3.04037 5.45857
97 1 4 -0.601179 30.1005 16.0329 9.45555
98 1 4 -0.601179 6.43145 5.05885 5.45857
99 1 4 -0.601179 24.6974 16.0329 9.45555
100 1 4 -0.601179 11.8345 5.05885 5.45857
101 1 4 -0.60118 25.8628 18.0514 9.45555
102 1 4 -0.60118 10.6692 3.04037 5.45857
103 1 4 -0.60118 28.9351 14.9319 13.8671
104 1 4 -0.60118 7.59682 6.15984 1.04697
105 1 4 -0.60118 30.1005 14.2591 11.9641
106 1 4 -0.60118 6.43145 6.83267 2.95001
ITEM: TIMESTEP
55000
ITEM: NUMBER OF ATOMS
109
ITEM: BOX BOUNDS xy xz yz pp pp pp
0.0000000000000000e+00 3.6531964750000000e+01 9.1329911900000003e+00
0.0000000000000000e+00 2.1091739680000000e+01 9.1329911900000003e+00
0.0000000000000000e+00 1.4914112149999999e+01 5.2729349200000000e+00
ITEM: ATOMS id mol type q x y z
1 1 1 1.10383 27.399 17.6496 10.5383
2 1 1 1.10383 9.13299 3.44217 4.3758
3 1 1 1.10383 27.399 15.8188 13.1274
4 1 1 1.10383 9.13299 5.27293 1.78671
5 1 1 1.10383 25.8135 14.9034 10.5383
6 1 1 1.10383 10.7185 6.18832 4.3758
7 1 1 1.10383 28.9845 14.9034 10.5383
8 1 1 1.10383 7.5475 6.18832 4.3758
9 1 2 0.115889 18.266 5.48596 12.6084
10 1 2 0.115889 18.266 15.6058 2.30572
11 1 2 0.115888 18.266 13.716 0.969417
12 1 2 0.115888 18.266 7.37578 13.9447
13 1 2 0.11589 25.3934 11.4908 8.12521
14 1 2 0.11589 11.1386 9.60096 6.7889
15 1 2 0.115888 11.1386 11.4908 8.12521
16 1 2 0.115888 25.3934 9.60096 6.7889
17 1 2 0.115889 15.5206 8.96083 0.969417
18 1 2 0.115889 21.0114 12.1309 13.9447
19 1 2 0.115888 22.648 13.0758 12.6084
20 1 2 0.115888 13.884 8.01592 2.30572
21 1 2 0.115889 21.0114 3.90092 8.12521
22 1 2 0.115889 15.5206 17.1908 6.7889
23 1 2 0.115887 13.884 16.2459 8.12521
24 1 2 0.115887 22.648 4.84583 6.7889
25 1 2 0.115889 22.648 16.2459 8.12521
26 1 2 0.115889 13.884 4.84583 6.7889
27 1 2 0.115887 15.5206 3.90092 8.12521
28 1 2 0.115887 21.0114 17.1908 6.7889
29 1 2 0.115889 21.0114 8.96083 0.969417
30 1 2 0.115889 15.5206 12.1309 13.9447
31 1 2 0.115887 13.884 13.0758 12.6084
32 1 2 0.115887 22.648 8.01592 2.30572
33 1 3 0.671939 27.399 18.7442 13.2542
34 1 3 0.671939 9.13299 2.34751 1.65994
35 1 3 0.671939 27.399 12.8934 9.117
36 1 3 0.671939 9.13299 8.19836 5.79712
37 1 3 0.67194 24.8655 14.3561 13.2542
38 1 3 0.67194 11.6665 6.73565 1.65994
39 1 3 0.67194 29.9325 17.2815 9.117
40 1 3 0.67194 6.5995 3.81022 5.79712
41 1 3 0.67194 24.8655 17.2815 9.117
42 1 3 0.67194 11.6665 3.81022 5.79712
43 1 3 0.67194 29.9325 14.3561 13.2542
44 1 3 0.67194 6.5995 6.73565 1.65994
45 1 3 -0.11508 27.399 19.957 14.1117
46 1 3 -0.11508 9.13299 1.13474 0.802379
47 1 3 -0.11508 27.399 11.6806 8.25944
48 1 3 -0.11508 9.13299 9.41113 6.65468
49 1 3 -0.11508 23.8152 13.7497 14.1117
50 1 3 -0.11508 12.7168 7.34203 0.802379
51 1 3 -0.11508 30.9828 17.8879 8.25944
52 1 3 -0.11508 5.54921 3.20384 6.65468
53 1 3 -0.11508 23.8152 17.8879 8.25944
54 1 3 -0.11508 12.7168 3.20384 6.65468
55 1 3 -0.11508 30.9828 13.7497 14.1117
56 1 3 -0.11508 5.54921 7.34203 0.802379
57 1 3 -0.0559 18.266 5.39949 13.5316
58 1 3 -0.0559 18.266 15.6923 1.38254
59 1 3 -0.055903 18.266 14.5575 0.580159
60 1 3 -0.055903 18.266 6.53422 14.334
61 1 3 -0.0559 26.1971 11.1132 7.85825
62 1 3 -0.0559 10.3349 9.9785 7.05587
63 1 3 -0.055903 10.3349 11.1132 7.85825
64 1 3 -0.055903 26.1971 9.9785 7.05587
65 1 3 -0.0559 14.7918 8.54005 0.580159
66 1 3 -0.0559 21.7402 12.5517 14.334
67 1 3 -0.055903 22.7229 13.1191 13.5316
68 1 3 -0.055903 13.8091 7.97268 1.38254
69 1 3 -0.0559 21.7402 3.39366 7.85825
70 1 3 -0.0559 14.7918 17.6981 7.05587
71 1 3 -0.055903 13.8091 17.1307 7.85825
72 1 3 -0.055903 22.7229 3.96103 7.05587
73 1 3 -0.055901 22.7229 17.1307 7.85825
74 1 3 -0.055901 13.8091 3.96103 7.05587
75 1 3 -0.055903 14.7918 3.39366 7.85825
76 1 3 -0.055903 21.7402 17.6981 7.05587
77 1 3 -0.0559 21.7402 8.54005 0.580159
78 1 3 -0.0559 14.7918 12.5517 14.334
79 1 3 -0.055903 13.8091 13.1191 13.5316
80 1 3 -0.055903 22.7229 7.97268 1.38254
81 1 4 -1.26215 27.399 15.8188 11.1856
82 1 4 -1.26215 9.13299 5.27293 3.72853
83 1 4 -0.60118 27.399 18.9383 11.9641
84 1 4 -0.60118 9.13299 2.15347 2.95001
85 1 4 -0.601179 27.399 17.5926 13.8671
86 1 4 -0.601179 9.13299 3.49912 1.04697
87 1 4 -0.601179 26.2336 13.3722 9.45555
88 1 4 -0.601179 10.2984 7.71958 5.45857
89 1 4 -0.60118 28.5643 13.3722 9.45555
90 1 4 -0.60118 7.96762 7.71958 5.45857
91 1 4 -0.60118 25.8628 14.9319 13.8671
92 1 4 -0.60118 10.6692 6.15984 1.04697
93 1 4 -0.601179 24.6974 14.2591 11.9641
94 1 4 -0.601179 11.8345 6.83267 2.95001
95 1 4 -0.60118 28.9351 18.0514 9.45555
96 1 4 -0.60118 7.59682 3.04037 5.45857
97 1 4 -0.601179 30.1005 16.0329 9.45555
98 1 4 -0.601179 6.43145 5.05885 5.45857
99 1 4 -0.601179 24.6974 16.0329 9.45555
100 1 4 -0.601179 11.8345 5.05885 5.45857
101 1 4 -0.60118 25.8628 18.0514 9.45555
102 1 4 -0.60118 10.6692 3.04037 5.45857
103 1 4 -0.60118 28.9351 14.9319 13.8671
104 1 4 -0.60118 7.59682 6.15984 1.04697
105 1 4 -0.60118 30.1005 14.2591 11.9641
106 1 4 -0.60118 6.43145 6.83267 2.95001
113 4 5 -0.35 20.9821 4.71779 11.718
114 4 6 0.7 20.7293 5.45943 10.8626
115 4 5 -0.35 20.4765 6.20108 10.0073
ITEM: TIMESTEP
56000
ITEM: NUMBER OF ATOMS
109
ITEM: BOX BOUNDS xy xz yz pp pp pp
0.0000000000000000e+00 3.6531964750000000e+01 9.1329911900000003e+00
0.0000000000000000e+00 2.1091739680000000e+01 9.1329911900000003e+00
0.0000000000000000e+00 1.4914112149999999e+01 5.2729349200000000e+00
ITEM: ATOMS id mol type q x y z
1 1 1 1.10383 27.399 17.6496 10.5383
2 1 1 1.10383 9.13299 3.44217 4.3758
3 1 1 1.10383 27.399 15.8188 13.1274
4 1 1 1.10383 9.13299 5.27293 1.78671
5 1 1 1.10383 25.8135 14.9034 10.5383
6 1 1 1.10383 10.7185 6.18832 4.3758
7 1 1 1.10383 28.9845 14.9034 10.5383
8 1 1 1.10383 7.5475 6.18832 4.3758
9 1 2 0.115889 18.266 5.48596 12.6084
10 1 2 0.115889 18.266 15.6058 2.30572
11 1 2 0.115888 18.266 13.716 0.969417
12 1 2 0.115888 18.266 7.37578 13.9447
13 1 2 0.11589 25.3934 11.4908 8.12521
14 1 2 0.11589 11.1386 9.60096 6.7889
15 1 2 0.115888 11.1386 11.4908 8.12521
16 1 2 0.115888 25.3934 9.60096 6.7889
17 1 2 0.115889 15.5206 8.96083 0.969417
18 1 2 0.115889 21.0114 12.1309 13.9447
19 1 2 0.115888 22.648 13.0758 12.6084
20 1 2 0.115888 13.884 8.01592 2.30572
21 1 2 0.115889 21.0114 3.90092 8.12521
22 1 2 0.115889 15.5206 17.1908 6.7889
23 1 2 0.115887 13.884 16.2459 8.12521
24 1 2 0.115887 22.648 4.84583 6.7889
25 1 2 0.115889 22.648 16.2459 8.12521
26 1 2 0.115889 13.884 4.84583 6.7889
27 1 2 0.115887 15.5206 3.90092 8.12521
28 1 2 0.115887 21.0114 17.1908 6.7889
29 1 2 0.115889 21.0114 8.96083 0.969417
30 1 2 0.115889 15.5206 12.1309 13.9447
31 1 2 0.115887 13.884 13.0758 12.6084
32 1 2 0.115887 22.648 8.01592 2.30572
33 1 3 0.671939 27.399 18.7442 13.2542
34 1 3 0.671939 9.13299 2.34751 1.65994
35 1 3 0.671939 27.399 12.8934 9.117
36 1 3 0.671939 9.13299 8.19836 5.79712
37 1 3 0.67194 24.8655 14.3561 13.2542
38 1 3 0.67194 11.6665 6.73565 1.65994
39 1 3 0.67194 29.9325 17.2815 9.117
40 1 3 0.67194 6.5995 3.81022 5.79712
41 1 3 0.67194 24.8655 17.2815 9.117
42 1 3 0.67194 11.6665 3.81022 5.79712
43 1 3 0.67194 29.9325 14.3561 13.2542
44 1 3 0.67194 6.5995 6.73565 1.65994
45 1 3 -0.11508 27.399 19.957 14.1117
46 1 3 -0.11508 9.13299 1.13474 0.802379
47 1 3 -0.11508 27.399 11.6806 8.25944
48 1 3 -0.11508 9.13299 9.41113 6.65468
49 1 3 -0.11508 23.8152 13.7497 14.1117
50 1 3 -0.11508 12.7168 7.34203 0.802379
51 1 3 -0.11508 30.9828 17.8879 8.25944
52 1 3 -0.11508 5.54921 3.20384 6.65468
53 1 3 -0.11508 23.8152 17.8879 8.25944
54 1 3 -0.11508 12.7168 3.20384 6.65468
55 1 3 -0.11508 30.9828 13.7497 14.1117
56 1 3 -0.11508 5.54921 7.34203 0.802379
57 1 3 -0.0559 18.266 5.39949 13.5316
58 1 3 -0.0559 18.266 15.6923 1.38254
59 1 3 -0.055903 18.266 14.5575 0.580159
60 1 3 -0.055903 18.266 6.53422 14.334
61 1 3 -0.0559 26.1971 11.1132 7.85825
62 1 3 -0.0559 10.3349 9.9785 7.05587
63 1 3 -0.055903 10.3349 11.1132 7.85825
64 1 3 -0.055903 26.1971 9.9785 7.05587
65 1 3 -0.0559 14.7918 8.54005 0.580159
66 1 3 -0.0559 21.7402 12.5517 14.334
67 1 3 -0.055903 22.7229 13.1191 13.5316
68 1 3 -0.055903 13.8091 7.97268 1.38254
69 1 3 -0.0559 21.7402 3.39366 7.85825
70 1 3 -0.0559 14.7918 17.6981 7.05587
71 1 3 -0.055903 13.8091 17.1307 7.85825
72 1 3 -0.055903 22.7229 3.96103 7.05587
73 1 3 -0.055901 22.7229 17.1307 7.85825
74 1 3 -0.055901 13.8091 3.96103 7.05587
75 1 3 -0.055903 14.7918 3.39366 7.85825
76 1 3 -0.055903 21.7402 17.6981 7.05587
77 1 3 -0.0559 21.7402 8.54005 0.580159
78 1 3 -0.0559 14.7918 12.5517 14.334
79 1 3 -0.055903 13.8091 13.1191 13.5316
80 1 3 -0.055903 22.7229 7.97268 1.38254
81 1 4 -1.26215 27.399 15.8188 11.1856
82 1 4 -1.26215 9.13299 5.27293 3.72853
83 1 4 -0.60118 27.399 18.9383 11.9641
84 1 4 -0.60118 9.13299 2.15347 2.95001
85 1 4 -0.601179 27.399 17.5926 13.8671
86 1 4 -0.601179 9.13299 3.49912 1.04697
87 1 4 -0.601179 26.2336 13.3722 9.45555
88 1 4 -0.601179 10.2984 7.71958 5.45857
89 1 4 -0.60118 28.5643 13.3722 9.45555
90 1 4 -0.60118 7.96762 7.71958 5.45857
91 1 4 -0.60118 25.8628 14.9319 13.8671
92 1 4 -0.60118 10.6692 6.15984 1.04697
93 1 4 -0.601179 24.6974 14.2591 11.9641
94 1 4 -0.601179 11.8345 6.83267 2.95001
95 1 4 -0.60118 28.9351 18.0514 9.45555
96 1 4 -0.60118 7.59682 3.04037 5.45857
97 1 4 -0.601179 30.1005 16.0329 9.45555
98 1 4 -0.601179 6.43145 5.05885 5.45857
99 1 4 -0.601179 24.6974 16.0329 9.45555
100 1 4 -0.601179 11.8345 5.05885 5.45857
101 1 4 -0.60118 25.8628 18.0514 9.45555
102 1 4 -0.60118 10.6692 3.04037 5.45857
103 1 4 -0.60118 28.9351 14.9319 13.8671
104 1 4 -0.60118 7.59682 6.15984 1.04697
105 1 4 -0.60118 30.1005 14.2591 11.9641
106 1 4 -0.60118 6.43145 6.83267 2.95001
107 2 5 -0.35 4.13586 3.76644 3.38108
108 2 6 0.7 21.873 4.66526 3.88908
109 2 5 -0.35 21.3442 5.56408 4.39707
ITEM: TIMESTEP
57000
ITEM: NUMBER OF ATOMS
115
ITEM: BOX BOUNDS xy xz yz pp pp pp
0.0000000000000000e+00 3.6531964750000000e+01 9.1329911900000003e+00
0.0000000000000000e+00 2.1091739680000000e+01 9.1329911900000003e+00
0.0000000000000000e+00 1.4914112149999999e+01 5.2729349200000000e+00
ITEM: ATOMS id mol type q x y z
1 1 1 1.10383 27.399 17.6496 10.5383
2 1 1 1.10383 9.13299 3.44217 4.3758
3 1 1 1.10383 27.399 15.8188 13.1274
4 1 1 1.10383 9.13299 5.27293 1.78671
5 1 1 1.10383 25.8135 14.9034 10.5383
6 1 1 1.10383 10.7185 6.18832 4.3758
7 1 1 1.10383 28.9845 14.9034 10.5383
8 1 1 1.10383 7.5475 6.18832 4.3758
9 1 2 0.115889 18.266 5.48596 12.6084
10 1 2 0.115889 18.266 15.6058 2.30572
11 1 2 0.115888 18.266 13.716 0.969417
12 1 2 0.115888 18.266 7.37578 13.9447
13 1 2 0.11589 25.3934 11.4908 8.12521
14 1 2 0.11589 11.1386 9.60096 6.7889
15 1 2 0.115888 11.1386 11.4908 8.12521
16 1 2 0.115888 25.3934 9.60096 6.7889
17 1 2 0.115889 15.5206 8.96083 0.969417
18 1 2 0.115889 21.0114 12.1309 13.9447
19 1 2 0.115888 22.648 13.0758 12.6084
20 1 2 0.115888 13.884 8.01592 2.30572
21 1 2 0.115889 21.0114 3.90092 8.12521
22 1 2 0.115889 15.5206 17.1908 6.7889
23 1 2 0.115887 13.884 16.2459 8.12521
24 1 2 0.115887 22.648 4.84583 6.7889
25 1 2 0.115889 22.648 16.2459 8.12521
26 1 2 0.115889 13.884 4.84583 6.7889
27 1 2 0.115887 15.5206 3.90092 8.12521
28 1 2 0.115887 21.0114 17.1908 6.7889
29 1 2 0.115889 21.0114 8.96083 0.969417
30 1 2 0.115889 15.5206 12.1309 13.9447
31 1 2 0.115887 13.884 13.0758 12.6084
32 1 2 0.115887 22.648 8.01592 2.30572
33 1 3 0.671939 27.399 18.7442 13.2542
34 1 3 0.671939 9.13299 2.34751 1.65994
35 1 3 0.671939 27.399 12.8934 9.117
36 1 3 0.671939 9.13299 8.19836 5.79712
37 1 3 0.67194 24.8655 14.3561 13.2542
38 1 3 0.67194 11.6665 6.73565 1.65994
39 1 3 0.67194 29.9325 17.2815 9.117
40 1 3 0.67194 6.5995 3.81022 5.79712
41 1 3 0.67194 24.8655 17.2815 9.117
42 1 3 0.67194 11.6665 3.81022 5.79712
43 1 3 0.67194 29.9325 14.3561 13.2542
44 1 3 0.67194 6.5995 6.73565 1.65994
45 1 3 -0.11508 27.399 19.957 14.1117
46 1 3 -0.11508 9.13299 1.13474 0.802379
47 1 3 -0.11508 27.399 11.6806 8.25944
48 1 3 -0.11508 9.13299 9.41113 6.65468
49 1 3 -0.11508 23.8152 13.7497 14.1117
50 1 3 -0.11508 12.7168 7.34203 0.802379
51 1 3 -0.11508 30.9828 17.8879 8.25944
52 1 3 -0.11508 5.54921 3.20384 6.65468
53 1 3 -0.11508 23.8152 17.8879 8.25944
54 1 3 -0.11508 12.7168 3.20384 6.65468
55 1 3 -0.11508 30.9828 13.7497 14.1117
56 1 3 -0.11508 5.54921 7.34203 0.802379
57 1 3 -0.0559 18.266 5.39949 13.5316
58 1 3 -0.0559 18.266 15.6923 1.38254
59 1 3 -0.055903 18.266 14.5575 0.580159
60 1 3 -0.055903 18.266 6.53422 14.334
61 1 3 -0.0559 26.1971 11.1132 7.85825
62 1 3 -0.0559 10.3349 9.9785 7.05587
63 1 3 -0.055903 10.3349 11.1132 7.85825
64 1 3 -0.055903 26.1971 9.9785 7.05587
65 1 3 -0.0559 14.7918 8.54005 0.580159
66 1 3 -0.0559 21.7402 12.5517 14.334
67 1 3 -0.055903 22.7229 13.1191 13.5316
68 1 3 -0.055903 13.8091 7.97268 1.38254
69 1 3 -0.0559 21.7402 3.39366 7.85825
70 1 3 -0.0559 14.7918 17.6981 7.05587
71 1 3 -0.055903 13.8091 17.1307 7.85825
72 1 3 -0.055903 22.7229 3.96103 7.05587
73 1 3 -0.055901 22.7229 17.1307 7.85825
74 1 3 -0.055901 13.8091 3.96103 7.05587
75 1 3 -0.055903 14.7918 3.39366 7.85825
76 1 3 -0.055903 21.7402 17.6981 7.05587
77 1 3 -0.0559 21.7402 8.54005 0.580159
78 1 3 -0.0559 14.7918 12.5517 14.334
79 1 3 -0.055903 13.8091 13.1191 13.5316
80 1 3 -0.055903 22.7229 7.97268 1.38254
81 1 4 -1.26215 27.399 15.8188 11.1856
82 1 4 -1.26215 9.13299 5.27293 3.72853
83 1 4 -0.60118 27.399 18.9383 11.9641
84 1 4 -0.60118 9.13299 2.15347 2.95001
85 1 4 -0.601179 27.399 17.5926 13.8671
86 1 4 -0.601179 9.13299 3.49912 1.04697
87 1 4 -0.601179 26.2336 13.3722 9.45555
88 1 4 -0.601179 10.2984 7.71958 5.45857
89 1 4 -0.60118 28.5643 13.3722 9.45555
90 1 4 -0.60118 7.96762 7.71958 5.45857
91 1 4 -0.60118 25.8628 14.9319 13.8671
92 1 4 -0.60118 10.6692 6.15984 1.04697
93 1 4 -0.601179 24.6974 14.2591 11.9641
94 1 4 -0.601179 11.8345 6.83267 2.95001
95 1 4 -0.60118 28.9351 18.0514 9.45555
96 1 4 -0.60118 7.59682 3.04037 5.45857
97 1 4 -0.601179 30.1005 16.0329 9.45555
98 1 4 -0.601179 6.43145 5.05885 5.45857
99 1 4 -0.601179 24.6974 16.0329 9.45555
100 1 4 -0.601179 11.8345 5.05885 5.45857
101 1 4 -0.60118 25.8628 18.0514 9.45555
102 1 4 -0.60118 10.6692 3.04037 5.45857
103 1 4 -0.60118 28.9351 14.9319 13.8671
104 1 4 -0.60118 7.59682 6.15984 1.04697
105 1 4 -0.60118 30.1005 14.2591 11.9641
106 1 4 -0.60118 6.43145 6.83267 2.95001
107 2 5 -0.35 6.03632 3.80453 2.72573
108 2 6 0.7 4.9043 3.65216 2.92804
109 2 5 -0.35 3.77229 3.4998 3.13036
113 4 5 -0.35 15.4258 8.6599 14.7675
114 4 6 0.7 15.3562 8.95093 13.6467
115 4 5 -0.35 15.2865 9.24195 12.526
116 5 5 -0.35 12.7872 14.0802 4.80377
117 5 6 0.7 12.2752 15.0112 5.26912
118 5 5 -0.35 11.7632 15.9423 5.73448
ITEM: TIMESTEP
58000
ITEM: NUMBER OF ATOMS
115
ITEM: BOX BOUNDS xy xz yz pp pp pp
0.0000000000000000e+00 3.6531964750000000e+01 9.1329911900000003e+00
0.0000000000000000e+00 2.1091739680000000e+01 9.1329911900000003e+00
0.0000000000000000e+00 1.4914112149999999e+01 5.2729349200000000e+00
ITEM: ATOMS id mol type q x y z
1 1 1 1.10383 27.399 17.6496 10.5383
2 1 1 1.10383 9.13299 3.44217 4.3758
3 1 1 1.10383 27.399 15.8188 13.1274
4 1 1 1.10383 9.13299 5.27293 1.78671
5 1 1 1.10383 25.8135 14.9034 10.5383
6 1 1 1.10383 10.7185 6.18832 4.3758
7 1 1 1.10383 28.9845 14.9034 10.5383
8 1 1 1.10383 7.5475 6.18832 4.3758
9 1 2 0.115889 18.266 5.48596 12.6084
10 1 2 0.115889 18.266 15.6058 2.30572
11 1 2 0.115888 18.266 13.716 0.969417
12 1 2 0.115888 18.266 7.37578 13.9447
13 1 2 0.11589 25.3934 11.4908 8.12521
14 1 2 0.11589 11.1386 9.60096 6.7889
15 1 2 0.115888 11.1386 11.4908 8.12521
16 1 2 0.115888 25.3934 9.60096 6.7889
17 1 2 0.115889 15.5206 8.96083 0.969417
18 1 2 0.115889 21.0114 12.1309 13.9447
19 1 2 0.115888 22.648 13.0758 12.6084
20 1 2 0.115888 13.884 8.01592 2.30572
21 1 2 0.115889 21.0114 3.90092 8.12521
22 1 2 0.115889 15.5206 17.1908 6.7889
23 1 2 0.115887 13.884 16.2459 8.12521
24 1 2 0.115887 22.648 4.84583 6.7889
25 1 2 0.115889 22.648 16.2459 8.12521
26 1 2 0.115889 13.884 4.84583 6.7889
27 1 2 0.115887 15.5206 3.90092 8.12521
28 1 2 0.115887 21.0114 17.1908 6.7889
29 1 2 0.115889 21.0114 8.96083 0.969417
30 1 2 0.115889 15.5206 12.1309 13.9447
31 1 2 0.115887 13.884 13.0758 12.6084
32 1 2 0.115887 22.648 8.01592 2.30572
33 1 3 0.671939 27.399 18.7442 13.2542
34 1 3 0.671939 9.13299 2.34751 1.65994
35 1 3 0.671939 27.399 12.8934 9.117
36 1 3 0.671939 9.13299 8.19836 5.79712
37 1 3 0.67194 24.8655 14.3561 13.2542
38 1 3 0.67194 11.6665 6.73565 1.65994
39 1 3 0.67194 29.9325 17.2815 9.117
40 1 3 0.67194 6.5995 3.81022 5.79712
41 1 3 0.67194 24.8655 17.2815 9.117
42 1 3 0.67194 11.6665 3.81022 5.79712
43 1 3 0.67194 29.9325 14.3561 13.2542
44 1 3 0.67194 6.5995 6.73565 1.65994
45 1 3 -0.11508 27.399 19.957 14.1117
46 1 3 -0.11508 9.13299 1.13474 0.802379
47 1 3 -0.11508 27.399 11.6806 8.25944
48 1 3 -0.11508 9.13299 9.41113 6.65468
49 1 3 -0.11508 23.8152 13.7497 14.1117
50 1 3 -0.11508 12.7168 7.34203 0.802379
51 1 3 -0.11508 30.9828 17.8879 8.25944
52 1 3 -0.11508 5.54921 3.20384 6.65468
53 1 3 -0.11508 23.8152 17.8879 8.25944
54 1 3 -0.11508 12.7168 3.20384 6.65468
55 1 3 -0.11508 30.9828 13.7497 14.1117
56 1 3 -0.11508 5.54921 7.34203 0.802379
57 1 3 -0.0559 18.266 5.39949 13.5316
58 1 3 -0.0559 18.266 15.6923 1.38254
59 1 3 -0.055903 18.266 14.5575 0.580159
60 1 3 -0.055903 18.266 6.53422 14.334
61 1 3 -0.0559 26.1971 11.1132 7.85825
62 1 3 -0.0559 10.3349 9.9785 7.05587
63 1 3 -0.055903 10.3349 11.1132 7.85825
64 1 3 -0.055903 26.1971 9.9785 7.05587
65 1 3 -0.0559 14.7918 8.54005 0.580159
66 1 3 -0.0559 21.7402 12.5517 14.334
67 1 3 -0.055903 22.7229 13.1191 13.5316
68 1 3 -0.055903 13.8091 7.97268 1.38254
69 1 3 -0.0559 21.7402 3.39366 7.85825
70 1 3 -0.0559 14.7918 17.6981 7.05587
71 1 3 -0.055903 13.8091 17.1307 7.85825
72 1 3 -0.055903 22.7229 3.96103 7.05587
73 1 3 -0.055901 22.7229 17.1307 7.85825
74 1 3 -0.055901 13.8091 3.96103 7.05587
75 1 3 -0.055903 14.7918 3.39366 7.85825
76 1 3 -0.055903 21.7402 17.6981 7.05587
77 1 3 -0.0559 21.7402 8.54005 0.580159
78 1 3 -0.0559 14.7918 12.5517 14.334
79 1 3 -0.055903 13.8091 13.1191 13.5316
80 1 3 -0.055903 22.7229 7.97268 1.38254
81 1 4 -1.26215 27.399 15.8188 11.1856
82 1 4 -1.26215 9.13299 5.27293 3.72853
83 1 4 -0.60118 27.399 18.9383 11.9641
84 1 4 -0.60118 9.13299 2.15347 2.95001
85 1 4 -0.601179 27.399 17.5926 13.8671
86 1 4 -0.601179 9.13299 3.49912 1.04697
87 1 4 -0.601179 26.2336 13.3722 9.45555
88 1 4 -0.601179 10.2984 7.71958 5.45857
89 1 4 -0.60118 28.5643 13.3722 9.45555
90 1 4 -0.60118 7.96762 7.71958 5.45857
91 1 4 -0.60118 25.8628 14.9319 13.8671
92 1 4 -0.60118 10.6692 6.15984 1.04697
93 1 4 -0.601179 24.6974 14.2591 11.9641
94 1 4 -0.601179 11.8345 6.83267 2.95001
95 1 4 -0.60118 28.9351 18.0514 9.45555
96 1 4 -0.60118 7.59682 3.04037 5.45857
97 1 4 -0.601179 30.1005 16.0329 9.45555
98 1 4 -0.601179 6.43145 5.05885 5.45857
99 1 4 -0.601179 24.6974 16.0329 9.45555
100 1 4 -0.601179 11.8345 5.05885 5.45857
101 1 4 -0.60118 25.8628 18.0514 9.45555
102 1 4 -0.60118 10.6692 3.04037 5.45857
103 1 4 -0.60118 28.9351 14.9319 13.8671
104 1 4 -0.60118 7.59682 6.15984 1.04697
105 1 4 -0.60118 30.1005 14.2591 11.9641
106 1 4 -0.60118 6.43145 6.83267 2.95001
107 2 5 -0.35 12.3239 9.96515 4.52573
108 2 6 0.7 11.3229 10.2689 4.02423
109 2 5 -0.35 10.322 10.5726 3.52274
110 3 5 -0.35 21.8207 10.1499 5.53797
111 3 6 0.7 21.0306 9.60104 4.88972
112 3 5 -0.35 20.2406 9.05219 4.24147
113 4 5 -0.35 15.3158 6.56085 14.2364
114 4 6 0.7 15.4091 6.87518 13.1237
115 4 5 -0.35 15.5023 7.18951 12.011
ITEM: TIMESTEP
59000
ITEM: NUMBER OF ATOMS
112
ITEM: BOX BOUNDS xy xz yz pp pp pp
0.0000000000000000e+00 3.6531964750000000e+01 9.1329911900000003e+00
0.0000000000000000e+00 2.1091739680000000e+01 9.1329911900000003e+00
0.0000000000000000e+00 1.4914112149999999e+01 5.2729349200000000e+00
ITEM: ATOMS id mol type q x y z
1 1 1 1.10383 27.399 17.6496 10.5383
2 1 1 1.10383 9.13299 3.44217 4.3758
3 1 1 1.10383 27.399 15.8188 13.1274
4 1 1 1.10383 9.13299 5.27293 1.78671
5 1 1 1.10383 25.8135 14.9034 10.5383
6 1 1 1.10383 10.7185 6.18832 4.3758
7 1 1 1.10383 28.9845 14.9034 10.5383
8 1 1 1.10383 7.5475 6.18832 4.3758
9 1 2 0.115889 18.266 5.48596 12.6084
10 1 2 0.115889 18.266 15.6058 2.30572
11 1 2 0.115888 18.266 13.716 0.969417
12 1 2 0.115888 18.266 7.37578 13.9447
13 1 2 0.11589 25.3934 11.4908 8.12521
14 1 2 0.11589 11.1386 9.60096 6.7889
15 1 2 0.115888 11.1386 11.4908 8.12521
16 1 2 0.115888 25.3934 9.60096 6.7889
17 1 2 0.115889 15.5206 8.96083 0.969417
18 1 2 0.115889 21.0114 12.1309 13.9447
19 1 2 0.115888 22.648 13.0758 12.6084
20 1 2 0.115888 13.884 8.01592 2.30572
21 1 2 0.115889 21.0114 3.90092 8.12521
22 1 2 0.115889 15.5206 17.1908 6.7889
23 1 2 0.115887 13.884 16.2459 8.12521
24 1 2 0.115887 22.648 4.84583 6.7889
25 1 2 0.115889 22.648 16.2459 8.12521
26 1 2 0.115889 13.884 4.84583 6.7889
27 1 2 0.115887 15.5206 3.90092 8.12521
28 1 2 0.115887 21.0114 17.1908 6.7889
29 1 2 0.115889 21.0114 8.96083 0.969417
30 1 2 0.115889 15.5206 12.1309 13.9447
31 1 2 0.115887 13.884 13.0758 12.6084
32 1 2 0.115887 22.648 8.01592 2.30572
33 1 3 0.671939 27.399 18.7442 13.2542
34 1 3 0.671939 9.13299 2.34751 1.65994
35 1 3 0.671939 27.399 12.8934 9.117
36 1 3 0.671939 9.13299 8.19836 5.79712
37 1 3 0.67194 24.8655 14.3561 13.2542
38 1 3 0.67194 11.6665 6.73565 1.65994
39 1 3 0.67194 29.9325 17.2815 9.117
40 1 3 0.67194 6.5995 3.81022 5.79712
41 1 3 0.67194 24.8655 17.2815 9.117
42 1 3 0.67194 11.6665 3.81022 5.79712
43 1 3 0.67194 29.9325 14.3561 13.2542
44 1 3 0.67194 6.5995 6.73565 1.65994
45 1 3 -0.11508 27.399 19.957 14.1117
46 1 3 -0.11508 9.13299 1.13474 0.802379
47 1 3 -0.11508 27.399 11.6806 8.25944
48 1 3 -0.11508 9.13299 9.41113 6.65468
49 1 3 -0.11508 23.8152 13.7497 14.1117
50 1 3 -0.11508 12.7168 7.34203 0.802379
51 1 3 -0.11508 30.9828 17.8879 8.25944
52 1 3 -0.11508 5.54921 3.20384 6.65468
53 1 3 -0.11508 23.8152 17.8879 8.25944
54 1 3 -0.11508 12.7168 3.20384 6.65468
55 1 3 -0.11508 30.9828 13.7497 14.1117
56 1 3 -0.11508 5.54921 7.34203 0.802379
57 1 3 -0.0559 18.266 5.39949 13.5316
58 1 3 -0.0559 18.266 15.6923 1.38254
59 1 3 -0.055903 18.266 14.5575 0.580159
60 1 3 -0.055903 18.266 6.53422 14.334
61 1 3 -0.0559 26.1971 11.1132 7.85825
62 1 3 -0.0559 10.3349 9.9785 7.05587
63 1 3 -0.055903 10.3349 11.1132 7.85825
64 1 3 -0.055903 26.1971 9.9785 7.05587
65 1 3 -0.0559 14.7918 8.54005 0.580159
66 1 3 -0.0559 21.7402 12.5517 14.334
67 1 3 -0.055903 22.7229 13.1191 13.5316
68 1 3 -0.055903 13.8091 7.97268 1.38254
69 1 3 -0.0559 21.7402 3.39366 7.85825
70 1 3 -0.0559 14.7918 17.6981 7.05587
71 1 3 -0.055903 13.8091 17.1307 7.85825
72 1 3 -0.055903 22.7229 3.96103 7.05587
73 1 3 -0.055901 22.7229 17.1307 7.85825
74 1 3 -0.055901 13.8091 3.96103 7.05587
75 1 3 -0.055903 14.7918 3.39366 7.85825
76 1 3 -0.055903 21.7402 17.6981 7.05587
77 1 3 -0.0559 21.7402 8.54005 0.580159
78 1 3 -0.0559 14.7918 12.5517 14.334
79 1 3 -0.055903 13.8091 13.1191 13.5316
80 1 3 -0.055903 22.7229 7.97268 1.38254
81 1 4 -1.26215 27.399 15.8188 11.1856
82 1 4 -1.26215 9.13299 5.27293 3.72853
83 1 4 -0.60118 27.399 18.9383 11.9641
84 1 4 -0.60118 9.13299 2.15347 2.95001
85 1 4 -0.601179 27.399 17.5926 13.8671
86 1 4 -0.601179 9.13299 3.49912 1.04697
87 1 4 -0.601179 26.2336 13.3722 9.45555
88 1 4 -0.601179 10.2984 7.71958 5.45857
89 1 4 -0.60118 28.5643 13.3722 9.45555
90 1 4 -0.60118 7.96762 7.71958 5.45857
91 1 4 -0.60118 25.8628 14.9319 13.8671
92 1 4 -0.60118 10.6692 6.15984 1.04697
93 1 4 -0.601179 24.6974 14.2591 11.9641
94 1 4 -0.601179 11.8345 6.83267 2.95001
95 1 4 -0.60118 28.9351 18.0514 9.45555
96 1 4 -0.60118 7.59682 3.04037 5.45857
97 1 4 -0.601179 30.1005 16.0329 9.45555
98 1 4 -0.601179 6.43145 5.05885 5.45857
99 1 4 -0.601179 24.6974 16.0329 9.45555
100 1 4 -0.601179 11.8345 5.05885 5.45857
101 1 4 -0.60118 25.8628 18.0514 9.45555
102 1 4 -0.60118 10.6692 3.04037 5.45857
103 1 4 -0.60118 28.9351 14.9319 13.8671
104 1 4 -0.60118 7.59682 6.15984 1.04697
105 1 4 -0.60118 30.1005 14.2591 11.9641
106 1 4 -0.60118 6.43145 6.83267 2.95001
110 3 5 -0.35 14.2198 6.95902 5.29527
111 3 6 0.7 14.364 6.12831 4.49858
112 3 5 -0.35 14.5083 5.2976 3.70188
113 4 5 -0.35 13.1587 1.26359 3.25475
114 4 6 0.7 21.6726 16.1032 3.31426
115 4 5 -0.35 21.0535 15.1241 3.37376
ITEM: TIMESTEP
60000
ITEM: NUMBER OF ATOMS
109
ITEM: BOX BOUNDS xy xz yz pp pp pp
0.0000000000000000e+00 3.6531964750000000e+01 9.1329911900000003e+00
0.0000000000000000e+00 2.1091739680000000e+01 9.1329911900000003e+00
0.0000000000000000e+00 1.4914112149999999e+01 5.2729349200000000e+00
ITEM: ATOMS id mol type q x y z
1 1 1 1.10383 27.399 17.6496 10.5383
2 1 1 1.10383 9.13299 3.44217 4.3758
3 1 1 1.10383 27.399 15.8188 13.1274
4 1 1 1.10383 9.13299 5.27293 1.78671
5 1 1 1.10383 25.8135 14.9034 10.5383
6 1 1 1.10383 10.7185 6.18832 4.3758
7 1 1 1.10383 28.9845 14.9034 10.5383
8 1 1 1.10383 7.5475 6.18832 4.3758
9 1 2 0.115889 18.266 5.48596 12.6084
10 1 2 0.115889 18.266 15.6058 2.30572
11 1 2 0.115888 18.266 13.716 0.969417
12 1 2 0.115888 18.266 7.37578 13.9447
13 1 2 0.11589 25.3934 11.4908 8.12521
14 1 2 0.11589 11.1386 9.60096 6.7889
15 1 2 0.115888 11.1386 11.4908 8.12521
16 1 2 0.115888 25.3934 9.60096 6.7889
17 1 2 0.115889 15.5206 8.96083 0.969417
18 1 2 0.115889 21.0114 12.1309 13.9447
19 1 2 0.115888 22.648 13.0758 12.6084
20 1 2 0.115888 13.884 8.01592 2.30572
21 1 2 0.115889 21.0114 3.90092 8.12521
22 1 2 0.115889 15.5206 17.1908 6.7889
23 1 2 0.115887 13.884 16.2459 8.12521
24 1 2 0.115887 22.648 4.84583 6.7889
25 1 2 0.115889 22.648 16.2459 8.12521
26 1 2 0.115889 13.884 4.84583 6.7889
27 1 2 0.115887 15.5206 3.90092 8.12521
28 1 2 0.115887 21.0114 17.1908 6.7889
29 1 2 0.115889 21.0114 8.96083 0.969417
30 1 2 0.115889 15.5206 12.1309 13.9447
31 1 2 0.115887 13.884 13.0758 12.6084
32 1 2 0.115887 22.648 8.01592 2.30572
33 1 3 0.671939 27.399 18.7442 13.2542
34 1 3 0.671939 9.13299 2.34751 1.65994
35 1 3 0.671939 27.399 12.8934 9.117
36 1 3 0.671939 9.13299 8.19836 5.79712
37 1 3 0.67194 24.8655 14.3561 13.2542
38 1 3 0.67194 11.6665 6.73565 1.65994
39 1 3 0.67194 29.9325 17.2815 9.117
40 1 3 0.67194 6.5995 3.81022 5.79712
41 1 3 0.67194 24.8655 17.2815 9.117
42 1 3 0.67194 11.6665 3.81022 5.79712
43 1 3 0.67194 29.9325 14.3561 13.2542
44 1 3 0.67194 6.5995 6.73565 1.65994
45 1 3 -0.11508 27.399 19.957 14.1117
46 1 3 -0.11508 9.13299 1.13474 0.802379
47 1 3 -0.11508 27.399 11.6806 8.25944
48 1 3 -0.11508 9.13299 9.41113 6.65468
49 1 3 -0.11508 23.8152 13.7497 14.1117
50 1 3 -0.11508 12.7168 7.34203 0.802379
51 1 3 -0.11508 30.9828 17.8879 8.25944
52 1 3 -0.11508 5.54921 3.20384 6.65468
53 1 3 -0.11508 23.8152 17.8879 8.25944
54 1 3 -0.11508 12.7168 3.20384 6.65468
55 1 3 -0.11508 30.9828 13.7497 14.1117
56 1 3 -0.11508 5.54921 7.34203 0.802379
57 1 3 -0.0559 18.266 5.39949 13.5316
58 1 3 -0.0559 18.266 15.6923 1.38254
59 1 3 -0.055903 18.266 14.5575 0.580159
60 1 3 -0.055903 18.266 6.53422 14.334
61 1 3 -0.0559 26.1971 11.1132 7.85825
62 1 3 -0.0559 10.3349 9.9785 7.05587
63 1 3 -0.055903 10.3349 11.1132 7.85825
64 1 3 -0.055903 26.1971 9.9785 7.05587
65 1 3 -0.0559 14.7918 8.54005 0.580159
66 1 3 -0.0559 21.7402 12.5517 14.334
67 1 3 -0.055903 22.7229 13.1191 13.5316
68 1 3 -0.055903 13.8091 7.97268 1.38254
69 1 3 -0.0559 21.7402 3.39366 7.85825
70 1 3 -0.0559 14.7918 17.6981 7.05587
71 1 3 -0.055903 13.8091 17.1307 7.85825
72 1 3 -0.055903 22.7229 3.96103 7.05587
73 1 3 -0.055901 22.7229 17.1307 7.85825
74 1 3 -0.055901 13.8091 3.96103 7.05587
75 1 3 -0.055903 14.7918 3.39366 7.85825
76 1 3 -0.055903 21.7402 17.6981 7.05587
77 1 3 -0.0559 21.7402 8.54005 0.580159
78 1 3 -0.0559 14.7918 12.5517 14.334
79 1 3 -0.055903 13.8091 13.1191 13.5316
80 1 3 -0.055903 22.7229 7.97268 1.38254
81 1 4 -1.26215 27.399 15.8188 11.1856
82 1 4 -1.26215 9.13299 5.27293 3.72853
83 1 4 -0.60118 27.399 18.9383 11.9641
84 1 4 -0.60118 9.13299 2.15347 2.95001
85 1 4 -0.601179 27.399 17.5926 13.8671
86 1 4 -0.601179 9.13299 3.49912 1.04697
87 1 4 -0.601179 26.2336 13.3722 9.45555
88 1 4 -0.601179 10.2984 7.71958 5.45857
89 1 4 -0.60118 28.5643 13.3722 9.45555
90 1 4 -0.60118 7.96762 7.71958 5.45857
91 1 4 -0.60118 25.8628 14.9319 13.8671
92 1 4 -0.60118 10.6692 6.15984 1.04697
93 1 4 -0.601179 24.6974 14.2591 11.9641
94 1 4 -0.601179 11.8345 6.83267 2.95001
95 1 4 -0.60118 28.9351 18.0514 9.45555
96 1 4 -0.60118 7.59682 3.04037 5.45857
97 1 4 -0.601179 30.1005 16.0329 9.45555
98 1 4 -0.601179 6.43145 5.05885 5.45857
99 1 4 -0.601179 24.6974 16.0329 9.45555
100 1 4 -0.601179 11.8345 5.05885 5.45857
101 1 4 -0.60118 25.8628 18.0514 9.45555
102 1 4 -0.60118 10.6692 3.04037 5.45857
103 1 4 -0.60118 28.9351 14.9319 13.8671
104 1 4 -0.60118 7.59682 6.15984 1.04697
105 1 4 -0.60118 30.1005 14.2591 11.9641
106 1 4 -0.60118 6.43145 6.83267 2.95001
113 4 5 -0.35 12.3204 3.27772 2.24327
114 4 6 0.7 12.6899 3.37457 1.14794
115 4 5 -0.35 13.0593 3.47141 0.0526089
ITEM: TIMESTEP
61000
ITEM: NUMBER OF ATOMS
109
ITEM: BOX BOUNDS xy xz yz pp pp pp
0.0000000000000000e+00 3.6531964750000000e+01 9.1329911900000003e+00
0.0000000000000000e+00 2.1091739680000000e+01 9.1329911900000003e+00
0.0000000000000000e+00 1.4914112149999999e+01 5.2729349200000000e+00
ITEM: ATOMS id mol type q x y z
1 1 1 1.10383 27.399 17.6496 10.5383
2 1 1 1.10383 9.13299 3.44217 4.3758
3 1 1 1.10383 27.399 15.8188 13.1274
4 1 1 1.10383 9.13299 5.27293 1.78671
5 1 1 1.10383 25.8135 14.9034 10.5383
6 1 1 1.10383 10.7185 6.18832 4.3758
7 1 1 1.10383 28.9845 14.9034 10.5383
8 1 1 1.10383 7.5475 6.18832 4.3758
9 1 2 0.115889 18.266 5.48596 12.6084
10 1 2 0.115889 18.266 15.6058 2.30572
11 1 2 0.115888 18.266 13.716 0.969417
12 1 2 0.115888 18.266 7.37578 13.9447
13 1 2 0.11589 25.3934 11.4908 8.12521
14 1 2 0.11589 11.1386 9.60096 6.7889
15 1 2 0.115888 11.1386 11.4908 8.12521
16 1 2 0.115888 25.3934 9.60096 6.7889
17 1 2 0.115889 15.5206 8.96083 0.969417
18 1 2 0.115889 21.0114 12.1309 13.9447
19 1 2 0.115888 22.648 13.0758 12.6084
20 1 2 0.115888 13.884 8.01592 2.30572
21 1 2 0.115889 21.0114 3.90092 8.12521
22 1 2 0.115889 15.5206 17.1908 6.7889
23 1 2 0.115887 13.884 16.2459 8.12521
24 1 2 0.115887 22.648 4.84583 6.7889
25 1 2 0.115889 22.648 16.2459 8.12521
26 1 2 0.115889 13.884 4.84583 6.7889
27 1 2 0.115887 15.5206 3.90092 8.12521
28 1 2 0.115887 21.0114 17.1908 6.7889
29 1 2 0.115889 21.0114 8.96083 0.969417
30 1 2 0.115889 15.5206 12.1309 13.9447
31 1 2 0.115887 13.884 13.0758 12.6084
32 1 2 0.115887 22.648 8.01592 2.30572
33 1 3 0.671939 27.399 18.7442 13.2542
34 1 3 0.671939 9.13299 2.34751 1.65994
35 1 3 0.671939 27.399 12.8934 9.117
36 1 3 0.671939 9.13299 8.19836 5.79712
37 1 3 0.67194 24.8655 14.3561 13.2542
38 1 3 0.67194 11.6665 6.73565 1.65994
39 1 3 0.67194 29.9325 17.2815 9.117
40 1 3 0.67194 6.5995 3.81022 5.79712
41 1 3 0.67194 24.8655 17.2815 9.117
42 1 3 0.67194 11.6665 3.81022 5.79712
43 1 3 0.67194 29.9325 14.3561 13.2542
44 1 3 0.67194 6.5995 6.73565 1.65994
45 1 3 -0.11508 27.399 19.957 14.1117
46 1 3 -0.11508 9.13299 1.13474 0.802379
47 1 3 -0.11508 27.399 11.6806 8.25944
48 1 3 -0.11508 9.13299 9.41113 6.65468
49 1 3 -0.11508 23.8152 13.7497 14.1117
50 1 3 -0.11508 12.7168 7.34203 0.802379
51 1 3 -0.11508 30.9828 17.8879 8.25944
52 1 3 -0.11508 5.54921 3.20384 6.65468
53 1 3 -0.11508 23.8152 17.8879 8.25944
54 1 3 -0.11508 12.7168 3.20384 6.65468
55 1 3 -0.11508 30.9828 13.7497 14.1117
56 1 3 -0.11508 5.54921 7.34203 0.802379
57 1 3 -0.0559 18.266 5.39949 13.5316
58 1 3 -0.0559 18.266 15.6923 1.38254
59 1 3 -0.055903 18.266 14.5575 0.580159
60 1 3 -0.055903 18.266 6.53422 14.334
61 1 3 -0.0559 26.1971 11.1132 7.85825
62 1 3 -0.0559 10.3349 9.9785 7.05587
63 1 3 -0.055903 10.3349 11.1132 7.85825
64 1 3 -0.055903 26.1971 9.9785 7.05587
65 1 3 -0.0559 14.7918 8.54005 0.580159
66 1 3 -0.0559 21.7402 12.5517 14.334
67 1 3 -0.055903 22.7229 13.1191 13.5316
68 1 3 -0.055903 13.8091 7.97268 1.38254
69 1 3 -0.0559 21.7402 3.39366 7.85825
70 1 3 -0.0559 14.7918 17.6981 7.05587
71 1 3 -0.055903 13.8091 17.1307 7.85825
72 1 3 -0.055903 22.7229 3.96103 7.05587
73 1 3 -0.055901 22.7229 17.1307 7.85825
74 1 3 -0.055901 13.8091 3.96103 7.05587
75 1 3 -0.055903 14.7918 3.39366 7.85825
76 1 3 -0.055903 21.7402 17.6981 7.05587
77 1 3 -0.0559 21.7402 8.54005 0.580159
78 1 3 -0.0559 14.7918 12.5517 14.334
79 1 3 -0.055903 13.8091 13.1191 13.5316
80 1 3 -0.055903 22.7229 7.97268 1.38254
81 1 4 -1.26215 27.399 15.8188 11.1856
82 1 4 -1.26215 9.13299 5.27293 3.72853
83 1 4 -0.60118 27.399 18.9383 11.9641
84 1 4 -0.60118 9.13299 2.15347 2.95001
85 1 4 -0.601179 27.399 17.5926 13.8671
86 1 4 -0.601179 9.13299 3.49912 1.04697
87 1 4 -0.601179 26.2336 13.3722 9.45555
88 1 4 -0.601179 10.2984 7.71958 5.45857
89 1 4 -0.60118 28.5643 13.3722 9.45555
90 1 4 -0.60118 7.96762 7.71958 5.45857
91 1 4 -0.60118 25.8628 14.9319 13.8671
92 1 4 -0.60118 10.6692 6.15984 1.04697
93 1 4 -0.601179 24.6974 14.2591 11.9641
94 1 4 -0.601179 11.8345 6.83267 2.95001
95 1 4 -0.60118 28.9351 18.0514 9.45555
96 1 4 -0.60118 7.59682 3.04037 5.45857
97 1 4 -0.601179 30.1005 16.0329 9.45555
98 1 4 -0.601179 6.43145 5.05885 5.45857
99 1 4 -0.601179 24.6974 16.0329 9.45555
100 1 4 -0.601179 11.8345 5.05885 5.45857
101 1 4 -0.60118 25.8628 18.0514 9.45555
102 1 4 -0.60118 10.6692 3.04037 5.45857
103 1 4 -0.60118 28.9351 14.9319 13.8671
104 1 4 -0.60118 7.59682 6.15984 1.04697
105 1 4 -0.60118 30.1005 14.2591 11.9641
106 1 4 -0.60118 6.43145 6.83267 2.95001
107 2 5 -0.35 15.4738 8.79443 10.5553
108 2 6 0.7 14.6834 8.07942 10.0974
109 2 5 -0.35 13.893 7.3644 9.63949
ITEM: TIMESTEP
62000
ITEM: NUMBER OF ATOMS
106
ITEM: BOX BOUNDS xy xz yz pp pp pp
0.0000000000000000e+00 3.6531964750000000e+01 9.1329911900000003e+00
0.0000000000000000e+00 2.1091739680000000e+01 9.1329911900000003e+00
0.0000000000000000e+00 1.4914112149999999e+01 5.2729349200000000e+00
ITEM: ATOMS id mol type q x y z
1 1 1 1.10383 27.399 17.6496 10.5383
2 1 1 1.10383 9.13299 3.44217 4.3758
3 1 1 1.10383 27.399 15.8188 13.1274
4 1 1 1.10383 9.13299 5.27293 1.78671
5 1 1 1.10383 25.8135 14.9034 10.5383
6 1 1 1.10383 10.7185 6.18832 4.3758
7 1 1 1.10383 28.9845 14.9034 10.5383
8 1 1 1.10383 7.5475 6.18832 4.3758
9 1 2 0.115889 18.266 5.48596 12.6084
10 1 2 0.115889 18.266 15.6058 2.30572
11 1 2 0.115888 18.266 13.716 0.969417
12 1 2 0.115888 18.266 7.37578 13.9447
13 1 2 0.11589 25.3934 11.4908 8.12521
14 1 2 0.11589 11.1386 9.60096 6.7889
15 1 2 0.115888 11.1386 11.4908 8.12521
16 1 2 0.115888 25.3934 9.60096 6.7889
17 1 2 0.115889 15.5206 8.96083 0.969417
18 1 2 0.115889 21.0114 12.1309 13.9447
19 1 2 0.115888 22.648 13.0758 12.6084
20 1 2 0.115888 13.884 8.01592 2.30572
21 1 2 0.115889 21.0114 3.90092 8.12521
22 1 2 0.115889 15.5206 17.1908 6.7889
23 1 2 0.115887 13.884 16.2459 8.12521
24 1 2 0.115887 22.648 4.84583 6.7889
25 1 2 0.115889 22.648 16.2459 8.12521
26 1 2 0.115889 13.884 4.84583 6.7889
27 1 2 0.115887 15.5206 3.90092 8.12521
28 1 2 0.115887 21.0114 17.1908 6.7889
29 1 2 0.115889 21.0114 8.96083 0.969417
30 1 2 0.115889 15.5206 12.1309 13.9447
31 1 2 0.115887 13.884 13.0758 12.6084
32 1 2 0.115887 22.648 8.01592 2.30572
33 1 3 0.671939 27.399 18.7442 13.2542
34 1 3 0.671939 9.13299 2.34751 1.65994
35 1 3 0.671939 27.399 12.8934 9.117
36 1 3 0.671939 9.13299 8.19836 5.79712
37 1 3 0.67194 24.8655 14.3561 13.2542
38 1 3 0.67194 11.6665 6.73565 1.65994
39 1 3 0.67194 29.9325 17.2815 9.117
40 1 3 0.67194 6.5995 3.81022 5.79712
41 1 3 0.67194 24.8655 17.2815 9.117
42 1 3 0.67194 11.6665 3.81022 5.79712
43 1 3 0.67194 29.9325 14.3561 13.2542
44 1 3 0.67194 6.5995 6.73565 1.65994
45 1 3 -0.11508 27.399 19.957 14.1117
46 1 3 -0.11508 9.13299 1.13474 0.802379
47 1 3 -0.11508 27.399 11.6806 8.25944
48 1 3 -0.11508 9.13299 9.41113 6.65468
49 1 3 -0.11508 23.8152 13.7497 14.1117
50 1 3 -0.11508 12.7168 7.34203 0.802379
51 1 3 -0.11508 30.9828 17.8879 8.25944
52 1 3 -0.11508 5.54921 3.20384 6.65468
53 1 3 -0.11508 23.8152 17.8879 8.25944
54 1 3 -0.11508 12.7168 3.20384 6.65468
55 1 3 -0.11508 30.9828 13.7497 14.1117
56 1 3 -0.11508 5.54921 7.34203 0.802379
57 1 3 -0.0559 18.266 5.39949 13.5316
58 1 3 -0.0559 18.266 15.6923 1.38254
59 1 3 -0.055903 18.266 14.5575 0.580159
60 1 3 -0.055903 18.266 6.53422 14.334
61 1 3 -0.0559 26.1971 11.1132 7.85825
62 1 3 -0.0559 10.3349 9.9785 7.05587
63 1 3 -0.055903 10.3349 11.1132 7.85825
64 1 3 -0.055903 26.1971 9.9785 7.05587
65 1 3 -0.0559 14.7918 8.54005 0.580159
66 1 3 -0.0559 21.7402 12.5517 14.334
67 1 3 -0.055903 22.7229 13.1191 13.5316
68 1 3 -0.055903 13.8091 7.97268 1.38254
69 1 3 -0.0559 21.7402 3.39366 7.85825
70 1 3 -0.0559 14.7918 17.6981 7.05587
71 1 3 -0.055903 13.8091 17.1307 7.85825
72 1 3 -0.055903 22.7229 3.96103 7.05587
73 1 3 -0.055901 22.7229 17.1307 7.85825
74 1 3 -0.055901 13.8091 3.96103 7.05587
75 1 3 -0.055903 14.7918 3.39366 7.85825
76 1 3 -0.055903 21.7402 17.6981 7.05587
77 1 3 -0.0559 21.7402 8.54005 0.580159
78 1 3 -0.0559 14.7918 12.5517 14.334
79 1 3 -0.055903 13.8091 13.1191 13.5316
80 1 3 -0.055903 22.7229 7.97268 1.38254
81 1 4 -1.26215 27.399 15.8188 11.1856
82 1 4 -1.26215 9.13299 5.27293 3.72853
83 1 4 -0.60118 27.399 18.9383 11.9641
84 1 4 -0.60118 9.13299 2.15347 2.95001
85 1 4 -0.601179 27.399 17.5926 13.8671
86 1 4 -0.601179 9.13299 3.49912 1.04697
87 1 4 -0.601179 26.2336 13.3722 9.45555
88 1 4 -0.601179 10.2984 7.71958 5.45857
89 1 4 -0.60118 28.5643 13.3722 9.45555
90 1 4 -0.60118 7.96762 7.71958 5.45857
91 1 4 -0.60118 25.8628 14.9319 13.8671
92 1 4 -0.60118 10.6692 6.15984 1.04697
93 1 4 -0.601179 24.6974 14.2591 11.9641
94 1 4 -0.601179 11.8345 6.83267 2.95001
95 1 4 -0.60118 28.9351 18.0514 9.45555
96 1 4 -0.60118 7.59682 3.04037 5.45857
97 1 4 -0.601179 30.1005 16.0329 9.45555
98 1 4 -0.601179 6.43145 5.05885 5.45857
99 1 4 -0.601179 24.6974 16.0329 9.45555
100 1 4 -0.601179 11.8345 5.05885 5.45857
101 1 4 -0.60118 25.8628 18.0514 9.45555
102 1 4 -0.60118 10.6692 3.04037 5.45857
103 1 4 -0.60118 28.9351 14.9319 13.8671
104 1 4 -0.60118 7.59682 6.15984 1.04697
105 1 4 -0.60118 30.1005 14.2591 11.9641
106 1 4 -0.60118 6.43145 6.83267 2.95001
ITEM: TIMESTEP
63000
ITEM: NUMBER OF ATOMS
106
ITEM: BOX BOUNDS xy xz yz pp pp pp
0.0000000000000000e+00 3.6531964750000000e+01 9.1329911900000003e+00
0.0000000000000000e+00 2.1091739680000000e+01 9.1329911900000003e+00
0.0000000000000000e+00 1.4914112149999999e+01 5.2729349200000000e+00
ITEM: ATOMS id mol type q x y z
1 1 1 1.10383 27.399 17.6496 10.5383
2 1 1 1.10383 9.13299 3.44217 4.3758
3 1 1 1.10383 27.399 15.8188 13.1274
4 1 1 1.10383 9.13299 5.27293 1.78671
5 1 1 1.10383 25.8135 14.9034 10.5383
6 1 1 1.10383 10.7185 6.18832 4.3758
7 1 1 1.10383 28.9845 14.9034 10.5383
8 1 1 1.10383 7.5475 6.18832 4.3758
9 1 2 0.115889 18.266 5.48596 12.6084
10 1 2 0.115889 18.266 15.6058 2.30572
11 1 2 0.115888 18.266 13.716 0.969417
12 1 2 0.115888 18.266 7.37578 13.9447
13 1 2 0.11589 25.3934 11.4908 8.12521
14 1 2 0.11589 11.1386 9.60096 6.7889
15 1 2 0.115888 11.1386 11.4908 8.12521
16 1 2 0.115888 25.3934 9.60096 6.7889
17 1 2 0.115889 15.5206 8.96083 0.969417
18 1 2 0.115889 21.0114 12.1309 13.9447
19 1 2 0.115888 22.648 13.0758 12.6084
20 1 2 0.115888 13.884 8.01592 2.30572
21 1 2 0.115889 21.0114 3.90092 8.12521
22 1 2 0.115889 15.5206 17.1908 6.7889
23 1 2 0.115887 13.884 16.2459 8.12521
24 1 2 0.115887 22.648 4.84583 6.7889
25 1 2 0.115889 22.648 16.2459 8.12521
26 1 2 0.115889 13.884 4.84583 6.7889
27 1 2 0.115887 15.5206 3.90092 8.12521
28 1 2 0.115887 21.0114 17.1908 6.7889
29 1 2 0.115889 21.0114 8.96083 0.969417
30 1 2 0.115889 15.5206 12.1309 13.9447
31 1 2 0.115887 13.884 13.0758 12.6084
32 1 2 0.115887 22.648 8.01592 2.30572
33 1 3 0.671939 27.399 18.7442 13.2542
34 1 3 0.671939 9.13299 2.34751 1.65994
35 1 3 0.671939 27.399 12.8934 9.117
36 1 3 0.671939 9.13299 8.19836 5.79712
37 1 3 0.67194 24.8655 14.3561 13.2542
38 1 3 0.67194 11.6665 6.73565 1.65994
39 1 3 0.67194 29.9325 17.2815 9.117
40 1 3 0.67194 6.5995 3.81022 5.79712
41 1 3 0.67194 24.8655 17.2815 9.117
42 1 3 0.67194 11.6665 3.81022 5.79712
43 1 3 0.67194 29.9325 14.3561 13.2542
44 1 3 0.67194 6.5995 6.73565 1.65994
45 1 3 -0.11508 27.399 19.957 14.1117
46 1 3 -0.11508 9.13299 1.13474 0.802379
47 1 3 -0.11508 27.399 11.6806 8.25944
48 1 3 -0.11508 9.13299 9.41113 6.65468
49 1 3 -0.11508 23.8152 13.7497 14.1117
50 1 3 -0.11508 12.7168 7.34203 0.802379
51 1 3 -0.11508 30.9828 17.8879 8.25944
52 1 3 -0.11508 5.54921 3.20384 6.65468
53 1 3 -0.11508 23.8152 17.8879 8.25944
54 1 3 -0.11508 12.7168 3.20384 6.65468
55 1 3 -0.11508 30.9828 13.7497 14.1117
56 1 3 -0.11508 5.54921 7.34203 0.802379
57 1 3 -0.0559 18.266 5.39949 13.5316
58 1 3 -0.0559 18.266 15.6923 1.38254
59 1 3 -0.055903 18.266 14.5575 0.580159
60 1 3 -0.055903 18.266 6.53422 14.334
61 1 3 -0.0559 26.1971 11.1132 7.85825
62 1 3 -0.0559 10.3349 9.9785 7.05587
63 1 3 -0.055903 10.3349 11.1132 7.85825
64 1 3 -0.055903 26.1971 9.9785 7.05587
65 1 3 -0.0559 14.7918 8.54005 0.580159
66 1 3 -0.0559 21.7402 12.5517 14.334
67 1 3 -0.055903 22.7229 13.1191 13.5316
68 1 3 -0.055903 13.8091 7.97268 1.38254
69 1 3 -0.0559 21.7402 3.39366 7.85825
70 1 3 -0.0559 14.7918 17.6981 7.05587
71 1 3 -0.055903 13.8091 17.1307 7.85825
72 1 3 -0.055903 22.7229 3.96103 7.05587
73 1 3 -0.055901 22.7229 17.1307 7.85825
74 1 3 -0.055901 13.8091 3.96103 7.05587
75 1 3 -0.055903 14.7918 3.39366 7.85825
76 1 3 -0.055903 21.7402 17.6981 7.05587
77 1 3 -0.0559 21.7402 8.54005 0.580159
78 1 3 -0.0559 14.7918 12.5517 14.334
79 1 3 -0.055903 13.8091 13.1191 13.5316
80 1 3 -0.055903 22.7229 7.97268 1.38254
81 1 4 -1.26215 27.399 15.8188 11.1856
82 1 4 -1.26215 9.13299 5.27293 3.72853
83 1 4 -0.60118 27.399 18.9383 11.9641
84 1 4 -0.60118 9.13299 2.15347 2.95001
85 1 4 -0.601179 27.399 17.5926 13.8671
86 1 4 -0.601179 9.13299 3.49912 1.04697
87 1 4 -0.601179 26.2336 13.3722 9.45555
88 1 4 -0.601179 10.2984 7.71958 5.45857
89 1 4 -0.60118 28.5643 13.3722 9.45555
90 1 4 -0.60118 7.96762 7.71958 5.45857
91 1 4 -0.60118 25.8628 14.9319 13.8671
92 1 4 -0.60118 10.6692 6.15984 1.04697
93 1 4 -0.601179 24.6974 14.2591 11.9641
94 1 4 -0.601179 11.8345 6.83267 2.95001
95 1 4 -0.60118 28.9351 18.0514 9.45555
96 1 4 -0.60118 7.59682 3.04037 5.45857
97 1 4 -0.601179 30.1005 16.0329 9.45555
98 1 4 -0.601179 6.43145 5.05885 5.45857
99 1 4 -0.601179 24.6974 16.0329 9.45555
100 1 4 -0.601179 11.8345 5.05885 5.45857
101 1 4 -0.60118 25.8628 18.0514 9.45555
102 1 4 -0.60118 10.6692 3.04037 5.45857
103 1 4 -0.60118 28.9351 14.9319 13.8671
104 1 4 -0.60118 7.59682 6.15984 1.04697
105 1 4 -0.60118 30.1005 14.2591 11.9641
106 1 4 -0.60118 6.43145 6.83267 2.95001
ITEM: TIMESTEP
64000
ITEM: NUMBER OF ATOMS
106
ITEM: BOX BOUNDS xy xz yz pp pp pp
0.0000000000000000e+00 3.6531964750000000e+01 9.1329911900000003e+00
0.0000000000000000e+00 2.1091739680000000e+01 9.1329911900000003e+00
0.0000000000000000e+00 1.4914112149999999e+01 5.2729349200000000e+00
ITEM: ATOMS id mol type q x y z
1 1 1 1.10383 27.399 17.6496 10.5383
2 1 1 1.10383 9.13299 3.44217 4.3758
3 1 1 1.10383 27.399 15.8188 13.1274
4 1 1 1.10383 9.13299 5.27293 1.78671
5 1 1 1.10383 25.8135 14.9034 10.5383
6 1 1 1.10383 10.7185 6.18832 4.3758
7 1 1 1.10383 28.9845 14.9034 10.5383
8 1 1 1.10383 7.5475 6.18832 4.3758
9 1 2 0.115889 18.266 5.48596 12.6084
10 1 2 0.115889 18.266 15.6058 2.30572
11 1 2 0.115888 18.266 13.716 0.969417
12 1 2 0.115888 18.266 7.37578 13.9447
13 1 2 0.11589 25.3934 11.4908 8.12521
14 1 2 0.11589 11.1386 9.60096 6.7889
15 1 2 0.115888 11.1386 11.4908 8.12521
16 1 2 0.115888 25.3934 9.60096 6.7889
17 1 2 0.115889 15.5206 8.96083 0.969417
18 1 2 0.115889 21.0114 12.1309 13.9447
19 1 2 0.115888 22.648 13.0758 12.6084
20 1 2 0.115888 13.884 8.01592 2.30572
21 1 2 0.115889 21.0114 3.90092 8.12521
22 1 2 0.115889 15.5206 17.1908 6.7889
23 1 2 0.115887 13.884 16.2459 8.12521
24 1 2 0.115887 22.648 4.84583 6.7889
25 1 2 0.115889 22.648 16.2459 8.12521
26 1 2 0.115889 13.884 4.84583 6.7889
27 1 2 0.115887 15.5206 3.90092 8.12521
28 1 2 0.115887 21.0114 17.1908 6.7889
29 1 2 0.115889 21.0114 8.96083 0.969417
30 1 2 0.115889 15.5206 12.1309 13.9447
31 1 2 0.115887 13.884 13.0758 12.6084
32 1 2 0.115887 22.648 8.01592 2.30572
33 1 3 0.671939 27.399 18.7442 13.2542
34 1 3 0.671939 9.13299 2.34751 1.65994
35 1 3 0.671939 27.399 12.8934 9.117
36 1 3 0.671939 9.13299 8.19836 5.79712
37 1 3 0.67194 24.8655 14.3561 13.2542
38 1 3 0.67194 11.6665 6.73565 1.65994
39 1 3 0.67194 29.9325 17.2815 9.117
40 1 3 0.67194 6.5995 3.81022 5.79712
41 1 3 0.67194 24.8655 17.2815 9.117
42 1 3 0.67194 11.6665 3.81022 5.79712
43 1 3 0.67194 29.9325 14.3561 13.2542
44 1 3 0.67194 6.5995 6.73565 1.65994
45 1 3 -0.11508 27.399 19.957 14.1117
46 1 3 -0.11508 9.13299 1.13474 0.802379
47 1 3 -0.11508 27.399 11.6806 8.25944
48 1 3 -0.11508 9.13299 9.41113 6.65468
49 1 3 -0.11508 23.8152 13.7497 14.1117
50 1 3 -0.11508 12.7168 7.34203 0.802379
51 1 3 -0.11508 30.9828 17.8879 8.25944
52 1 3 -0.11508 5.54921 3.20384 6.65468
53 1 3 -0.11508 23.8152 17.8879 8.25944
54 1 3 -0.11508 12.7168 3.20384 6.65468
55 1 3 -0.11508 30.9828 13.7497 14.1117
56 1 3 -0.11508 5.54921 7.34203 0.802379
57 1 3 -0.0559 18.266 5.39949 13.5316
58 1 3 -0.0559 18.266 15.6923 1.38254
59 1 3 -0.055903 18.266 14.5575 0.580159
60 1 3 -0.055903 18.266 6.53422 14.334
61 1 3 -0.0559 26.1971 11.1132 7.85825
62 1 3 -0.0559 10.3349 9.9785 7.05587
63 1 3 -0.055903 10.3349 11.1132 7.85825
64 1 3 -0.055903 26.1971 9.9785 7.05587
65 1 3 -0.0559 14.7918 8.54005 0.580159
66 1 3 -0.0559 21.7402 12.5517 14.334
67 1 3 -0.055903 22.7229 13.1191 13.5316
68 1 3 -0.055903 13.8091 7.97268 1.38254
69 1 3 -0.0559 21.7402 3.39366 7.85825
70 1 3 -0.0559 14.7918 17.6981 7.05587
71 1 3 -0.055903 13.8091 17.1307 7.85825
72 1 3 -0.055903 22.7229 3.96103 7.05587
73 1 3 -0.055901 22.7229 17.1307 7.85825
74 1 3 -0.055901 13.8091 3.96103 7.05587
75 1 3 -0.055903 14.7918 3.39366 7.85825
76 1 3 -0.055903 21.7402 17.6981 7.05587
77 1 3 -0.0559 21.7402 8.54005 0.580159
78 1 3 -0.0559 14.7918 12.5517 14.334
79 1 3 -0.055903 13.8091 13.1191 13.5316
80 1 3 -0.055903 22.7229 7.97268 1.38254
81 1 4 -1.26215 27.399 15.8188 11.1856
82 1 4 -1.26215 9.13299 5.27293 3.72853
83 1 4 -0.60118 27.399 18.9383 11.9641
84 1 4 -0.60118 9.13299 2.15347 2.95001
85 1 4 -0.601179 27.399 17.5926 13.8671
86 1 4 -0.601179 9.13299 3.49912 1.04697
87 1 4 -0.601179 26.2336 13.3722 9.45555
88 1 4 -0.601179 10.2984 7.71958 5.45857
89 1 4 -0.60118 28.5643 13.3722 9.45555
90 1 4 -0.60118 7.96762 7.71958 5.45857
91 1 4 -0.60118 25.8628 14.9319 13.8671
92 1 4 -0.60118 10.6692 6.15984 1.04697
93 1 4 -0.601179 24.6974 14.2591 11.9641
94 1 4 -0.601179 11.8345 6.83267 2.95001
95 1 4 -0.60118 28.9351 18.0514 9.45555
96 1 4 -0.60118 7.59682 3.04037 5.45857
97 1 4 -0.601179 30.1005 16.0329 9.45555
98 1 4 -0.601179 6.43145 5.05885 5.45857
99 1 4 -0.601179 24.6974 16.0329 9.45555
100 1 4 -0.601179 11.8345 5.05885 5.45857
101 1 4 -0.60118 25.8628 18.0514 9.45555
102 1 4 -0.60118 10.6692 3.04037 5.45857
103 1 4 -0.60118 28.9351 14.9319 13.8671
104 1 4 -0.60118 7.59682 6.15984 1.04697
105 1 4 -0.60118 30.1005 14.2591 11.9641
106 1 4 -0.60118 6.43145 6.83267 2.95001
ITEM: TIMESTEP
65000
ITEM: NUMBER OF ATOMS
106
ITEM: BOX BOUNDS xy xz yz pp pp pp
0.0000000000000000e+00 3.6531964750000000e+01 9.1329911900000003e+00
0.0000000000000000e+00 2.1091739680000000e+01 9.1329911900000003e+00
0.0000000000000000e+00 1.4914112149999999e+01 5.2729349200000000e+00
ITEM: ATOMS id mol type q x y z
1 1 1 1.10383 27.399 17.6496 10.5383
2 1 1 1.10383 9.13299 3.44217 4.3758
3 1 1 1.10383 27.399 15.8188 13.1274
4 1 1 1.10383 9.13299 5.27293 1.78671
5 1 1 1.10383 25.8135 14.9034 10.5383
6 1 1 1.10383 10.7185 6.18832 4.3758
7 1 1 1.10383 28.9845 14.9034 10.5383
8 1 1 1.10383 7.5475 6.18832 4.3758
9 1 2 0.115889 18.266 5.48596 12.6084
10 1 2 0.115889 18.266 15.6058 2.30572
11 1 2 0.115888 18.266 13.716 0.969417
12 1 2 0.115888 18.266 7.37578 13.9447
13 1 2 0.11589 25.3934 11.4908 8.12521
14 1 2 0.11589 11.1386 9.60096 6.7889
15 1 2 0.115888 11.1386 11.4908 8.12521
16 1 2 0.115888 25.3934 9.60096 6.7889
17 1 2 0.115889 15.5206 8.96083 0.969417
18 1 2 0.115889 21.0114 12.1309 13.9447
19 1 2 0.115888 22.648 13.0758 12.6084
20 1 2 0.115888 13.884 8.01592 2.30572
21 1 2 0.115889 21.0114 3.90092 8.12521
22 1 2 0.115889 15.5206 17.1908 6.7889
23 1 2 0.115887 13.884 16.2459 8.12521
24 1 2 0.115887 22.648 4.84583 6.7889
25 1 2 0.115889 22.648 16.2459 8.12521
26 1 2 0.115889 13.884 4.84583 6.7889
27 1 2 0.115887 15.5206 3.90092 8.12521
28 1 2 0.115887 21.0114 17.1908 6.7889
29 1 2 0.115889 21.0114 8.96083 0.969417
30 1 2 0.115889 15.5206 12.1309 13.9447
31 1 2 0.115887 13.884 13.0758 12.6084
32 1 2 0.115887 22.648 8.01592 2.30572
33 1 3 0.671939 27.399 18.7442 13.2542
34 1 3 0.671939 9.13299 2.34751 1.65994
35 1 3 0.671939 27.399 12.8934 9.117
36 1 3 0.671939 9.13299 8.19836 5.79712
37 1 3 0.67194 24.8655 14.3561 13.2542
38 1 3 0.67194 11.6665 6.73565 1.65994
39 1 3 0.67194 29.9325 17.2815 9.117
40 1 3 0.67194 6.5995 3.81022 5.79712
41 1 3 0.67194 24.8655 17.2815 9.117
42 1 3 0.67194 11.6665 3.81022 5.79712
43 1 3 0.67194 29.9325 14.3561 13.2542
44 1 3 0.67194 6.5995 6.73565 1.65994
45 1 3 -0.11508 27.399 19.957 14.1117
46 1 3 -0.11508 9.13299 1.13474 0.802379
47 1 3 -0.11508 27.399 11.6806 8.25944
48 1 3 -0.11508 9.13299 9.41113 6.65468
49 1 3 -0.11508 23.8152 13.7497 14.1117
50 1 3 -0.11508 12.7168 7.34203 0.802379
51 1 3 -0.11508 30.9828 17.8879 8.25944
52 1 3 -0.11508 5.54921 3.20384 6.65468
53 1 3 -0.11508 23.8152 17.8879 8.25944
54 1 3 -0.11508 12.7168 3.20384 6.65468
55 1 3 -0.11508 30.9828 13.7497 14.1117
56 1 3 -0.11508 5.54921 7.34203 0.802379
57 1 3 -0.0559 18.266 5.39949 13.5316
58 1 3 -0.0559 18.266 15.6923 1.38254
59 1 3 -0.055903 18.266 14.5575 0.580159
60 1 3 -0.055903 18.266 6.53422 14.334
61 1 3 -0.0559 26.1971 11.1132 7.85825
62 1 3 -0.0559 10.3349 9.9785 7.05587
63 1 3 -0.055903 10.3349 11.1132 7.85825
64 1 3 -0.055903 26.1971 9.9785 7.05587
65 1 3 -0.0559 14.7918 8.54005 0.580159
66 1 3 -0.0559 21.7402 12.5517 14.334
67 1 3 -0.055903 22.7229 13.1191 13.5316
68 1 3 -0.055903 13.8091 7.97268 1.38254
69 1 3 -0.0559 21.7402 3.39366 7.85825
70 1 3 -0.0559 14.7918 17.6981 7.05587
71 1 3 -0.055903 13.8091 17.1307 7.85825
72 1 3 -0.055903 22.7229 3.96103 7.05587
73 1 3 -0.055901 22.7229 17.1307 7.85825
74 1 3 -0.055901 13.8091 3.96103 7.05587
75 1 3 -0.055903 14.7918 3.39366 7.85825
76 1 3 -0.055903 21.7402 17.6981 7.05587
77 1 3 -0.0559 21.7402 8.54005 0.580159
78 1 3 -0.0559 14.7918 12.5517 14.334
79 1 3 -0.055903 13.8091 13.1191 13.5316
80 1 3 -0.055903 22.7229 7.97268 1.38254
81 1 4 -1.26215 27.399 15.8188 11.1856
82 1 4 -1.26215 9.13299 5.27293 3.72853
83 1 4 -0.60118 27.399 18.9383 11.9641
84 1 4 -0.60118 9.13299 2.15347 2.95001
85 1 4 -0.601179 27.399 17.5926 13.8671
86 1 4 -0.601179 9.13299 3.49912 1.04697
87 1 4 -0.601179 26.2336 13.3722 9.45555
88 1 4 -0.601179 10.2984 7.71958 5.45857
89 1 4 -0.60118 28.5643 13.3722 9.45555
90 1 4 -0.60118 7.96762 7.71958 5.45857
91 1 4 -0.60118 25.8628 14.9319 13.8671
92 1 4 -0.60118 10.6692 6.15984 1.04697
93 1 4 -0.601179 24.6974 14.2591 11.9641
94 1 4 -0.601179 11.8345 6.83267 2.95001
95 1 4 -0.60118 28.9351 18.0514 9.45555
96 1 4 -0.60118 7.59682 3.04037 5.45857
97 1 4 -0.601179 30.1005 16.0329 9.45555
98 1 4 -0.601179 6.43145 5.05885 5.45857
99 1 4 -0.601179 24.6974 16.0329 9.45555
100 1 4 -0.601179 11.8345 5.05885 5.45857
101 1 4 -0.60118 25.8628 18.0514 9.45555
102 1 4 -0.60118 10.6692 3.04037 5.45857
103 1 4 -0.60118 28.9351 14.9319 13.8671
104 1 4 -0.60118 7.59682 6.15984 1.04697
105 1 4 -0.60118 30.1005 14.2591 11.9641
106 1 4 -0.60118 6.43145 6.83267 2.95001
ITEM: TIMESTEP
66000
ITEM: NUMBER OF ATOMS
106
ITEM: BOX BOUNDS xy xz yz pp pp pp
0.0000000000000000e+00 3.6531964750000000e+01 9.1329911900000003e+00
0.0000000000000000e+00 2.1091739680000000e+01 9.1329911900000003e+00
0.0000000000000000e+00 1.4914112149999999e+01 5.2729349200000000e+00
ITEM: ATOMS id mol type q x y z
1 1 1 1.10383 27.399 17.6496 10.5383
2 1 1 1.10383 9.13299 3.44217 4.3758
3 1 1 1.10383 27.399 15.8188 13.1274
4 1 1 1.10383 9.13299 5.27293 1.78671
5 1 1 1.10383 25.8135 14.9034 10.5383
6 1 1 1.10383 10.7185 6.18832 4.3758
7 1 1 1.10383 28.9845 14.9034 10.5383
8 1 1 1.10383 7.5475 6.18832 4.3758
9 1 2 0.115889 18.266 5.48596 12.6084
10 1 2 0.115889 18.266 15.6058 2.30572
11 1 2 0.115888 18.266 13.716 0.969417
12 1 2 0.115888 18.266 7.37578 13.9447
13 1 2 0.11589 25.3934 11.4908 8.12521
14 1 2 0.11589 11.1386 9.60096 6.7889
15 1 2 0.115888 11.1386 11.4908 8.12521
16 1 2 0.115888 25.3934 9.60096 6.7889
17 1 2 0.115889 15.5206 8.96083 0.969417
18 1 2 0.115889 21.0114 12.1309 13.9447
19 1 2 0.115888 22.648 13.0758 12.6084
20 1 2 0.115888 13.884 8.01592 2.30572
21 1 2 0.115889 21.0114 3.90092 8.12521
22 1 2 0.115889 15.5206 17.1908 6.7889
23 1 2 0.115887 13.884 16.2459 8.12521
24 1 2 0.115887 22.648 4.84583 6.7889
25 1 2 0.115889 22.648 16.2459 8.12521
26 1 2 0.115889 13.884 4.84583 6.7889
27 1 2 0.115887 15.5206 3.90092 8.12521
28 1 2 0.115887 21.0114 17.1908 6.7889
29 1 2 0.115889 21.0114 8.96083 0.969417
30 1 2 0.115889 15.5206 12.1309 13.9447
31 1 2 0.115887 13.884 13.0758 12.6084
32 1 2 0.115887 22.648 8.01592 2.30572
33 1 3 0.671939 27.399 18.7442 13.2542
34 1 3 0.671939 9.13299 2.34751 1.65994
35 1 3 0.671939 27.399 12.8934 9.117
36 1 3 0.671939 9.13299 8.19836 5.79712
37 1 3 0.67194 24.8655 14.3561 13.2542
38 1 3 0.67194 11.6665 6.73565 1.65994
39 1 3 0.67194 29.9325 17.2815 9.117
40 1 3 0.67194 6.5995 3.81022 5.79712
41 1 3 0.67194 24.8655 17.2815 9.117
42 1 3 0.67194 11.6665 3.81022 5.79712
43 1 3 0.67194 29.9325 14.3561 13.2542
44 1 3 0.67194 6.5995 6.73565 1.65994
45 1 3 -0.11508 27.399 19.957 14.1117
46 1 3 -0.11508 9.13299 1.13474 0.802379
47 1 3 -0.11508 27.399 11.6806 8.25944
48 1 3 -0.11508 9.13299 9.41113 6.65468
49 1 3 -0.11508 23.8152 13.7497 14.1117
50 1 3 -0.11508 12.7168 7.34203 0.802379
51 1 3 -0.11508 30.9828 17.8879 8.25944
52 1 3 -0.11508 5.54921 3.20384 6.65468
53 1 3 -0.11508 23.8152 17.8879 8.25944
54 1 3 -0.11508 12.7168 3.20384 6.65468
55 1 3 -0.11508 30.9828 13.7497 14.1117
56 1 3 -0.11508 5.54921 7.34203 0.802379
57 1 3 -0.0559 18.266 5.39949 13.5316
58 1 3 -0.0559 18.266 15.6923 1.38254
59 1 3 -0.055903 18.266 14.5575 0.580159
60 1 3 -0.055903 18.266 6.53422 14.334
61 1 3 -0.0559 26.1971 11.1132 7.85825
62 1 3 -0.0559 10.3349 9.9785 7.05587
63 1 3 -0.055903 10.3349 11.1132 7.85825
64 1 3 -0.055903 26.1971 9.9785 7.05587
65 1 3 -0.0559 14.7918 8.54005 0.580159
66 1 3 -0.0559 21.7402 12.5517 14.334
67 1 3 -0.055903 22.7229 13.1191 13.5316
68 1 3 -0.055903 13.8091 7.97268 1.38254
69 1 3 -0.0559 21.7402 3.39366 7.85825
70 1 3 -0.0559 14.7918 17.6981 7.05587
71 1 3 -0.055903 13.8091 17.1307 7.85825
72 1 3 -0.055903 22.7229 3.96103 7.05587
73 1 3 -0.055901 22.7229 17.1307 7.85825
74 1 3 -0.055901 13.8091 3.96103 7.05587
75 1 3 -0.055903 14.7918 3.39366 7.85825
76 1 3 -0.055903 21.7402 17.6981 7.05587
77 1 3 -0.0559 21.7402 8.54005 0.580159
78 1 3 -0.0559 14.7918 12.5517 14.334
79 1 3 -0.055903 13.8091 13.1191 13.5316
80 1 3 -0.055903 22.7229 7.97268 1.38254
81 1 4 -1.26215 27.399 15.8188 11.1856
82 1 4 -1.26215 9.13299 5.27293 3.72853
83 1 4 -0.60118 27.399 18.9383 11.9641
84 1 4 -0.60118 9.13299 2.15347 2.95001
85 1 4 -0.601179 27.399 17.5926 13.8671
86 1 4 -0.601179 9.13299 3.49912 1.04697
87 1 4 -0.601179 26.2336 13.3722 9.45555
88 1 4 -0.601179 10.2984 7.71958 5.45857
89 1 4 -0.60118 28.5643 13.3722 9.45555
90 1 4 -0.60118 7.96762 7.71958 5.45857
91 1 4 -0.60118 25.8628 14.9319 13.8671
92 1 4 -0.60118 10.6692 6.15984 1.04697
93 1 4 -0.601179 24.6974 14.2591 11.9641
94 1 4 -0.601179 11.8345 6.83267 2.95001
95 1 4 -0.60118 28.9351 18.0514 9.45555
96 1 4 -0.60118 7.59682 3.04037 5.45857
97 1 4 -0.601179 30.1005 16.0329 9.45555
98 1 4 -0.601179 6.43145 5.05885 5.45857
99 1 4 -0.601179 24.6974 16.0329 9.45555
100 1 4 -0.601179 11.8345 5.05885 5.45857
101 1 4 -0.60118 25.8628 18.0514 9.45555
102 1 4 -0.60118 10.6692 3.04037 5.45857
103 1 4 -0.60118 28.9351 14.9319 13.8671
104 1 4 -0.60118 7.59682 6.15984 1.04697
105 1 4 -0.60118 30.1005 14.2591 11.9641
106 1 4 -0.60118 6.43145 6.83267 2.95001
ITEM: TIMESTEP
67000
ITEM: NUMBER OF ATOMS
109
ITEM: BOX BOUNDS xy xz yz pp pp pp
0.0000000000000000e+00 3.6531964750000000e+01 9.1329911900000003e+00
0.0000000000000000e+00 2.1091739680000000e+01 9.1329911900000003e+00
0.0000000000000000e+00 1.4914112149999999e+01 5.2729349200000000e+00
ITEM: ATOMS id mol type q x y z
1 1 1 1.10383 27.399 17.6496 10.5383
2 1 1 1.10383 9.13299 3.44217 4.3758
3 1 1 1.10383 27.399 15.8188 13.1274
4 1 1 1.10383 9.13299 5.27293 1.78671
5 1 1 1.10383 25.8135 14.9034 10.5383
6 1 1 1.10383 10.7185 6.18832 4.3758
7 1 1 1.10383 28.9845 14.9034 10.5383
8 1 1 1.10383 7.5475 6.18832 4.3758
9 1 2 0.115889 18.266 5.48596 12.6084
10 1 2 0.115889 18.266 15.6058 2.30572
11 1 2 0.115888 18.266 13.716 0.969417
12 1 2 0.115888 18.266 7.37578 13.9447
13 1 2 0.11589 25.3934 11.4908 8.12521
14 1 2 0.11589 11.1386 9.60096 6.7889
15 1 2 0.115888 11.1386 11.4908 8.12521
16 1 2 0.115888 25.3934 9.60096 6.7889
17 1 2 0.115889 15.5206 8.96083 0.969417
18 1 2 0.115889 21.0114 12.1309 13.9447
19 1 2 0.115888 22.648 13.0758 12.6084
20 1 2 0.115888 13.884 8.01592 2.30572
21 1 2 0.115889 21.0114 3.90092 8.12521
22 1 2 0.115889 15.5206 17.1908 6.7889
23 1 2 0.115887 13.884 16.2459 8.12521
24 1 2 0.115887 22.648 4.84583 6.7889
25 1 2 0.115889 22.648 16.2459 8.12521
26 1 2 0.115889 13.884 4.84583 6.7889
27 1 2 0.115887 15.5206 3.90092 8.12521
28 1 2 0.115887 21.0114 17.1908 6.7889
29 1 2 0.115889 21.0114 8.96083 0.969417
30 1 2 0.115889 15.5206 12.1309 13.9447
31 1 2 0.115887 13.884 13.0758 12.6084
32 1 2 0.115887 22.648 8.01592 2.30572
33 1 3 0.671939 27.399 18.7442 13.2542
34 1 3 0.671939 9.13299 2.34751 1.65994
35 1 3 0.671939 27.399 12.8934 9.117
36 1 3 0.671939 9.13299 8.19836 5.79712
37 1 3 0.67194 24.8655 14.3561 13.2542
38 1 3 0.67194 11.6665 6.73565 1.65994
39 1 3 0.67194 29.9325 17.2815 9.117
40 1 3 0.67194 6.5995 3.81022 5.79712
41 1 3 0.67194 24.8655 17.2815 9.117
42 1 3 0.67194 11.6665 3.81022 5.79712
43 1 3 0.67194 29.9325 14.3561 13.2542
44 1 3 0.67194 6.5995 6.73565 1.65994
45 1 3 -0.11508 27.399 19.957 14.1117
46 1 3 -0.11508 9.13299 1.13474 0.802379
47 1 3 -0.11508 27.399 11.6806 8.25944
48 1 3 -0.11508 9.13299 9.41113 6.65468
49 1 3 -0.11508 23.8152 13.7497 14.1117
50 1 3 -0.11508 12.7168 7.34203 0.802379
51 1 3 -0.11508 30.9828 17.8879 8.25944
52 1 3 -0.11508 5.54921 3.20384 6.65468
53 1 3 -0.11508 23.8152 17.8879 8.25944
54 1 3 -0.11508 12.7168 3.20384 6.65468
55 1 3 -0.11508 30.9828 13.7497 14.1117
56 1 3 -0.11508 5.54921 7.34203 0.802379
57 1 3 -0.0559 18.266 5.39949 13.5316
58 1 3 -0.0559 18.266 15.6923 1.38254
59 1 3 -0.055903 18.266 14.5575 0.580159
60 1 3 -0.055903 18.266 6.53422 14.334
61 1 3 -0.0559 26.1971 11.1132 7.85825
62 1 3 -0.0559 10.3349 9.9785 7.05587
63 1 3 -0.055903 10.3349 11.1132 7.85825
64 1 3 -0.055903 26.1971 9.9785 7.05587
65 1 3 -0.0559 14.7918 8.54005 0.580159
66 1 3 -0.0559 21.7402 12.5517 14.334
67 1 3 -0.055903 22.7229 13.1191 13.5316
68 1 3 -0.055903 13.8091 7.97268 1.38254
69 1 3 -0.0559 21.7402 3.39366 7.85825
70 1 3 -0.0559 14.7918 17.6981 7.05587
71 1 3 -0.055903 13.8091 17.1307 7.85825
72 1 3 -0.055903 22.7229 3.96103 7.05587
73 1 3 -0.055901 22.7229 17.1307 7.85825
74 1 3 -0.055901 13.8091 3.96103 7.05587
75 1 3 -0.055903 14.7918 3.39366 7.85825
76 1 3 -0.055903 21.7402 17.6981 7.05587
77 1 3 -0.0559 21.7402 8.54005 0.580159
78 1 3 -0.0559 14.7918 12.5517 14.334
79 1 3 -0.055903 13.8091 13.1191 13.5316
80 1 3 -0.055903 22.7229 7.97268 1.38254
81 1 4 -1.26215 27.399 15.8188 11.1856
82 1 4 -1.26215 9.13299 5.27293 3.72853
83 1 4 -0.60118 27.399 18.9383 11.9641
84 1 4 -0.60118 9.13299 2.15347 2.95001
85 1 4 -0.601179 27.399 17.5926 13.8671
86 1 4 -0.601179 9.13299 3.49912 1.04697
87 1 4 -0.601179 26.2336 13.3722 9.45555
88 1 4 -0.601179 10.2984 7.71958 5.45857
89 1 4 -0.60118 28.5643 13.3722 9.45555
90 1 4 -0.60118 7.96762 7.71958 5.45857
91 1 4 -0.60118 25.8628 14.9319 13.8671
92 1 4 -0.60118 10.6692 6.15984 1.04697
93 1 4 -0.601179 24.6974 14.2591 11.9641
94 1 4 -0.601179 11.8345 6.83267 2.95001
95 1 4 -0.60118 28.9351 18.0514 9.45555
96 1 4 -0.60118 7.59682 3.04037 5.45857
97 1 4 -0.601179 30.1005 16.0329 9.45555
98 1 4 -0.601179 6.43145 5.05885 5.45857
99 1 4 -0.601179 24.6974 16.0329 9.45555
100 1 4 -0.601179 11.8345 5.05885 5.45857
101 1 4 -0.60118 25.8628 18.0514 9.45555
102 1 4 -0.60118 10.6692 3.04037 5.45857
103 1 4 -0.60118 28.9351 14.9319 13.8671
104 1 4 -0.60118 7.59682 6.15984 1.04697
105 1 4 -0.60118 30.1005 14.2591 11.9641
106 1 4 -0.60118 6.43145 6.83267 2.95001
113 4 5 -0.35 21.4065 5.05387 2.77416
114 4 6 0.7 21.0191 5.88915 3.47973
115 4 5 -0.35 20.6317 6.72443 4.1853
ITEM: TIMESTEP
68000
ITEM: NUMBER OF ATOMS
106
ITEM: BOX BOUNDS xy xz yz pp pp pp
0.0000000000000000e+00 3.6531964750000000e+01 9.1329911900000003e+00
0.0000000000000000e+00 2.1091739680000000e+01 9.1329911900000003e+00
0.0000000000000000e+00 1.4914112149999999e+01 5.2729349200000000e+00
ITEM: ATOMS id mol type q x y z
1 1 1 1.10383 27.399 17.6496 10.5383
2 1 1 1.10383 9.13299 3.44217 4.3758
3 1 1 1.10383 27.399 15.8188 13.1274
4 1 1 1.10383 9.13299 5.27293 1.78671
5 1 1 1.10383 25.8135 14.9034 10.5383
6 1 1 1.10383 10.7185 6.18832 4.3758
7 1 1 1.10383 28.9845 14.9034 10.5383
8 1 1 1.10383 7.5475 6.18832 4.3758
9 1 2 0.115889 18.266 5.48596 12.6084
10 1 2 0.115889 18.266 15.6058 2.30572
11 1 2 0.115888 18.266 13.716 0.969417
12 1 2 0.115888 18.266 7.37578 13.9447
13 1 2 0.11589 25.3934 11.4908 8.12521
14 1 2 0.11589 11.1386 9.60096 6.7889
15 1 2 0.115888 11.1386 11.4908 8.12521
16 1 2 0.115888 25.3934 9.60096 6.7889
17 1 2 0.115889 15.5206 8.96083 0.969417
18 1 2 0.115889 21.0114 12.1309 13.9447
19 1 2 0.115888 22.648 13.0758 12.6084
20 1 2 0.115888 13.884 8.01592 2.30572
21 1 2 0.115889 21.0114 3.90092 8.12521
22 1 2 0.115889 15.5206 17.1908 6.7889
23 1 2 0.115887 13.884 16.2459 8.12521
24 1 2 0.115887 22.648 4.84583 6.7889
25 1 2 0.115889 22.648 16.2459 8.12521
26 1 2 0.115889 13.884 4.84583 6.7889
27 1 2 0.115887 15.5206 3.90092 8.12521
28 1 2 0.115887 21.0114 17.1908 6.7889
29 1 2 0.115889 21.0114 8.96083 0.969417
30 1 2 0.115889 15.5206 12.1309 13.9447
31 1 2 0.115887 13.884 13.0758 12.6084
32 1 2 0.115887 22.648 8.01592 2.30572
33 1 3 0.671939 27.399 18.7442 13.2542
34 1 3 0.671939 9.13299 2.34751 1.65994
35 1 3 0.671939 27.399 12.8934 9.117
36 1 3 0.671939 9.13299 8.19836 5.79712
37 1 3 0.67194 24.8655 14.3561 13.2542
38 1 3 0.67194 11.6665 6.73565 1.65994
39 1 3 0.67194 29.9325 17.2815 9.117
40 1 3 0.67194 6.5995 3.81022 5.79712
41 1 3 0.67194 24.8655 17.2815 9.117
42 1 3 0.67194 11.6665 3.81022 5.79712
43 1 3 0.67194 29.9325 14.3561 13.2542
44 1 3 0.67194 6.5995 6.73565 1.65994
45 1 3 -0.11508 27.399 19.957 14.1117
46 1 3 -0.11508 9.13299 1.13474 0.802379
47 1 3 -0.11508 27.399 11.6806 8.25944
48 1 3 -0.11508 9.13299 9.41113 6.65468
49 1 3 -0.11508 23.8152 13.7497 14.1117
50 1 3 -0.11508 12.7168 7.34203 0.802379
51 1 3 -0.11508 30.9828 17.8879 8.25944
52 1 3 -0.11508 5.54921 3.20384 6.65468
53 1 3 -0.11508 23.8152 17.8879 8.25944
54 1 3 -0.11508 12.7168 3.20384 6.65468
55 1 3 -0.11508 30.9828 13.7497 14.1117
56 1 3 -0.11508 5.54921 7.34203 0.802379
57 1 3 -0.0559 18.266 5.39949 13.5316
58 1 3 -0.0559 18.266 15.6923 1.38254
59 1 3 -0.055903 18.266 14.5575 0.580159
60 1 3 -0.055903 18.266 6.53422 14.334
61 1 3 -0.0559 26.1971 11.1132 7.85825
62 1 3 -0.0559 10.3349 9.9785 7.05587
63 1 3 -0.055903 10.3349 11.1132 7.85825
64 1 3 -0.055903 26.1971 9.9785 7.05587
65 1 3 -0.0559 14.7918 8.54005 0.580159
66 1 3 -0.0559 21.7402 12.5517 14.334
67 1 3 -0.055903 22.7229 13.1191 13.5316
68 1 3 -0.055903 13.8091 7.97268 1.38254
69 1 3 -0.0559 21.7402 3.39366 7.85825
70 1 3 -0.0559 14.7918 17.6981 7.05587
71 1 3 -0.055903 13.8091 17.1307 7.85825
72 1 3 -0.055903 22.7229 3.96103 7.05587
73 1 3 -0.055901 22.7229 17.1307 7.85825
74 1 3 -0.055901 13.8091 3.96103 7.05587
75 1 3 -0.055903 14.7918 3.39366 7.85825
76 1 3 -0.055903 21.7402 17.6981 7.05587
77 1 3 -0.0559 21.7402 8.54005 0.580159
78 1 3 -0.0559 14.7918 12.5517 14.334
79 1 3 -0.055903 13.8091 13.1191 13.5316
80 1 3 -0.055903 22.7229 7.97268 1.38254
81 1 4 -1.26215 27.399 15.8188 11.1856
82 1 4 -1.26215 9.13299 5.27293 3.72853
83 1 4 -0.60118 27.399 18.9383 11.9641
84 1 4 -0.60118 9.13299 2.15347 2.95001
85 1 4 -0.601179 27.399 17.5926 13.8671
86 1 4 -0.601179 9.13299 3.49912 1.04697
87 1 4 -0.601179 26.2336 13.3722 9.45555
88 1 4 -0.601179 10.2984 7.71958 5.45857
89 1 4 -0.60118 28.5643 13.3722 9.45555
90 1 4 -0.60118 7.96762 7.71958 5.45857
91 1 4 -0.60118 25.8628 14.9319 13.8671
92 1 4 -0.60118 10.6692 6.15984 1.04697
93 1 4 -0.601179 24.6974 14.2591 11.9641
94 1 4 -0.601179 11.8345 6.83267 2.95001
95 1 4 -0.60118 28.9351 18.0514 9.45555
96 1 4 -0.60118 7.59682 3.04037 5.45857
97 1 4 -0.601179 30.1005 16.0329 9.45555
98 1 4 -0.601179 6.43145 5.05885 5.45857
99 1 4 -0.601179 24.6974 16.0329 9.45555
100 1 4 -0.601179 11.8345 5.05885 5.45857
101 1 4 -0.60118 25.8628 18.0514 9.45555
102 1 4 -0.60118 10.6692 3.04037 5.45857
103 1 4 -0.60118 28.9351 14.9319 13.8671
104 1 4 -0.60118 7.59682 6.15984 1.04697
105 1 4 -0.60118 30.1005 14.2591 11.9641
106 1 4 -0.60118 6.43145 6.83267 2.95001
ITEM: TIMESTEP
69000
ITEM: NUMBER OF ATOMS
106
ITEM: BOX BOUNDS xy xz yz pp pp pp
0.0000000000000000e+00 3.6531964750000000e+01 9.1329911900000003e+00
0.0000000000000000e+00 2.1091739680000000e+01 9.1329911900000003e+00
0.0000000000000000e+00 1.4914112149999999e+01 5.2729349200000000e+00
ITEM: ATOMS id mol type q x y z
1 1 1 1.10383 27.399 17.6496 10.5383
2 1 1 1.10383 9.13299 3.44217 4.3758
3 1 1 1.10383 27.399 15.8188 13.1274
4 1 1 1.10383 9.13299 5.27293 1.78671
5 1 1 1.10383 25.8135 14.9034 10.5383
6 1 1 1.10383 10.7185 6.18832 4.3758
7 1 1 1.10383 28.9845 14.9034 10.5383
8 1 1 1.10383 7.5475 6.18832 4.3758
9 1 2 0.115889 18.266 5.48596 12.6084
10 1 2 0.115889 18.266 15.6058 2.30572
11 1 2 0.115888 18.266 13.716 0.969417
12 1 2 0.115888 18.266 7.37578 13.9447
13 1 2 0.11589 25.3934 11.4908 8.12521
14 1 2 0.11589 11.1386 9.60096 6.7889
15 1 2 0.115888 11.1386 11.4908 8.12521
16 1 2 0.115888 25.3934 9.60096 6.7889
17 1 2 0.115889 15.5206 8.96083 0.969417
18 1 2 0.115889 21.0114 12.1309 13.9447
19 1 2 0.115888 22.648 13.0758 12.6084
20 1 2 0.115888 13.884 8.01592 2.30572
21 1 2 0.115889 21.0114 3.90092 8.12521
22 1 2 0.115889 15.5206 17.1908 6.7889
23 1 2 0.115887 13.884 16.2459 8.12521
24 1 2 0.115887 22.648 4.84583 6.7889
25 1 2 0.115889 22.648 16.2459 8.12521
26 1 2 0.115889 13.884 4.84583 6.7889
27 1 2 0.115887 15.5206 3.90092 8.12521
28 1 2 0.115887 21.0114 17.1908 6.7889
29 1 2 0.115889 21.0114 8.96083 0.969417
30 1 2 0.115889 15.5206 12.1309 13.9447
31 1 2 0.115887 13.884 13.0758 12.6084
32 1 2 0.115887 22.648 8.01592 2.30572
33 1 3 0.671939 27.399 18.7442 13.2542
34 1 3 0.671939 9.13299 2.34751 1.65994
35 1 3 0.671939 27.399 12.8934 9.117
36 1 3 0.671939 9.13299 8.19836 5.79712
37 1 3 0.67194 24.8655 14.3561 13.2542
38 1 3 0.67194 11.6665 6.73565 1.65994
39 1 3 0.67194 29.9325 17.2815 9.117
40 1 3 0.67194 6.5995 3.81022 5.79712
41 1 3 0.67194 24.8655 17.2815 9.117
42 1 3 0.67194 11.6665 3.81022 5.79712
43 1 3 0.67194 29.9325 14.3561 13.2542
44 1 3 0.67194 6.5995 6.73565 1.65994
45 1 3 -0.11508 27.399 19.957 14.1117
46 1 3 -0.11508 9.13299 1.13474 0.802379
47 1 3 -0.11508 27.399 11.6806 8.25944
48 1 3 -0.11508 9.13299 9.41113 6.65468
49 1 3 -0.11508 23.8152 13.7497 14.1117
50 1 3 -0.11508 12.7168 7.34203 0.802379
51 1 3 -0.11508 30.9828 17.8879 8.25944
52 1 3 -0.11508 5.54921 3.20384 6.65468
53 1 3 -0.11508 23.8152 17.8879 8.25944
54 1 3 -0.11508 12.7168 3.20384 6.65468
55 1 3 -0.11508 30.9828 13.7497 14.1117
56 1 3 -0.11508 5.54921 7.34203 0.802379
57 1 3 -0.0559 18.266 5.39949 13.5316
58 1 3 -0.0559 18.266 15.6923 1.38254
59 1 3 -0.055903 18.266 14.5575 0.580159
60 1 3 -0.055903 18.266 6.53422 14.334
61 1 3 -0.0559 26.1971 11.1132 7.85825
62 1 3 -0.0559 10.3349 9.9785 7.05587
63 1 3 -0.055903 10.3349 11.1132 7.85825
64 1 3 -0.055903 26.1971 9.9785 7.05587
65 1 3 -0.0559 14.7918 8.54005 0.580159
66 1 3 -0.0559 21.7402 12.5517 14.334
67 1 3 -0.055903 22.7229 13.1191 13.5316
68 1 3 -0.055903 13.8091 7.97268 1.38254
69 1 3 -0.0559 21.7402 3.39366 7.85825
70 1 3 -0.0559 14.7918 17.6981 7.05587
71 1 3 -0.055903 13.8091 17.1307 7.85825
72 1 3 -0.055903 22.7229 3.96103 7.05587
73 1 3 -0.055901 22.7229 17.1307 7.85825
74 1 3 -0.055901 13.8091 3.96103 7.05587
75 1 3 -0.055903 14.7918 3.39366 7.85825
76 1 3 -0.055903 21.7402 17.6981 7.05587
77 1 3 -0.0559 21.7402 8.54005 0.580159
78 1 3 -0.0559 14.7918 12.5517 14.334
79 1 3 -0.055903 13.8091 13.1191 13.5316
80 1 3 -0.055903 22.7229 7.97268 1.38254
81 1 4 -1.26215 27.399 15.8188 11.1856
82 1 4 -1.26215 9.13299 5.27293 3.72853
83 1 4 -0.60118 27.399 18.9383 11.9641
84 1 4 -0.60118 9.13299 2.15347 2.95001
85 1 4 -0.601179 27.399 17.5926 13.8671
86 1 4 -0.601179 9.13299 3.49912 1.04697
87 1 4 -0.601179 26.2336 13.3722 9.45555
88 1 4 -0.601179 10.2984 7.71958 5.45857
89 1 4 -0.60118 28.5643 13.3722 9.45555
90 1 4 -0.60118 7.96762 7.71958 5.45857
91 1 4 -0.60118 25.8628 14.9319 13.8671
92 1 4 -0.60118 10.6692 6.15984 1.04697
93 1 4 -0.601179 24.6974 14.2591 11.9641
94 1 4 -0.601179 11.8345 6.83267 2.95001
95 1 4 -0.60118 28.9351 18.0514 9.45555
96 1 4 -0.60118 7.59682 3.04037 5.45857
97 1 4 -0.601179 30.1005 16.0329 9.45555
98 1 4 -0.601179 6.43145 5.05885 5.45857
99 1 4 -0.601179 24.6974 16.0329 9.45555
100 1 4 -0.601179 11.8345 5.05885 5.45857
101 1 4 -0.60118 25.8628 18.0514 9.45555
102 1 4 -0.60118 10.6692 3.04037 5.45857
103 1 4 -0.60118 28.9351 14.9319 13.8671
104 1 4 -0.60118 7.59682 6.15984 1.04697
105 1 4 -0.60118 30.1005 14.2591 11.9641
106 1 4 -0.60118 6.43145 6.83267 2.95001
ITEM: TIMESTEP
70000
ITEM: NUMBER OF ATOMS
106
ITEM: BOX BOUNDS xy xz yz pp pp pp
0.0000000000000000e+00 3.6531964750000000e+01 9.1329911900000003e+00
0.0000000000000000e+00 2.1091739680000000e+01 9.1329911900000003e+00
0.0000000000000000e+00 1.4914112149999999e+01 5.2729349200000000e+00
ITEM: ATOMS id mol type q x y z
1 1 1 1.10383 27.399 17.6496 10.5383
2 1 1 1.10383 9.13299 3.44217 4.3758
3 1 1 1.10383 27.399 15.8188 13.1274
4 1 1 1.10383 9.13299 5.27293 1.78671
5 1 1 1.10383 25.8135 14.9034 10.5383
6 1 1 1.10383 10.7185 6.18832 4.3758
7 1 1 1.10383 28.9845 14.9034 10.5383
8 1 1 1.10383 7.5475 6.18832 4.3758
9 1 2 0.115889 18.266 5.48596 12.6084
10 1 2 0.115889 18.266 15.6058 2.30572
11 1 2 0.115888 18.266 13.716 0.969417
12 1 2 0.115888 18.266 7.37578 13.9447
13 1 2 0.11589 25.3934 11.4908 8.12521
14 1 2 0.11589 11.1386 9.60096 6.7889
15 1 2 0.115888 11.1386 11.4908 8.12521
16 1 2 0.115888 25.3934 9.60096 6.7889
17 1 2 0.115889 15.5206 8.96083 0.969417
18 1 2 0.115889 21.0114 12.1309 13.9447
19 1 2 0.115888 22.648 13.0758 12.6084
20 1 2 0.115888 13.884 8.01592 2.30572
21 1 2 0.115889 21.0114 3.90092 8.12521
22 1 2 0.115889 15.5206 17.1908 6.7889
23 1 2 0.115887 13.884 16.2459 8.12521
24 1 2 0.115887 22.648 4.84583 6.7889
25 1 2 0.115889 22.648 16.2459 8.12521
26 1 2 0.115889 13.884 4.84583 6.7889
27 1 2 0.115887 15.5206 3.90092 8.12521
28 1 2 0.115887 21.0114 17.1908 6.7889
29 1 2 0.115889 21.0114 8.96083 0.969417
30 1 2 0.115889 15.5206 12.1309 13.9447
31 1 2 0.115887 13.884 13.0758 12.6084
32 1 2 0.115887 22.648 8.01592 2.30572
33 1 3 0.671939 27.399 18.7442 13.2542
34 1 3 0.671939 9.13299 2.34751 1.65994
35 1 3 0.671939 27.399 12.8934 9.117
36 1 3 0.671939 9.13299 8.19836 5.79712
37 1 3 0.67194 24.8655 14.3561 13.2542
38 1 3 0.67194 11.6665 6.73565 1.65994
39 1 3 0.67194 29.9325 17.2815 9.117
40 1 3 0.67194 6.5995 3.81022 5.79712
41 1 3 0.67194 24.8655 17.2815 9.117
42 1 3 0.67194 11.6665 3.81022 5.79712
43 1 3 0.67194 29.9325 14.3561 13.2542
44 1 3 0.67194 6.5995 6.73565 1.65994
45 1 3 -0.11508 27.399 19.957 14.1117
46 1 3 -0.11508 9.13299 1.13474 0.802379
47 1 3 -0.11508 27.399 11.6806 8.25944
48 1 3 -0.11508 9.13299 9.41113 6.65468
49 1 3 -0.11508 23.8152 13.7497 14.1117
50 1 3 -0.11508 12.7168 7.34203 0.802379
51 1 3 -0.11508 30.9828 17.8879 8.25944
52 1 3 -0.11508 5.54921 3.20384 6.65468
53 1 3 -0.11508 23.8152 17.8879 8.25944
54 1 3 -0.11508 12.7168 3.20384 6.65468
55 1 3 -0.11508 30.9828 13.7497 14.1117
56 1 3 -0.11508 5.54921 7.34203 0.802379
57 1 3 -0.0559 18.266 5.39949 13.5316
58 1 3 -0.0559 18.266 15.6923 1.38254
59 1 3 -0.055903 18.266 14.5575 0.580159
60 1 3 -0.055903 18.266 6.53422 14.334
61 1 3 -0.0559 26.1971 11.1132 7.85825
62 1 3 -0.0559 10.3349 9.9785 7.05587
63 1 3 -0.055903 10.3349 11.1132 7.85825
64 1 3 -0.055903 26.1971 9.9785 7.05587
65 1 3 -0.0559 14.7918 8.54005 0.580159
66 1 3 -0.0559 21.7402 12.5517 14.334
67 1 3 -0.055903 22.7229 13.1191 13.5316
68 1 3 -0.055903 13.8091 7.97268 1.38254
69 1 3 -0.0559 21.7402 3.39366 7.85825
70 1 3 -0.0559 14.7918 17.6981 7.05587
71 1 3 -0.055903 13.8091 17.1307 7.85825
72 1 3 -0.055903 22.7229 3.96103 7.05587
73 1 3 -0.055901 22.7229 17.1307 7.85825
74 1 3 -0.055901 13.8091 3.96103 7.05587
75 1 3 -0.055903 14.7918 3.39366 7.85825
76 1 3 -0.055903 21.7402 17.6981 7.05587
77 1 3 -0.0559 21.7402 8.54005 0.580159
78 1 3 -0.0559 14.7918 12.5517 14.334
79 1 3 -0.055903 13.8091 13.1191 13.5316
80 1 3 -0.055903 22.7229 7.97268 1.38254
81 1 4 -1.26215 27.399 15.8188 11.1856
82 1 4 -1.26215 9.13299 5.27293 3.72853
83 1 4 -0.60118 27.399 18.9383 11.9641
84 1 4 -0.60118 9.13299 2.15347 2.95001
85 1 4 -0.601179 27.399 17.5926 13.8671
86 1 4 -0.601179 9.13299 3.49912 1.04697
87 1 4 -0.601179 26.2336 13.3722 9.45555
88 1 4 -0.601179 10.2984 7.71958 5.45857
89 1 4 -0.60118 28.5643 13.3722 9.45555
90 1 4 -0.60118 7.96762 7.71958 5.45857
91 1 4 -0.60118 25.8628 14.9319 13.8671
92 1 4 -0.60118 10.6692 6.15984 1.04697
93 1 4 -0.601179 24.6974 14.2591 11.9641
94 1 4 -0.601179 11.8345 6.83267 2.95001
95 1 4 -0.60118 28.9351 18.0514 9.45555
96 1 4 -0.60118 7.59682 3.04037 5.45857
97 1 4 -0.601179 30.1005 16.0329 9.45555
98 1 4 -0.601179 6.43145 5.05885 5.45857
99 1 4 -0.601179 24.6974 16.0329 9.45555
100 1 4 -0.601179 11.8345 5.05885 5.45857
101 1 4 -0.60118 25.8628 18.0514 9.45555
102 1 4 -0.60118 10.6692 3.04037 5.45857
103 1 4 -0.60118 28.9351 14.9319 13.8671
104 1 4 -0.60118 7.59682 6.15984 1.04697
105 1 4 -0.60118 30.1005 14.2591 11.9641
106 1 4 -0.60118 6.43145 6.83267 2.95001
ITEM: TIMESTEP
71000
ITEM: NUMBER OF ATOMS
106
ITEM: BOX BOUNDS xy xz yz pp pp pp
0.0000000000000000e+00 3.6531964750000000e+01 9.1329911900000003e+00
0.0000000000000000e+00 2.1091739680000000e+01 9.1329911900000003e+00
0.0000000000000000e+00 1.4914112149999999e+01 5.2729349200000000e+00
ITEM: ATOMS id mol type q x y z
1 1 1 1.10383 27.399 17.6496 10.5383
2 1 1 1.10383 9.13299 3.44217 4.3758
3 1 1 1.10383 27.399 15.8188 13.1274
4 1 1 1.10383 9.13299 5.27293 1.78671
5 1 1 1.10383 25.8135 14.9034 10.5383
6 1 1 1.10383 10.7185 6.18832 4.3758
7 1 1 1.10383 28.9845 14.9034 10.5383
8 1 1 1.10383 7.5475 6.18832 4.3758
9 1 2 0.115889 18.266 5.48596 12.6084
10 1 2 0.115889 18.266 15.6058 2.30572
11 1 2 0.115888 18.266 13.716 0.969417
12 1 2 0.115888 18.266 7.37578 13.9447
13 1 2 0.11589 25.3934 11.4908 8.12521
14 1 2 0.11589 11.1386 9.60096 6.7889
15 1 2 0.115888 11.1386 11.4908 8.12521
16 1 2 0.115888 25.3934 9.60096 6.7889
17 1 2 0.115889 15.5206 8.96083 0.969417
18 1 2 0.115889 21.0114 12.1309 13.9447
19 1 2 0.115888 22.648 13.0758 12.6084
20 1 2 0.115888 13.884 8.01592 2.30572
21 1 2 0.115889 21.0114 3.90092 8.12521
22 1 2 0.115889 15.5206 17.1908 6.7889
23 1 2 0.115887 13.884 16.2459 8.12521
24 1 2 0.115887 22.648 4.84583 6.7889
25 1 2 0.115889 22.648 16.2459 8.12521
26 1 2 0.115889 13.884 4.84583 6.7889
27 1 2 0.115887 15.5206 3.90092 8.12521
28 1 2 0.115887 21.0114 17.1908 6.7889
29 1 2 0.115889 21.0114 8.96083 0.969417
30 1 2 0.115889 15.5206 12.1309 13.9447
31 1 2 0.115887 13.884 13.0758 12.6084
32 1 2 0.115887 22.648 8.01592 2.30572
33 1 3 0.671939 27.399 18.7442 13.2542
34 1 3 0.671939 9.13299 2.34751 1.65994
35 1 3 0.671939 27.399 12.8934 9.117
36 1 3 0.671939 9.13299 8.19836 5.79712
37 1 3 0.67194 24.8655 14.3561 13.2542
38 1 3 0.67194 11.6665 6.73565 1.65994
39 1 3 0.67194 29.9325 17.2815 9.117
40 1 3 0.67194 6.5995 3.81022 5.79712
41 1 3 0.67194 24.8655 17.2815 9.117
42 1 3 0.67194 11.6665 3.81022 5.79712
43 1 3 0.67194 29.9325 14.3561 13.2542
44 1 3 0.67194 6.5995 6.73565 1.65994
45 1 3 -0.11508 27.399 19.957 14.1117
46 1 3 -0.11508 9.13299 1.13474 0.802379
47 1 3 -0.11508 27.399 11.6806 8.25944
48 1 3 -0.11508 9.13299 9.41113 6.65468
49 1 3 -0.11508 23.8152 13.7497 14.1117
50 1 3 -0.11508 12.7168 7.34203 0.802379
51 1 3 -0.11508 30.9828 17.8879 8.25944
52 1 3 -0.11508 5.54921 3.20384 6.65468
53 1 3 -0.11508 23.8152 17.8879 8.25944
54 1 3 -0.11508 12.7168 3.20384 6.65468
55 1 3 -0.11508 30.9828 13.7497 14.1117
56 1 3 -0.11508 5.54921 7.34203 0.802379
57 1 3 -0.0559 18.266 5.39949 13.5316
58 1 3 -0.0559 18.266 15.6923 1.38254
59 1 3 -0.055903 18.266 14.5575 0.580159
60 1 3 -0.055903 18.266 6.53422 14.334
61 1 3 -0.0559 26.1971 11.1132 7.85825
62 1 3 -0.0559 10.3349 9.9785 7.05587
63 1 3 -0.055903 10.3349 11.1132 7.85825
64 1 3 -0.055903 26.1971 9.9785 7.05587
65 1 3 -0.0559 14.7918 8.54005 0.580159
66 1 3 -0.0559 21.7402 12.5517 14.334
67 1 3 -0.055903 22.7229 13.1191 13.5316
68 1 3 -0.055903 13.8091 7.97268 1.38254
69 1 3 -0.0559 21.7402 3.39366 7.85825
70 1 3 -0.0559 14.7918 17.6981 7.05587
71 1 3 -0.055903 13.8091 17.1307 7.85825
72 1 3 -0.055903 22.7229 3.96103 7.05587
73 1 3 -0.055901 22.7229 17.1307 7.85825
74 1 3 -0.055901 13.8091 3.96103 7.05587
75 1 3 -0.055903 14.7918 3.39366 7.85825
76 1 3 -0.055903 21.7402 17.6981 7.05587
77 1 3 -0.0559 21.7402 8.54005 0.580159
78 1 3 -0.0559 14.7918 12.5517 14.334
79 1 3 -0.055903 13.8091 13.1191 13.5316
80 1 3 -0.055903 22.7229 7.97268 1.38254
81 1 4 -1.26215 27.399 15.8188 11.1856
82 1 4 -1.26215 9.13299 5.27293 3.72853
83 1 4 -0.60118 27.399 18.9383 11.9641
84 1 4 -0.60118 9.13299 2.15347 2.95001
85 1 4 -0.601179 27.399 17.5926 13.8671
86 1 4 -0.601179 9.13299 3.49912 1.04697
87 1 4 -0.601179 26.2336 13.3722 9.45555
88 1 4 -0.601179 10.2984 7.71958 5.45857
89 1 4 -0.60118 28.5643 13.3722 9.45555
90 1 4 -0.60118 7.96762 7.71958 5.45857
91 1 4 -0.60118 25.8628 14.9319 13.8671
92 1 4 -0.60118 10.6692 6.15984 1.04697
93 1 4 -0.601179 24.6974 14.2591 11.9641
94 1 4 -0.601179 11.8345 6.83267 2.95001
95 1 4 -0.60118 28.9351 18.0514 9.45555
96 1 4 -0.60118 7.59682 3.04037 5.45857
97 1 4 -0.601179 30.1005 16.0329 9.45555
98 1 4 -0.601179 6.43145 5.05885 5.45857
99 1 4 -0.601179 24.6974 16.0329 9.45555
100 1 4 -0.601179 11.8345 5.05885 5.45857
101 1 4 -0.60118 25.8628 18.0514 9.45555
102 1 4 -0.60118 10.6692 3.04037 5.45857
103 1 4 -0.60118 28.9351 14.9319 13.8671
104 1 4 -0.60118 7.59682 6.15984 1.04697
105 1 4 -0.60118 30.1005 14.2591 11.9641
106 1 4 -0.60118 6.43145 6.83267 2.95001
ITEM: TIMESTEP
72000
ITEM: NUMBER OF ATOMS
109
ITEM: BOX BOUNDS xy xz yz pp pp pp
0.0000000000000000e+00 3.6531964750000000e+01 9.1329911900000003e+00
0.0000000000000000e+00 2.1091739680000000e+01 9.1329911900000003e+00
0.0000000000000000e+00 1.4914112149999999e+01 5.2729349200000000e+00
ITEM: ATOMS id mol type q x y z
1 1 1 1.10383 27.399 17.6496 10.5383
2 1 1 1.10383 9.13299 3.44217 4.3758
3 1 1 1.10383 27.399 15.8188 13.1274
4 1 1 1.10383 9.13299 5.27293 1.78671
5 1 1 1.10383 25.8135 14.9034 10.5383
6 1 1 1.10383 10.7185 6.18832 4.3758
7 1 1 1.10383 28.9845 14.9034 10.5383
8 1 1 1.10383 7.5475 6.18832 4.3758
9 1 2 0.115889 18.266 5.48596 12.6084
10 1 2 0.115889 18.266 15.6058 2.30572
11 1 2 0.115888 18.266 13.716 0.969417
12 1 2 0.115888 18.266 7.37578 13.9447
13 1 2 0.11589 25.3934 11.4908 8.12521
14 1 2 0.11589 11.1386 9.60096 6.7889
15 1 2 0.115888 11.1386 11.4908 8.12521
16 1 2 0.115888 25.3934 9.60096 6.7889
17 1 2 0.115889 15.5206 8.96083 0.969417
18 1 2 0.115889 21.0114 12.1309 13.9447
19 1 2 0.115888 22.648 13.0758 12.6084
20 1 2 0.115888 13.884 8.01592 2.30572
21 1 2 0.115889 21.0114 3.90092 8.12521
22 1 2 0.115889 15.5206 17.1908 6.7889
23 1 2 0.115887 13.884 16.2459 8.12521
24 1 2 0.115887 22.648 4.84583 6.7889
25 1 2 0.115889 22.648 16.2459 8.12521
26 1 2 0.115889 13.884 4.84583 6.7889
27 1 2 0.115887 15.5206 3.90092 8.12521
28 1 2 0.115887 21.0114 17.1908 6.7889
29 1 2 0.115889 21.0114 8.96083 0.969417
30 1 2 0.115889 15.5206 12.1309 13.9447
31 1 2 0.115887 13.884 13.0758 12.6084
32 1 2 0.115887 22.648 8.01592 2.30572
33 1 3 0.671939 27.399 18.7442 13.2542
34 1 3 0.671939 9.13299 2.34751 1.65994
35 1 3 0.671939 27.399 12.8934 9.117
36 1 3 0.671939 9.13299 8.19836 5.79712
37 1 3 0.67194 24.8655 14.3561 13.2542
38 1 3 0.67194 11.6665 6.73565 1.65994
39 1 3 0.67194 29.9325 17.2815 9.117
40 1 3 0.67194 6.5995 3.81022 5.79712
41 1 3 0.67194 24.8655 17.2815 9.117
42 1 3 0.67194 11.6665 3.81022 5.79712
43 1 3 0.67194 29.9325 14.3561 13.2542
44 1 3 0.67194 6.5995 6.73565 1.65994
45 1 3 -0.11508 27.399 19.957 14.1117
46 1 3 -0.11508 9.13299 1.13474 0.802379
47 1 3 -0.11508 27.399 11.6806 8.25944
48 1 3 -0.11508 9.13299 9.41113 6.65468
49 1 3 -0.11508 23.8152 13.7497 14.1117
50 1 3 -0.11508 12.7168 7.34203 0.802379
51 1 3 -0.11508 30.9828 17.8879 8.25944
52 1 3 -0.11508 5.54921 3.20384 6.65468
53 1 3 -0.11508 23.8152 17.8879 8.25944
54 1 3 -0.11508 12.7168 3.20384 6.65468
55 1 3 -0.11508 30.9828 13.7497 14.1117
56 1 3 -0.11508 5.54921 7.34203 0.802379
57 1 3 -0.0559 18.266 5.39949 13.5316
58 1 3 -0.0559 18.266 15.6923 1.38254
59 1 3 -0.055903 18.266 14.5575 0.580159
60 1 3 -0.055903 18.266 6.53422 14.334
61 1 3 -0.0559 26.1971 11.1132 7.85825
62 1 3 -0.0559 10.3349 9.9785 7.05587
63 1 3 -0.055903 10.3349 11.1132 7.85825
64 1 3 -0.055903 26.1971 9.9785 7.05587
65 1 3 -0.0559 14.7918 8.54005 0.580159
66 1 3 -0.0559 21.7402 12.5517 14.334
67 1 3 -0.055903 22.7229 13.1191 13.5316
68 1 3 -0.055903 13.8091 7.97268 1.38254
69 1 3 -0.0559 21.7402 3.39366 7.85825
70 1 3 -0.0559 14.7918 17.6981 7.05587
71 1 3 -0.055903 13.8091 17.1307 7.85825
72 1 3 -0.055903 22.7229 3.96103 7.05587
73 1 3 -0.055901 22.7229 17.1307 7.85825
74 1 3 -0.055901 13.8091 3.96103 7.05587
75 1 3 -0.055903 14.7918 3.39366 7.85825
76 1 3 -0.055903 21.7402 17.6981 7.05587
77 1 3 -0.0559 21.7402 8.54005 0.580159
78 1 3 -0.0559 14.7918 12.5517 14.334
79 1 3 -0.055903 13.8091 13.1191 13.5316
80 1 3 -0.055903 22.7229 7.97268 1.38254
81 1 4 -1.26215 27.399 15.8188 11.1856
82 1 4 -1.26215 9.13299 5.27293 3.72853
83 1 4 -0.60118 27.399 18.9383 11.9641
84 1 4 -0.60118 9.13299 2.15347 2.95001
85 1 4 -0.601179 27.399 17.5926 13.8671
86 1 4 -0.601179 9.13299 3.49912 1.04697
87 1 4 -0.601179 26.2336 13.3722 9.45555
88 1 4 -0.601179 10.2984 7.71958 5.45857
89 1 4 -0.60118 28.5643 13.3722 9.45555
90 1 4 -0.60118 7.96762 7.71958 5.45857
91 1 4 -0.60118 25.8628 14.9319 13.8671
92 1 4 -0.60118 10.6692 6.15984 1.04697
93 1 4 -0.601179 24.6974 14.2591 11.9641
94 1 4 -0.601179 11.8345 6.83267 2.95001
95 1 4 -0.60118 28.9351 18.0514 9.45555
96 1 4 -0.60118 7.59682 3.04037 5.45857
97 1 4 -0.601179 30.1005 16.0329 9.45555
98 1 4 -0.601179 6.43145 5.05885 5.45857
99 1 4 -0.601179 24.6974 16.0329 9.45555
100 1 4 -0.601179 11.8345 5.05885 5.45857
101 1 4 -0.60118 25.8628 18.0514 9.45555
102 1 4 -0.60118 10.6692 3.04037 5.45857
103 1 4 -0.60118 28.9351 14.9319 13.8671
104 1 4 -0.60118 7.59682 6.15984 1.04697
105 1 4 -0.60118 30.1005 14.2591 11.9641
106 1 4 -0.60118 6.43145 6.83267 2.95001
107 2 5 -0.35 20.4612 5.36812 0.360903
108 2 6 0.7 28.9404 10.6733 14.3173
109 2 5 -0.35 28.2867 10.7056 13.3596
ITEM: TIMESTEP
73000
ITEM: NUMBER OF ATOMS
106
ITEM: BOX BOUNDS xy xz yz pp pp pp
0.0000000000000000e+00 3.6531964750000000e+01 9.1329911900000003e+00
0.0000000000000000e+00 2.1091739680000000e+01 9.1329911900000003e+00
0.0000000000000000e+00 1.4914112149999999e+01 5.2729349200000000e+00
ITEM: ATOMS id mol type q x y z
1 1 1 1.10383 27.399 17.6496 10.5383
2 1 1 1.10383 9.13299 3.44217 4.3758
3 1 1 1.10383 27.399 15.8188 13.1274
4 1 1 1.10383 9.13299 5.27293 1.78671
5 1 1 1.10383 25.8135 14.9034 10.5383
6 1 1 1.10383 10.7185 6.18832 4.3758
7 1 1 1.10383 28.9845 14.9034 10.5383
8 1 1 1.10383 7.5475 6.18832 4.3758
9 1 2 0.115889 18.266 5.48596 12.6084
10 1 2 0.115889 18.266 15.6058 2.30572
11 1 2 0.115888 18.266 13.716 0.969417
12 1 2 0.115888 18.266 7.37578 13.9447
13 1 2 0.11589 25.3934 11.4908 8.12521
14 1 2 0.11589 11.1386 9.60096 6.7889
15 1 2 0.115888 11.1386 11.4908 8.12521
16 1 2 0.115888 25.3934 9.60096 6.7889
17 1 2 0.115889 15.5206 8.96083 0.969417
18 1 2 0.115889 21.0114 12.1309 13.9447
19 1 2 0.115888 22.648 13.0758 12.6084
20 1 2 0.115888 13.884 8.01592 2.30572
21 1 2 0.115889 21.0114 3.90092 8.12521
22 1 2 0.115889 15.5206 17.1908 6.7889
23 1 2 0.115887 13.884 16.2459 8.12521
24 1 2 0.115887 22.648 4.84583 6.7889
25 1 2 0.115889 22.648 16.2459 8.12521
26 1 2 0.115889 13.884 4.84583 6.7889
27 1 2 0.115887 15.5206 3.90092 8.12521
28 1 2 0.115887 21.0114 17.1908 6.7889
29 1 2 0.115889 21.0114 8.96083 0.969417
30 1 2 0.115889 15.5206 12.1309 13.9447
31 1 2 0.115887 13.884 13.0758 12.6084
32 1 2 0.115887 22.648 8.01592 2.30572
33 1 3 0.671939 27.399 18.7442 13.2542
34 1 3 0.671939 9.13299 2.34751 1.65994
35 1 3 0.671939 27.399 12.8934 9.117
36 1 3 0.671939 9.13299 8.19836 5.79712
37 1 3 0.67194 24.8655 14.3561 13.2542
38 1 3 0.67194 11.6665 6.73565 1.65994
39 1 3 0.67194 29.9325 17.2815 9.117
40 1 3 0.67194 6.5995 3.81022 5.79712
41 1 3 0.67194 24.8655 17.2815 9.117
42 1 3 0.67194 11.6665 3.81022 5.79712
43 1 3 0.67194 29.9325 14.3561 13.2542
44 1 3 0.67194 6.5995 6.73565 1.65994
45 1 3 -0.11508 27.399 19.957 14.1117
46 1 3 -0.11508 9.13299 1.13474 0.802379
47 1 3 -0.11508 27.399 11.6806 8.25944
48 1 3 -0.11508 9.13299 9.41113 6.65468
49 1 3 -0.11508 23.8152 13.7497 14.1117
50 1 3 -0.11508 12.7168 7.34203 0.802379
51 1 3 -0.11508 30.9828 17.8879 8.25944
52 1 3 -0.11508 5.54921 3.20384 6.65468
53 1 3 -0.11508 23.8152 17.8879 8.25944
54 1 3 -0.11508 12.7168 3.20384 6.65468
55 1 3 -0.11508 30.9828 13.7497 14.1117
56 1 3 -0.11508 5.54921 7.34203 0.802379
57 1 3 -0.0559 18.266 5.39949 13.5316
58 1 3 -0.0559 18.266 15.6923 1.38254
59 1 3 -0.055903 18.266 14.5575 0.580159
60 1 3 -0.055903 18.266 6.53422 14.334
61 1 3 -0.0559 26.1971 11.1132 7.85825
62 1 3 -0.0559 10.3349 9.9785 7.05587
63 1 3 -0.055903 10.3349 11.1132 7.85825
64 1 3 -0.055903 26.1971 9.9785 7.05587
65 1 3 -0.0559 14.7918 8.54005 0.580159
66 1 3 -0.0559 21.7402 12.5517 14.334
67 1 3 -0.055903 22.7229 13.1191 13.5316
68 1 3 -0.055903 13.8091 7.97268 1.38254
69 1 3 -0.0559 21.7402 3.39366 7.85825
70 1 3 -0.0559 14.7918 17.6981 7.05587
71 1 3 -0.055903 13.8091 17.1307 7.85825
72 1 3 -0.055903 22.7229 3.96103 7.05587
73 1 3 -0.055901 22.7229 17.1307 7.85825
74 1 3 -0.055901 13.8091 3.96103 7.05587
75 1 3 -0.055903 14.7918 3.39366 7.85825
76 1 3 -0.055903 21.7402 17.6981 7.05587
77 1 3 -0.0559 21.7402 8.54005 0.580159
78 1 3 -0.0559 14.7918 12.5517 14.334
79 1 3 -0.055903 13.8091 13.1191 13.5316
80 1 3 -0.055903 22.7229 7.97268 1.38254
81 1 4 -1.26215 27.399 15.8188 11.1856
82 1 4 -1.26215 9.13299 5.27293 3.72853
83 1 4 -0.60118 27.399 18.9383 11.9641
84 1 4 -0.60118 9.13299 2.15347 2.95001
85 1 4 -0.601179 27.399 17.5926 13.8671
86 1 4 -0.601179 9.13299 3.49912 1.04697
87 1 4 -0.601179 26.2336 13.3722 9.45555
88 1 4 -0.601179 10.2984 7.71958 5.45857
89 1 4 -0.60118 28.5643 13.3722 9.45555
90 1 4 -0.60118 7.96762 7.71958 5.45857
91 1 4 -0.60118 25.8628 14.9319 13.8671
92 1 4 -0.60118 10.6692 6.15984 1.04697
93 1 4 -0.601179 24.6974 14.2591 11.9641
94 1 4 -0.601179 11.8345 6.83267 2.95001
95 1 4 -0.60118 28.9351 18.0514 9.45555
96 1 4 -0.60118 7.59682 3.04037 5.45857
97 1 4 -0.601179 30.1005 16.0329 9.45555
98 1 4 -0.601179 6.43145 5.05885 5.45857
99 1 4 -0.601179 24.6974 16.0329 9.45555
100 1 4 -0.601179 11.8345 5.05885 5.45857
101 1 4 -0.60118 25.8628 18.0514 9.45555
102 1 4 -0.60118 10.6692 3.04037 5.45857
103 1 4 -0.60118 28.9351 14.9319 13.8671
104 1 4 -0.60118 7.59682 6.15984 1.04697
105 1 4 -0.60118 30.1005 14.2591 11.9641
106 1 4 -0.60118 6.43145 6.83267 2.95001
ITEM: TIMESTEP
74000
ITEM: NUMBER OF ATOMS
106
ITEM: BOX BOUNDS xy xz yz pp pp pp
0.0000000000000000e+00 3.6531964750000000e+01 9.1329911900000003e+00
0.0000000000000000e+00 2.1091739680000000e+01 9.1329911900000003e+00
0.0000000000000000e+00 1.4914112149999999e+01 5.2729349200000000e+00
ITEM: ATOMS id mol type q x y z
1 1 1 1.10383 27.399 17.6496 10.5383
2 1 1 1.10383 9.13299 3.44217 4.3758
3 1 1 1.10383 27.399 15.8188 13.1274
4 1 1 1.10383 9.13299 5.27293 1.78671
5 1 1 1.10383 25.8135 14.9034 10.5383
6 1 1 1.10383 10.7185 6.18832 4.3758
7 1 1 1.10383 28.9845 14.9034 10.5383
8 1 1 1.10383 7.5475 6.18832 4.3758
9 1 2 0.115889 18.266 5.48596 12.6084
10 1 2 0.115889 18.266 15.6058 2.30572
11 1 2 0.115888 18.266 13.716 0.969417
12 1 2 0.115888 18.266 7.37578 13.9447
13 1 2 0.11589 25.3934 11.4908 8.12521
14 1 2 0.11589 11.1386 9.60096 6.7889
15 1 2 0.115888 11.1386 11.4908 8.12521
16 1 2 0.115888 25.3934 9.60096 6.7889
17 1 2 0.115889 15.5206 8.96083 0.969417
18 1 2 0.115889 21.0114 12.1309 13.9447
19 1 2 0.115888 22.648 13.0758 12.6084
20 1 2 0.115888 13.884 8.01592 2.30572
21 1 2 0.115889 21.0114 3.90092 8.12521
22 1 2 0.115889 15.5206 17.1908 6.7889
23 1 2 0.115887 13.884 16.2459 8.12521
24 1 2 0.115887 22.648 4.84583 6.7889
25 1 2 0.115889 22.648 16.2459 8.12521
26 1 2 0.115889 13.884 4.84583 6.7889
27 1 2 0.115887 15.5206 3.90092 8.12521
28 1 2 0.115887 21.0114 17.1908 6.7889
29 1 2 0.115889 21.0114 8.96083 0.969417
30 1 2 0.115889 15.5206 12.1309 13.9447
31 1 2 0.115887 13.884 13.0758 12.6084
32 1 2 0.115887 22.648 8.01592 2.30572
33 1 3 0.671939 27.399 18.7442 13.2542
34 1 3 0.671939 9.13299 2.34751 1.65994
35 1 3 0.671939 27.399 12.8934 9.117
36 1 3 0.671939 9.13299 8.19836 5.79712
37 1 3 0.67194 24.8655 14.3561 13.2542
38 1 3 0.67194 11.6665 6.73565 1.65994
39 1 3 0.67194 29.9325 17.2815 9.117
40 1 3 0.67194 6.5995 3.81022 5.79712
41 1 3 0.67194 24.8655 17.2815 9.117
42 1 3 0.67194 11.6665 3.81022 5.79712
43 1 3 0.67194 29.9325 14.3561 13.2542
44 1 3 0.67194 6.5995 6.73565 1.65994
45 1 3 -0.11508 27.399 19.957 14.1117
46 1 3 -0.11508 9.13299 1.13474 0.802379
47 1 3 -0.11508 27.399 11.6806 8.25944
48 1 3 -0.11508 9.13299 9.41113 6.65468
49 1 3 -0.11508 23.8152 13.7497 14.1117
50 1 3 -0.11508 12.7168 7.34203 0.802379
51 1 3 -0.11508 30.9828 17.8879 8.25944
52 1 3 -0.11508 5.54921 3.20384 6.65468
53 1 3 -0.11508 23.8152 17.8879 8.25944
54 1 3 -0.11508 12.7168 3.20384 6.65468
55 1 3 -0.11508 30.9828 13.7497 14.1117
56 1 3 -0.11508 5.54921 7.34203 0.802379
57 1 3 -0.0559 18.266 5.39949 13.5316
58 1 3 -0.0559 18.266 15.6923 1.38254
59 1 3 -0.055903 18.266 14.5575 0.580159
60 1 3 -0.055903 18.266 6.53422 14.334
61 1 3 -0.0559 26.1971 11.1132 7.85825
62 1 3 -0.0559 10.3349 9.9785 7.05587
63 1 3 -0.055903 10.3349 11.1132 7.85825
64 1 3 -0.055903 26.1971 9.9785 7.05587
65 1 3 -0.0559 14.7918 8.54005 0.580159
66 1 3 -0.0559 21.7402 12.5517 14.334
67 1 3 -0.055903 22.7229 13.1191 13.5316
68 1 3 -0.055903 13.8091 7.97268 1.38254
69 1 3 -0.0559 21.7402 3.39366 7.85825
70 1 3 -0.0559 14.7918 17.6981 7.05587
71 1 3 -0.055903 13.8091 17.1307 7.85825
72 1 3 -0.055903 22.7229 3.96103 7.05587
73 1 3 -0.055901 22.7229 17.1307 7.85825
74 1 3 -0.055901 13.8091 3.96103 7.05587
75 1 3 -0.055903 14.7918 3.39366 7.85825
76 1 3 -0.055903 21.7402 17.6981 7.05587
77 1 3 -0.0559 21.7402 8.54005 0.580159
78 1 3 -0.0559 14.7918 12.5517 14.334
79 1 3 -0.055903 13.8091 13.1191 13.5316
80 1 3 -0.055903 22.7229 7.97268 1.38254
81 1 4 -1.26215 27.399 15.8188 11.1856
82 1 4 -1.26215 9.13299 5.27293 3.72853
83 1 4 -0.60118 27.399 18.9383 11.9641
84 1 4 -0.60118 9.13299 2.15347 2.95001
85 1 4 -0.601179 27.399 17.5926 13.8671
86 1 4 -0.601179 9.13299 3.49912 1.04697
87 1 4 -0.601179 26.2336 13.3722 9.45555
88 1 4 -0.601179 10.2984 7.71958 5.45857
89 1 4 -0.60118 28.5643 13.3722 9.45555
90 1 4 -0.60118 7.96762 7.71958 5.45857
91 1 4 -0.60118 25.8628 14.9319 13.8671
92 1 4 -0.60118 10.6692 6.15984 1.04697
93 1 4 -0.601179 24.6974 14.2591 11.9641
94 1 4 -0.601179 11.8345 6.83267 2.95001
95 1 4 -0.60118 28.9351 18.0514 9.45555
96 1 4 -0.60118 7.59682 3.04037 5.45857
97 1 4 -0.601179 30.1005 16.0329 9.45555
98 1 4 -0.601179 6.43145 5.05885 5.45857
99 1 4 -0.601179 24.6974 16.0329 9.45555
100 1 4 -0.601179 11.8345 5.05885 5.45857
101 1 4 -0.60118 25.8628 18.0514 9.45555
102 1 4 -0.60118 10.6692 3.04037 5.45857
103 1 4 -0.60118 28.9351 14.9319 13.8671
104 1 4 -0.60118 7.59682 6.15984 1.04697
105 1 4 -0.60118 30.1005 14.2591 11.9641
106 1 4 -0.60118 6.43145 6.83267 2.95001
ITEM: TIMESTEP
75000
ITEM: NUMBER OF ATOMS
109
ITEM: BOX BOUNDS xy xz yz pp pp pp
0.0000000000000000e+00 3.6531964750000000e+01 9.1329911900000003e+00
0.0000000000000000e+00 2.1091739680000000e+01 9.1329911900000003e+00
0.0000000000000000e+00 1.4914112149999999e+01 5.2729349200000000e+00
ITEM: ATOMS id mol type q x y z
1 1 1 1.10383 27.399 17.6496 10.5383
2 1 1 1.10383 9.13299 3.44217 4.3758
3 1 1 1.10383 27.399 15.8188 13.1274
4 1 1 1.10383 9.13299 5.27293 1.78671
5 1 1 1.10383 25.8135 14.9034 10.5383
6 1 1 1.10383 10.7185 6.18832 4.3758
7 1 1 1.10383 28.9845 14.9034 10.5383
8 1 1 1.10383 7.5475 6.18832 4.3758
9 1 2 0.115889 18.266 5.48596 12.6084
10 1 2 0.115889 18.266 15.6058 2.30572
11 1 2 0.115888 18.266 13.716 0.969417
12 1 2 0.115888 18.266 7.37578 13.9447
13 1 2 0.11589 25.3934 11.4908 8.12521
14 1 2 0.11589 11.1386 9.60096 6.7889
15 1 2 0.115888 11.1386 11.4908 8.12521
16 1 2 0.115888 25.3934 9.60096 6.7889
17 1 2 0.115889 15.5206 8.96083 0.969417
18 1 2 0.115889 21.0114 12.1309 13.9447
19 1 2 0.115888 22.648 13.0758 12.6084
20 1 2 0.115888 13.884 8.01592 2.30572
21 1 2 0.115889 21.0114 3.90092 8.12521
22 1 2 0.115889 15.5206 17.1908 6.7889
23 1 2 0.115887 13.884 16.2459 8.12521
24 1 2 0.115887 22.648 4.84583 6.7889
25 1 2 0.115889 22.648 16.2459 8.12521
26 1 2 0.115889 13.884 4.84583 6.7889
27 1 2 0.115887 15.5206 3.90092 8.12521
28 1 2 0.115887 21.0114 17.1908 6.7889
29 1 2 0.115889 21.0114 8.96083 0.969417
30 1 2 0.115889 15.5206 12.1309 13.9447
31 1 2 0.115887 13.884 13.0758 12.6084
32 1 2 0.115887 22.648 8.01592 2.30572
33 1 3 0.671939 27.399 18.7442 13.2542
34 1 3 0.671939 9.13299 2.34751 1.65994
35 1 3 0.671939 27.399 12.8934 9.117
36 1 3 0.671939 9.13299 8.19836 5.79712
37 1 3 0.67194 24.8655 14.3561 13.2542
38 1 3 0.67194 11.6665 6.73565 1.65994
39 1 3 0.67194 29.9325 17.2815 9.117
40 1 3 0.67194 6.5995 3.81022 5.79712
41 1 3 0.67194 24.8655 17.2815 9.117
42 1 3 0.67194 11.6665 3.81022 5.79712
43 1 3 0.67194 29.9325 14.3561 13.2542
44 1 3 0.67194 6.5995 6.73565 1.65994
45 1 3 -0.11508 27.399 19.957 14.1117
46 1 3 -0.11508 9.13299 1.13474 0.802379
47 1 3 -0.11508 27.399 11.6806 8.25944
48 1 3 -0.11508 9.13299 9.41113 6.65468
49 1 3 -0.11508 23.8152 13.7497 14.1117
50 1 3 -0.11508 12.7168 7.34203 0.802379
51 1 3 -0.11508 30.9828 17.8879 8.25944
52 1 3 -0.11508 5.54921 3.20384 6.65468
53 1 3 -0.11508 23.8152 17.8879 8.25944
54 1 3 -0.11508 12.7168 3.20384 6.65468
55 1 3 -0.11508 30.9828 13.7497 14.1117
56 1 3 -0.11508 5.54921 7.34203 0.802379
57 1 3 -0.0559 18.266 5.39949 13.5316
58 1 3 -0.0559 18.266 15.6923 1.38254
59 1 3 -0.055903 18.266 14.5575 0.580159
60 1 3 -0.055903 18.266 6.53422 14.334
61 1 3 -0.0559 26.1971 11.1132 7.85825
62 1 3 -0.0559 10.3349 9.9785 7.05587
63 1 3 -0.055903 10.3349 11.1132 7.85825
64 1 3 -0.055903 26.1971 9.9785 7.05587
65 1 3 -0.0559 14.7918 8.54005 0.580159
66 1 3 -0.0559 21.7402 12.5517 14.334
67 1 3 -0.055903 22.7229 13.1191 13.5316
68 1 3 -0.055903 13.8091 7.97268 1.38254
69 1 3 -0.0559 21.7402 3.39366 7.85825
70 1 3 -0.0559 14.7918 17.6981 7.05587
71 1 3 -0.055903 13.8091 17.1307 7.85825
72 1 3 -0.055903 22.7229 3.96103 7.05587
73 1 3 -0.055901 22.7229 17.1307 7.85825
74 1 3 -0.055901 13.8091 3.96103 7.05587
75 1 3 -0.055903 14.7918 3.39366 7.85825
76 1 3 -0.055903 21.7402 17.6981 7.05587
77 1 3 -0.0559 21.7402 8.54005 0.580159
78 1 3 -0.0559 14.7918 12.5517 14.334
79 1 3 -0.055903 13.8091 13.1191 13.5316
80 1 3 -0.055903 22.7229 7.97268 1.38254
81 1 4 -1.26215 27.399 15.8188 11.1856
82 1 4 -1.26215 9.13299 5.27293 3.72853
83 1 4 -0.60118 27.399 18.9383 11.9641
84 1 4 -0.60118 9.13299 2.15347 2.95001
85 1 4 -0.601179 27.399 17.5926 13.8671
86 1 4 -0.601179 9.13299 3.49912 1.04697
87 1 4 -0.601179 26.2336 13.3722 9.45555
88 1 4 -0.601179 10.2984 7.71958 5.45857
89 1 4 -0.60118 28.5643 13.3722 9.45555
90 1 4 -0.60118 7.96762 7.71958 5.45857
91 1 4 -0.60118 25.8628 14.9319 13.8671
92 1 4 -0.60118 10.6692 6.15984 1.04697
93 1 4 -0.601179 24.6974 14.2591 11.9641
94 1 4 -0.601179 11.8345 6.83267 2.95001
95 1 4 -0.60118 28.9351 18.0514 9.45555
96 1 4 -0.60118 7.59682 3.04037 5.45857
97 1 4 -0.601179 30.1005 16.0329 9.45555
98 1 4 -0.601179 6.43145 5.05885 5.45857
99 1 4 -0.601179 24.6974 16.0329 9.45555
100 1 4 -0.601179 11.8345 5.05885 5.45857
101 1 4 -0.60118 25.8628 18.0514 9.45555
102 1 4 -0.60118 10.6692 3.04037 5.45857
103 1 4 -0.60118 28.9351 14.9319 13.8671
104 1 4 -0.60118 7.59682 6.15984 1.04697
105 1 4 -0.60118 30.1005 14.2591 11.9641
106 1 4 -0.60118 6.43145 6.83267 2.95001
107 2 5 -0.35 15.6751 7.76785 12.2734
108 2 6 0.7 14.9958 8.35684 11.5405
109 2 5 -0.35 14.3164 8.94582 10.8076
ITEM: TIMESTEP
76000
ITEM: NUMBER OF ATOMS
106
ITEM: BOX BOUNDS xy xz yz pp pp pp
0.0000000000000000e+00 3.6531964750000000e+01 9.1329911900000003e+00
0.0000000000000000e+00 2.1091739680000000e+01 9.1329911900000003e+00
0.0000000000000000e+00 1.4914112149999999e+01 5.2729349200000000e+00
ITEM: ATOMS id mol type q x y z
1 1 1 1.10383 27.399 17.6496 10.5383
2 1 1 1.10383 9.13299 3.44217 4.3758
3 1 1 1.10383 27.399 15.8188 13.1274
4 1 1 1.10383 9.13299 5.27293 1.78671
5 1 1 1.10383 25.8135 14.9034 10.5383
6 1 1 1.10383 10.7185 6.18832 4.3758
7 1 1 1.10383 28.9845 14.9034 10.5383
8 1 1 1.10383 7.5475 6.18832 4.3758
9 1 2 0.115889 18.266 5.48596 12.6084
10 1 2 0.115889 18.266 15.6058 2.30572
11 1 2 0.115888 18.266 13.716 0.969417
12 1 2 0.115888 18.266 7.37578 13.9447
13 1 2 0.11589 25.3934 11.4908 8.12521
14 1 2 0.11589 11.1386 9.60096 6.7889
15 1 2 0.115888 11.1386 11.4908 8.12521
16 1 2 0.115888 25.3934 9.60096 6.7889
17 1 2 0.115889 15.5206 8.96083 0.969417
18 1 2 0.115889 21.0114 12.1309 13.9447
19 1 2 0.115888 22.648 13.0758 12.6084
20 1 2 0.115888 13.884 8.01592 2.30572
21 1 2 0.115889 21.0114 3.90092 8.12521
22 1 2 0.115889 15.5206 17.1908 6.7889
23 1 2 0.115887 13.884 16.2459 8.12521
24 1 2 0.115887 22.648 4.84583 6.7889
25 1 2 0.115889 22.648 16.2459 8.12521
26 1 2 0.115889 13.884 4.84583 6.7889
27 1 2 0.115887 15.5206 3.90092 8.12521
28 1 2 0.115887 21.0114 17.1908 6.7889
29 1 2 0.115889 21.0114 8.96083 0.969417
30 1 2 0.115889 15.5206 12.1309 13.9447
31 1 2 0.115887 13.884 13.0758 12.6084
32 1 2 0.115887 22.648 8.01592 2.30572
33 1 3 0.671939 27.399 18.7442 13.2542
34 1 3 0.671939 9.13299 2.34751 1.65994
35 1 3 0.671939 27.399 12.8934 9.117
36 1 3 0.671939 9.13299 8.19836 5.79712
37 1 3 0.67194 24.8655 14.3561 13.2542
38 1 3 0.67194 11.6665 6.73565 1.65994
39 1 3 0.67194 29.9325 17.2815 9.117
40 1 3 0.67194 6.5995 3.81022 5.79712
41 1 3 0.67194 24.8655 17.2815 9.117
42 1 3 0.67194 11.6665 3.81022 5.79712
43 1 3 0.67194 29.9325 14.3561 13.2542
44 1 3 0.67194 6.5995 6.73565 1.65994
45 1 3 -0.11508 27.399 19.957 14.1117
46 1 3 -0.11508 9.13299 1.13474 0.802379
47 1 3 -0.11508 27.399 11.6806 8.25944
48 1 3 -0.11508 9.13299 9.41113 6.65468
49 1 3 -0.11508 23.8152 13.7497 14.1117
50 1 3 -0.11508 12.7168 7.34203 0.802379
51 1 3 -0.11508 30.9828 17.8879 8.25944
52 1 3 -0.11508 5.54921 3.20384 6.65468
53 1 3 -0.11508 23.8152 17.8879 8.25944
54 1 3 -0.11508 12.7168 3.20384 6.65468
55 1 3 -0.11508 30.9828 13.7497 14.1117
56 1 3 -0.11508 5.54921 7.34203 0.802379
57 1 3 -0.0559 18.266 5.39949 13.5316
58 1 3 -0.0559 18.266 15.6923 1.38254
59 1 3 -0.055903 18.266 14.5575 0.580159
60 1 3 -0.055903 18.266 6.53422 14.334
61 1 3 -0.0559 26.1971 11.1132 7.85825
62 1 3 -0.0559 10.3349 9.9785 7.05587
63 1 3 -0.055903 10.3349 11.1132 7.85825
64 1 3 -0.055903 26.1971 9.9785 7.05587
65 1 3 -0.0559 14.7918 8.54005 0.580159
66 1 3 -0.0559 21.7402 12.5517 14.334
67 1 3 -0.055903 22.7229 13.1191 13.5316
68 1 3 -0.055903 13.8091 7.97268 1.38254
69 1 3 -0.0559 21.7402 3.39366 7.85825
70 1 3 -0.0559 14.7918 17.6981 7.05587
71 1 3 -0.055903 13.8091 17.1307 7.85825
72 1 3 -0.055903 22.7229 3.96103 7.05587
73 1 3 -0.055901 22.7229 17.1307 7.85825
74 1 3 -0.055901 13.8091 3.96103 7.05587
75 1 3 -0.055903 14.7918 3.39366 7.85825
76 1 3 -0.055903 21.7402 17.6981 7.05587
77 1 3 -0.0559 21.7402 8.54005 0.580159
78 1 3 -0.0559 14.7918 12.5517 14.334
79 1 3 -0.055903 13.8091 13.1191 13.5316
80 1 3 -0.055903 22.7229 7.97268 1.38254
81 1 4 -1.26215 27.399 15.8188 11.1856
82 1 4 -1.26215 9.13299 5.27293 3.72853
83 1 4 -0.60118 27.399 18.9383 11.9641
84 1 4 -0.60118 9.13299 2.15347 2.95001
85 1 4 -0.601179 27.399 17.5926 13.8671
86 1 4 -0.601179 9.13299 3.49912 1.04697
87 1 4 -0.601179 26.2336 13.3722 9.45555
88 1 4 -0.601179 10.2984 7.71958 5.45857
89 1 4 -0.60118 28.5643 13.3722 9.45555
90 1 4 -0.60118 7.96762 7.71958 5.45857
91 1 4 -0.60118 25.8628 14.9319 13.8671
92 1 4 -0.60118 10.6692 6.15984 1.04697
93 1 4 -0.601179 24.6974 14.2591 11.9641
94 1 4 -0.601179 11.8345 6.83267 2.95001
95 1 4 -0.60118 28.9351 18.0514 9.45555
96 1 4 -0.60118 7.59682 3.04037 5.45857
97 1 4 -0.601179 30.1005 16.0329 9.45555
98 1 4 -0.601179 6.43145 5.05885 5.45857
99 1 4 -0.601179 24.6974 16.0329 9.45555
100 1 4 -0.601179 11.8345 5.05885 5.45857
101 1 4 -0.60118 25.8628 18.0514 9.45555
102 1 4 -0.60118 10.6692 3.04037 5.45857
103 1 4 -0.60118 28.9351 14.9319 13.8671
104 1 4 -0.60118 7.59682 6.15984 1.04697
105 1 4 -0.60118 30.1005 14.2591 11.9641
106 1 4 -0.60118 6.43145 6.83267 2.95001
ITEM: TIMESTEP
77000
ITEM: NUMBER OF ATOMS
106
ITEM: BOX BOUNDS xy xz yz pp pp pp
0.0000000000000000e+00 3.6531964750000000e+01 9.1329911900000003e+00
0.0000000000000000e+00 2.1091739680000000e+01 9.1329911900000003e+00
0.0000000000000000e+00 1.4914112149999999e+01 5.2729349200000000e+00
ITEM: ATOMS id mol type q x y z
1 1 1 1.10383 27.399 17.6496 10.5383
2 1 1 1.10383 9.13299 3.44217 4.3758
3 1 1 1.10383 27.399 15.8188 13.1274
4 1 1 1.10383 9.13299 5.27293 1.78671
5 1 1 1.10383 25.8135 14.9034 10.5383
6 1 1 1.10383 10.7185 6.18832 4.3758
7 1 1 1.10383 28.9845 14.9034 10.5383
8 1 1 1.10383 7.5475 6.18832 4.3758
9 1 2 0.115889 18.266 5.48596 12.6084
10 1 2 0.115889 18.266 15.6058 2.30572
11 1 2 0.115888 18.266 13.716 0.969417
12 1 2 0.115888 18.266 7.37578 13.9447
13 1 2 0.11589 25.3934 11.4908 8.12521
14 1 2 0.11589 11.1386 9.60096 6.7889
15 1 2 0.115888 11.1386 11.4908 8.12521
16 1 2 0.115888 25.3934 9.60096 6.7889
17 1 2 0.115889 15.5206 8.96083 0.969417
18 1 2 0.115889 21.0114 12.1309 13.9447
19 1 2 0.115888 22.648 13.0758 12.6084
20 1 2 0.115888 13.884 8.01592 2.30572
21 1 2 0.115889 21.0114 3.90092 8.12521
22 1 2 0.115889 15.5206 17.1908 6.7889
23 1 2 0.115887 13.884 16.2459 8.12521
24 1 2 0.115887 22.648 4.84583 6.7889
25 1 2 0.115889 22.648 16.2459 8.12521
26 1 2 0.115889 13.884 4.84583 6.7889
27 1 2 0.115887 15.5206 3.90092 8.12521
28 1 2 0.115887 21.0114 17.1908 6.7889
29 1 2 0.115889 21.0114 8.96083 0.969417
30 1 2 0.115889 15.5206 12.1309 13.9447
31 1 2 0.115887 13.884 13.0758 12.6084
32 1 2 0.115887 22.648 8.01592 2.30572
33 1 3 0.671939 27.399 18.7442 13.2542
34 1 3 0.671939 9.13299 2.34751 1.65994
35 1 3 0.671939 27.399 12.8934 9.117
36 1 3 0.671939 9.13299 8.19836 5.79712
37 1 3 0.67194 24.8655 14.3561 13.2542
38 1 3 0.67194 11.6665 6.73565 1.65994
39 1 3 0.67194 29.9325 17.2815 9.117
40 1 3 0.67194 6.5995 3.81022 5.79712
41 1 3 0.67194 24.8655 17.2815 9.117
42 1 3 0.67194 11.6665 3.81022 5.79712
43 1 3 0.67194 29.9325 14.3561 13.2542
44 1 3 0.67194 6.5995 6.73565 1.65994
45 1 3 -0.11508 27.399 19.957 14.1117
46 1 3 -0.11508 9.13299 1.13474 0.802379
47 1 3 -0.11508 27.399 11.6806 8.25944
48 1 3 -0.11508 9.13299 9.41113 6.65468
49 1 3 -0.11508 23.8152 13.7497 14.1117
50 1 3 -0.11508 12.7168 7.34203 0.802379
51 1 3 -0.11508 30.9828 17.8879 8.25944
52 1 3 -0.11508 5.54921 3.20384 6.65468
53 1 3 -0.11508 23.8152 17.8879 8.25944
54 1 3 -0.11508 12.7168 3.20384 6.65468
55 1 3 -0.11508 30.9828 13.7497 14.1117
56 1 3 -0.11508 5.54921 7.34203 0.802379
57 1 3 -0.0559 18.266 5.39949 13.5316
58 1 3 -0.0559 18.266 15.6923 1.38254
59 1 3 -0.055903 18.266 14.5575 0.580159
60 1 3 -0.055903 18.266 6.53422 14.334
61 1 3 -0.0559 26.1971 11.1132 7.85825
62 1 3 -0.0559 10.3349 9.9785 7.05587
63 1 3 -0.055903 10.3349 11.1132 7.85825
64 1 3 -0.055903 26.1971 9.9785 7.05587
65 1 3 -0.0559 14.7918 8.54005 0.580159
66 1 3 -0.0559 21.7402 12.5517 14.334
67 1 3 -0.055903 22.7229 13.1191 13.5316
68 1 3 -0.055903 13.8091 7.97268 1.38254
69 1 3 -0.0559 21.7402 3.39366 7.85825
70 1 3 -0.0559 14.7918 17.6981 7.05587
71 1 3 -0.055903 13.8091 17.1307 7.85825
72 1 3 -0.055903 22.7229 3.96103 7.05587
73 1 3 -0.055901 22.7229 17.1307 7.85825
74 1 3 -0.055901 13.8091 3.96103 7.05587
75 1 3 -0.055903 14.7918 3.39366 7.85825
76 1 3 -0.055903 21.7402 17.6981 7.05587
77 1 3 -0.0559 21.7402 8.54005 0.580159
78 1 3 -0.0559 14.7918 12.5517 14.334
79 1 3 -0.055903 13.8091 13.1191 13.5316
80 1 3 -0.055903 22.7229 7.97268 1.38254
81 1 4 -1.26215 27.399 15.8188 11.1856
82 1 4 -1.26215 9.13299 5.27293 3.72853
83 1 4 -0.60118 27.399 18.9383 11.9641
84 1 4 -0.60118 9.13299 2.15347 2.95001
85 1 4 -0.601179 27.399 17.5926 13.8671
86 1 4 -0.601179 9.13299 3.49912 1.04697
87 1 4 -0.601179 26.2336 13.3722 9.45555
88 1 4 -0.601179 10.2984 7.71958 5.45857
89 1 4 -0.60118 28.5643 13.3722 9.45555
90 1 4 -0.60118 7.96762 7.71958 5.45857
91 1 4 -0.60118 25.8628 14.9319 13.8671
92 1 4 -0.60118 10.6692 6.15984 1.04697
93 1 4 -0.601179 24.6974 14.2591 11.9641
94 1 4 -0.601179 11.8345 6.83267 2.95001
95 1 4 -0.60118 28.9351 18.0514 9.45555
96 1 4 -0.60118 7.59682 3.04037 5.45857
97 1 4 -0.601179 30.1005 16.0329 9.45555
98 1 4 -0.601179 6.43145 5.05885 5.45857
99 1 4 -0.601179 24.6974 16.0329 9.45555
100 1 4 -0.601179 11.8345 5.05885 5.45857
101 1 4 -0.60118 25.8628 18.0514 9.45555
102 1 4 -0.60118 10.6692 3.04037 5.45857
103 1 4 -0.60118 28.9351 14.9319 13.8671
104 1 4 -0.60118 7.59682 6.15984 1.04697
105 1 4 -0.60118 30.1005 14.2591 11.9641
106 1 4 -0.60118 6.43145 6.83267 2.95001
ITEM: TIMESTEP
78000
ITEM: NUMBER OF ATOMS
109
ITEM: BOX BOUNDS xy xz yz pp pp pp
0.0000000000000000e+00 3.6531964750000000e+01 9.1329911900000003e+00
0.0000000000000000e+00 2.1091739680000000e+01 9.1329911900000003e+00
0.0000000000000000e+00 1.4914112149999999e+01 5.2729349200000000e+00
ITEM: ATOMS id mol type q x y z
1 1 1 1.10383 27.399 17.6496 10.5383
2 1 1 1.10383 9.13299 3.44217 4.3758
3 1 1 1.10383 27.399 15.8188 13.1274
4 1 1 1.10383 9.13299 5.27293 1.78671
5 1 1 1.10383 25.8135 14.9034 10.5383
6 1 1 1.10383 10.7185 6.18832 4.3758
7 1 1 1.10383 28.9845 14.9034 10.5383
8 1 1 1.10383 7.5475 6.18832 4.3758
9 1 2 0.115889 18.266 5.48596 12.6084
10 1 2 0.115889 18.266 15.6058 2.30572
11 1 2 0.115888 18.266 13.716 0.969417
12 1 2 0.115888 18.266 7.37578 13.9447
13 1 2 0.11589 25.3934 11.4908 8.12521
14 1 2 0.11589 11.1386 9.60096 6.7889
15 1 2 0.115888 11.1386 11.4908 8.12521
16 1 2 0.115888 25.3934 9.60096 6.7889
17 1 2 0.115889 15.5206 8.96083 0.969417
18 1 2 0.115889 21.0114 12.1309 13.9447
19 1 2 0.115888 22.648 13.0758 12.6084
20 1 2 0.115888 13.884 8.01592 2.30572
21 1 2 0.115889 21.0114 3.90092 8.12521
22 1 2 0.115889 15.5206 17.1908 6.7889
23 1 2 0.115887 13.884 16.2459 8.12521
24 1 2 0.115887 22.648 4.84583 6.7889
25 1 2 0.115889 22.648 16.2459 8.12521
26 1 2 0.115889 13.884 4.84583 6.7889
27 1 2 0.115887 15.5206 3.90092 8.12521
28 1 2 0.115887 21.0114 17.1908 6.7889
29 1 2 0.115889 21.0114 8.96083 0.969417
30 1 2 0.115889 15.5206 12.1309 13.9447
31 1 2 0.115887 13.884 13.0758 12.6084
32 1 2 0.115887 22.648 8.01592 2.30572
33 1 3 0.671939 27.399 18.7442 13.2542
34 1 3 0.671939 9.13299 2.34751 1.65994
35 1 3 0.671939 27.399 12.8934 9.117
36 1 3 0.671939 9.13299 8.19836 5.79712
37 1 3 0.67194 24.8655 14.3561 13.2542
38 1 3 0.67194 11.6665 6.73565 1.65994
39 1 3 0.67194 29.9325 17.2815 9.117
40 1 3 0.67194 6.5995 3.81022 5.79712
41 1 3 0.67194 24.8655 17.2815 9.117
42 1 3 0.67194 11.6665 3.81022 5.79712
43 1 3 0.67194 29.9325 14.3561 13.2542
44 1 3 0.67194 6.5995 6.73565 1.65994
45 1 3 -0.11508 27.399 19.957 14.1117
46 1 3 -0.11508 9.13299 1.13474 0.802379
47 1 3 -0.11508 27.399 11.6806 8.25944
48 1 3 -0.11508 9.13299 9.41113 6.65468
49 1 3 -0.11508 23.8152 13.7497 14.1117
50 1 3 -0.11508 12.7168 7.34203 0.802379
51 1 3 -0.11508 30.9828 17.8879 8.25944
52 1 3 -0.11508 5.54921 3.20384 6.65468
53 1 3 -0.11508 23.8152 17.8879 8.25944
54 1 3 -0.11508 12.7168 3.20384 6.65468
55 1 3 -0.11508 30.9828 13.7497 14.1117
56 1 3 -0.11508 5.54921 7.34203 0.802379
57 1 3 -0.0559 18.266 5.39949 13.5316
58 1 3 -0.0559 18.266 15.6923 1.38254
59 1 3 -0.055903 18.266 14.5575 0.580159
60 1 3 -0.055903 18.266 6.53422 14.334
61 1 3 -0.0559 26.1971 11.1132 7.85825
62 1 3 -0.0559 10.3349 9.9785 7.05587
63 1 3 -0.055903 10.3349 11.1132 7.85825
64 1 3 -0.055903 26.1971 9.9785 7.05587
65 1 3 -0.0559 14.7918 8.54005 0.580159
66 1 3 -0.0559 21.7402 12.5517 14.334
67 1 3 -0.055903 22.7229 13.1191 13.5316
68 1 3 -0.055903 13.8091 7.97268 1.38254
69 1 3 -0.0559 21.7402 3.39366 7.85825
70 1 3 -0.0559 14.7918 17.6981 7.05587
71 1 3 -0.055903 13.8091 17.1307 7.85825
72 1 3 -0.055903 22.7229 3.96103 7.05587
73 1 3 -0.055901 22.7229 17.1307 7.85825
74 1 3 -0.055901 13.8091 3.96103 7.05587
75 1 3 -0.055903 14.7918 3.39366 7.85825
76 1 3 -0.055903 21.7402 17.6981 7.05587
77 1 3 -0.0559 21.7402 8.54005 0.580159
78 1 3 -0.0559 14.7918 12.5517 14.334
79 1 3 -0.055903 13.8091 13.1191 13.5316
80 1 3 -0.055903 22.7229 7.97268 1.38254
81 1 4 -1.26215 27.399 15.8188 11.1856
82 1 4 -1.26215 9.13299 5.27293 3.72853
83 1 4 -0.60118 27.399 18.9383 11.9641
84 1 4 -0.60118 9.13299 2.15347 2.95001
85 1 4 -0.601179 27.399 17.5926 13.8671
86 1 4 -0.601179 9.13299 3.49912 1.04697
87 1 4 -0.601179 26.2336 13.3722 9.45555
88 1 4 -0.601179 10.2984 7.71958 5.45857
89 1 4 -0.60118 28.5643 13.3722 9.45555
90 1 4 -0.60118 7.96762 7.71958 5.45857
91 1 4 -0.60118 25.8628 14.9319 13.8671
92 1 4 -0.60118 10.6692 6.15984 1.04697
93 1 4 -0.601179 24.6974 14.2591 11.9641
94 1 4 -0.601179 11.8345 6.83267 2.95001
95 1 4 -0.60118 28.9351 18.0514 9.45555
96 1 4 -0.60118 7.59682 3.04037 5.45857
97 1 4 -0.601179 30.1005 16.0329 9.45555
98 1 4 -0.601179 6.43145 5.05885 5.45857
99 1 4 -0.601179 24.6974 16.0329 9.45555
100 1 4 -0.601179 11.8345 5.05885 5.45857
101 1 4 -0.60118 25.8628 18.0514 9.45555
102 1 4 -0.60118 10.6692 3.04037 5.45857
103 1 4 -0.60118 28.9351 14.9319 13.8671
104 1 4 -0.60118 7.59682 6.15984 1.04697
105 1 4 -0.60118 30.1005 14.2591 11.9641
106 1 4 -0.60118 6.43145 6.83267 2.95001
107 2 5 -0.35 24.0502 9.6629 4.72629
108 2 6 0.7 23.2944 8.83193 5.01605
109 2 5 -0.35 22.5387 8.00097 5.30581
ITEM: TIMESTEP
79000
ITEM: NUMBER OF ATOMS
106
ITEM: BOX BOUNDS xy xz yz pp pp pp
0.0000000000000000e+00 3.6531964750000000e+01 9.1329911900000003e+00
0.0000000000000000e+00 2.1091739680000000e+01 9.1329911900000003e+00
0.0000000000000000e+00 1.4914112149999999e+01 5.2729349200000000e+00
ITEM: ATOMS id mol type q x y z
1 1 1 1.10383 27.399 17.6496 10.5383
2 1 1 1.10383 9.13299 3.44217 4.3758
3 1 1 1.10383 27.399 15.8188 13.1274
4 1 1 1.10383 9.13299 5.27293 1.78671
5 1 1 1.10383 25.8135 14.9034 10.5383
6 1 1 1.10383 10.7185 6.18832 4.3758
7 1 1 1.10383 28.9845 14.9034 10.5383
8 1 1 1.10383 7.5475 6.18832 4.3758
9 1 2 0.115889 18.266 5.48596 12.6084
10 1 2 0.115889 18.266 15.6058 2.30572
11 1 2 0.115888 18.266 13.716 0.969417
12 1 2 0.115888 18.266 7.37578 13.9447
13 1 2 0.11589 25.3934 11.4908 8.12521
14 1 2 0.11589 11.1386 9.60096 6.7889
15 1 2 0.115888 11.1386 11.4908 8.12521
16 1 2 0.115888 25.3934 9.60096 6.7889
17 1 2 0.115889 15.5206 8.96083 0.969417
18 1 2 0.115889 21.0114 12.1309 13.9447
19 1 2 0.115888 22.648 13.0758 12.6084
20 1 2 0.115888 13.884 8.01592 2.30572
21 1 2 0.115889 21.0114 3.90092 8.12521
22 1 2 0.115889 15.5206 17.1908 6.7889
23 1 2 0.115887 13.884 16.2459 8.12521
24 1 2 0.115887 22.648 4.84583 6.7889
25 1 2 0.115889 22.648 16.2459 8.12521
26 1 2 0.115889 13.884 4.84583 6.7889
27 1 2 0.115887 15.5206 3.90092 8.12521
28 1 2 0.115887 21.0114 17.1908 6.7889
29 1 2 0.115889 21.0114 8.96083 0.969417
30 1 2 0.115889 15.5206 12.1309 13.9447
31 1 2 0.115887 13.884 13.0758 12.6084
32 1 2 0.115887 22.648 8.01592 2.30572
33 1 3 0.671939 27.399 18.7442 13.2542
34 1 3 0.671939 9.13299 2.34751 1.65994
35 1 3 0.671939 27.399 12.8934 9.117
36 1 3 0.671939 9.13299 8.19836 5.79712
37 1 3 0.67194 24.8655 14.3561 13.2542
38 1 3 0.67194 11.6665 6.73565 1.65994
39 1 3 0.67194 29.9325 17.2815 9.117
40 1 3 0.67194 6.5995 3.81022 5.79712
41 1 3 0.67194 24.8655 17.2815 9.117
42 1 3 0.67194 11.6665 3.81022 5.79712
43 1 3 0.67194 29.9325 14.3561 13.2542
44 1 3 0.67194 6.5995 6.73565 1.65994
45 1 3 -0.11508 27.399 19.957 14.1117
46 1 3 -0.11508 9.13299 1.13474 0.802379
47 1 3 -0.11508 27.399 11.6806 8.25944
48 1 3 -0.11508 9.13299 9.41113 6.65468
49 1 3 -0.11508 23.8152 13.7497 14.1117
50 1 3 -0.11508 12.7168 7.34203 0.802379
51 1 3 -0.11508 30.9828 17.8879 8.25944
52 1 3 -0.11508 5.54921 3.20384 6.65468
53 1 3 -0.11508 23.8152 17.8879 8.25944
54 1 3 -0.11508 12.7168 3.20384 6.65468
55 1 3 -0.11508 30.9828 13.7497 14.1117
56 1 3 -0.11508 5.54921 7.34203 0.802379
57 1 3 -0.0559 18.266 5.39949 13.5316
58 1 3 -0.0559 18.266 15.6923 1.38254
59 1 3 -0.055903 18.266 14.5575 0.580159
60 1 3 -0.055903 18.266 6.53422 14.334
61 1 3 -0.0559 26.1971 11.1132 7.85825
62 1 3 -0.0559 10.3349 9.9785 7.05587
63 1 3 -0.055903 10.3349 11.1132 7.85825
64 1 3 -0.055903 26.1971 9.9785 7.05587
65 1 3 -0.0559 14.7918 8.54005 0.580159
66 1 3 -0.0559 21.7402 12.5517 14.334
67 1 3 -0.055903 22.7229 13.1191 13.5316
68 1 3 -0.055903 13.8091 7.97268 1.38254
69 1 3 -0.0559 21.7402 3.39366 7.85825
70 1 3 -0.0559 14.7918 17.6981 7.05587
71 1 3 -0.055903 13.8091 17.1307 7.85825
72 1 3 -0.055903 22.7229 3.96103 7.05587
73 1 3 -0.055901 22.7229 17.1307 7.85825
74 1 3 -0.055901 13.8091 3.96103 7.05587
75 1 3 -0.055903 14.7918 3.39366 7.85825
76 1 3 -0.055903 21.7402 17.6981 7.05587
77 1 3 -0.0559 21.7402 8.54005 0.580159
78 1 3 -0.0559 14.7918 12.5517 14.334
79 1 3 -0.055903 13.8091 13.1191 13.5316
80 1 3 -0.055903 22.7229 7.97268 1.38254
81 1 4 -1.26215 27.399 15.8188 11.1856
82 1 4 -1.26215 9.13299 5.27293 3.72853
83 1 4 -0.60118 27.399 18.9383 11.9641
84 1 4 -0.60118 9.13299 2.15347 2.95001
85 1 4 -0.601179 27.399 17.5926 13.8671
86 1 4 -0.601179 9.13299 3.49912 1.04697
87 1 4 -0.601179 26.2336 13.3722 9.45555
88 1 4 -0.601179 10.2984 7.71958 5.45857
89 1 4 -0.60118 28.5643 13.3722 9.45555
90 1 4 -0.60118 7.96762 7.71958 5.45857
91 1 4 -0.60118 25.8628 14.9319 13.8671
92 1 4 -0.60118 10.6692 6.15984 1.04697
93 1 4 -0.601179 24.6974 14.2591 11.9641
94 1 4 -0.601179 11.8345 6.83267 2.95001
95 1 4 -0.60118 28.9351 18.0514 9.45555
96 1 4 -0.60118 7.59682 3.04037 5.45857
97 1 4 -0.601179 30.1005 16.0329 9.45555
98 1 4 -0.601179 6.43145 5.05885 5.45857
99 1 4 -0.601179 24.6974 16.0329 9.45555
100 1 4 -0.601179 11.8345 5.05885 5.45857
101 1 4 -0.60118 25.8628 18.0514 9.45555
102 1 4 -0.60118 10.6692 3.04037 5.45857
103 1 4 -0.60118 28.9351 14.9319 13.8671
104 1 4 -0.60118 7.59682 6.15984 1.04697
105 1 4 -0.60118 30.1005 14.2591 11.9641
106 1 4 -0.60118 6.43145 6.83267 2.95001
ITEM: TIMESTEP
80000
ITEM: NUMBER OF ATOMS
106
ITEM: BOX BOUNDS xy xz yz pp pp pp
0.0000000000000000e+00 3.6531964750000000e+01 9.1329911900000003e+00
0.0000000000000000e+00 2.1091739680000000e+01 9.1329911900000003e+00
0.0000000000000000e+00 1.4914112149999999e+01 5.2729349200000000e+00
ITEM: ATOMS id mol type q x y z
1 1 1 1.10383 27.399 17.6496 10.5383
2 1 1 1.10383 9.13299 3.44217 4.3758
3 1 1 1.10383 27.399 15.8188 13.1274
4 1 1 1.10383 9.13299 5.27293 1.78671
5 1 1 1.10383 25.8135 14.9034 10.5383
6 1 1 1.10383 10.7185 6.18832 4.3758
7 1 1 1.10383 28.9845 14.9034 10.5383
8 1 1 1.10383 7.5475 6.18832 4.3758
9 1 2 0.115889 18.266 5.48596 12.6084
10 1 2 0.115889 18.266 15.6058 2.30572
11 1 2 0.115888 18.266 13.716 0.969417
12 1 2 0.115888 18.266 7.37578 13.9447
13 1 2 0.11589 25.3934 11.4908 8.12521
14 1 2 0.11589 11.1386 9.60096 6.7889
15 1 2 0.115888 11.1386 11.4908 8.12521
16 1 2 0.115888 25.3934 9.60096 6.7889
17 1 2 0.115889 15.5206 8.96083 0.969417
18 1 2 0.115889 21.0114 12.1309 13.9447
19 1 2 0.115888 22.648 13.0758 12.6084
20 1 2 0.115888 13.884 8.01592 2.30572
21 1 2 0.115889 21.0114 3.90092 8.12521
22 1 2 0.115889 15.5206 17.1908 6.7889
23 1 2 0.115887 13.884 16.2459 8.12521
24 1 2 0.115887 22.648 4.84583 6.7889
25 1 2 0.115889 22.648 16.2459 8.12521
26 1 2 0.115889 13.884 4.84583 6.7889
27 1 2 0.115887 15.5206 3.90092 8.12521
28 1 2 0.115887 21.0114 17.1908 6.7889
29 1 2 0.115889 21.0114 8.96083 0.969417
30 1 2 0.115889 15.5206 12.1309 13.9447
31 1 2 0.115887 13.884 13.0758 12.6084
32 1 2 0.115887 22.648 8.01592 2.30572
33 1 3 0.671939 27.399 18.7442 13.2542
34 1 3 0.671939 9.13299 2.34751 1.65994
35 1 3 0.671939 27.399 12.8934 9.117
36 1 3 0.671939 9.13299 8.19836 5.79712
37 1 3 0.67194 24.8655 14.3561 13.2542
38 1 3 0.67194 11.6665 6.73565 1.65994
39 1 3 0.67194 29.9325 17.2815 9.117
40 1 3 0.67194 6.5995 3.81022 5.79712
41 1 3 0.67194 24.8655 17.2815 9.117
42 1 3 0.67194 11.6665 3.81022 5.79712
43 1 3 0.67194 29.9325 14.3561 13.2542
44 1 3 0.67194 6.5995 6.73565 1.65994
45 1 3 -0.11508 27.399 19.957 14.1117
46 1 3 -0.11508 9.13299 1.13474 0.802379
47 1 3 -0.11508 27.399 11.6806 8.25944
48 1 3 -0.11508 9.13299 9.41113 6.65468
49 1 3 -0.11508 23.8152 13.7497 14.1117
50 1 3 -0.11508 12.7168 7.34203 0.802379
51 1 3 -0.11508 30.9828 17.8879 8.25944
52 1 3 -0.11508 5.54921 3.20384 6.65468
53 1 3 -0.11508 23.8152 17.8879 8.25944
54 1 3 -0.11508 12.7168 3.20384 6.65468
55 1 3 -0.11508 30.9828 13.7497 14.1117
56 1 3 -0.11508 5.54921 7.34203 0.802379
57 1 3 -0.0559 18.266 5.39949 13.5316
58 1 3 -0.0559 18.266 15.6923 1.38254
59 1 3 -0.055903 18.266 14.5575 0.580159
60 1 3 -0.055903 18.266 6.53422 14.334
61 1 3 -0.0559 26.1971 11.1132 7.85825
62 1 3 -0.0559 10.3349 9.9785 7.05587
63 1 3 -0.055903 10.3349 11.1132 7.85825
64 1 3 -0.055903 26.1971 9.9785 7.05587
65 1 3 -0.0559 14.7918 8.54005 0.580159
66 1 3 -0.0559 21.7402 12.5517 14.334
67 1 3 -0.055903 22.7229 13.1191 13.5316
68 1 3 -0.055903 13.8091 7.97268 1.38254
69 1 3 -0.0559 21.7402 3.39366 7.85825
70 1 3 -0.0559 14.7918 17.6981 7.05587
71 1 3 -0.055903 13.8091 17.1307 7.85825
72 1 3 -0.055903 22.7229 3.96103 7.05587
73 1 3 -0.055901 22.7229 17.1307 7.85825
74 1 3 -0.055901 13.8091 3.96103 7.05587
75 1 3 -0.055903 14.7918 3.39366 7.85825
76 1 3 -0.055903 21.7402 17.6981 7.05587
77 1 3 -0.0559 21.7402 8.54005 0.580159
78 1 3 -0.0559 14.7918 12.5517 14.334
79 1 3 -0.055903 13.8091 13.1191 13.5316
80 1 3 -0.055903 22.7229 7.97268 1.38254
81 1 4 -1.26215 27.399 15.8188 11.1856
82 1 4 -1.26215 9.13299 5.27293 3.72853
83 1 4 -0.60118 27.399 18.9383 11.9641
84 1 4 -0.60118 9.13299 2.15347 2.95001
85 1 4 -0.601179 27.399 17.5926 13.8671
86 1 4 -0.601179 9.13299 3.49912 1.04697
87 1 4 -0.601179 26.2336 13.3722 9.45555
88 1 4 -0.601179 10.2984 7.71958 5.45857
89 1 4 -0.60118 28.5643 13.3722 9.45555
90 1 4 -0.60118 7.96762 7.71958 5.45857
91 1 4 -0.60118 25.8628 14.9319 13.8671
92 1 4 -0.60118 10.6692 6.15984 1.04697
93 1 4 -0.601179 24.6974 14.2591 11.9641
94 1 4 -0.601179 11.8345 6.83267 2.95001
95 1 4 -0.60118 28.9351 18.0514 9.45555
96 1 4 -0.60118 7.59682 3.04037 5.45857
97 1 4 -0.601179 30.1005 16.0329 9.45555
98 1 4 -0.601179 6.43145 5.05885 5.45857
99 1 4 -0.601179 24.6974 16.0329 9.45555
100 1 4 -0.601179 11.8345 5.05885 5.45857
101 1 4 -0.60118 25.8628 18.0514 9.45555
102 1 4 -0.60118 10.6692 3.04037 5.45857
103 1 4 -0.60118 28.9351 14.9319 13.8671
104 1 4 -0.60118 7.59682 6.15984 1.04697
105 1 4 -0.60118 30.1005 14.2591 11.9641
106 1 4 -0.60118 6.43145 6.83267 2.95001
ITEM: TIMESTEP
81000
ITEM: NUMBER OF ATOMS
109
ITEM: BOX BOUNDS xy xz yz pp pp pp
0.0000000000000000e+00 3.6531964750000000e+01 9.1329911900000003e+00
0.0000000000000000e+00 2.1091739680000000e+01 9.1329911900000003e+00
0.0000000000000000e+00 1.4914112149999999e+01 5.2729349200000000e+00
ITEM: ATOMS id mol type q x y z
1 1 1 1.10383 27.399 17.6496 10.5383
2 1 1 1.10383 9.13299 3.44217 4.3758
3 1 1 1.10383 27.399 15.8188 13.1274
4 1 1 1.10383 9.13299 5.27293 1.78671
5 1 1 1.10383 25.8135 14.9034 10.5383
6 1 1 1.10383 10.7185 6.18832 4.3758
7 1 1 1.10383 28.9845 14.9034 10.5383
8 1 1 1.10383 7.5475 6.18832 4.3758
9 1 2 0.115889 18.266 5.48596 12.6084
10 1 2 0.115889 18.266 15.6058 2.30572
11 1 2 0.115888 18.266 13.716 0.969417
12 1 2 0.115888 18.266 7.37578 13.9447
13 1 2 0.11589 25.3934 11.4908 8.12521
14 1 2 0.11589 11.1386 9.60096 6.7889
15 1 2 0.115888 11.1386 11.4908 8.12521
16 1 2 0.115888 25.3934 9.60096 6.7889
17 1 2 0.115889 15.5206 8.96083 0.969417
18 1 2 0.115889 21.0114 12.1309 13.9447
19 1 2 0.115888 22.648 13.0758 12.6084
20 1 2 0.115888 13.884 8.01592 2.30572
21 1 2 0.115889 21.0114 3.90092 8.12521
22 1 2 0.115889 15.5206 17.1908 6.7889
23 1 2 0.115887 13.884 16.2459 8.12521
24 1 2 0.115887 22.648 4.84583 6.7889
25 1 2 0.115889 22.648 16.2459 8.12521
26 1 2 0.115889 13.884 4.84583 6.7889
27 1 2 0.115887 15.5206 3.90092 8.12521
28 1 2 0.115887 21.0114 17.1908 6.7889
29 1 2 0.115889 21.0114 8.96083 0.969417
30 1 2 0.115889 15.5206 12.1309 13.9447
31 1 2 0.115887 13.884 13.0758 12.6084
32 1 2 0.115887 22.648 8.01592 2.30572
33 1 3 0.671939 27.399 18.7442 13.2542
34 1 3 0.671939 9.13299 2.34751 1.65994
35 1 3 0.671939 27.399 12.8934 9.117
36 1 3 0.671939 9.13299 8.19836 5.79712
37 1 3 0.67194 24.8655 14.3561 13.2542
38 1 3 0.67194 11.6665 6.73565 1.65994
39 1 3 0.67194 29.9325 17.2815 9.117
40 1 3 0.67194 6.5995 3.81022 5.79712
41 1 3 0.67194 24.8655 17.2815 9.117
42 1 3 0.67194 11.6665 3.81022 5.79712
43 1 3 0.67194 29.9325 14.3561 13.2542
44 1 3 0.67194 6.5995 6.73565 1.65994
45 1 3 -0.11508 27.399 19.957 14.1117
46 1 3 -0.11508 9.13299 1.13474 0.802379
47 1 3 -0.11508 27.399 11.6806 8.25944
48 1 3 -0.11508 9.13299 9.41113 6.65468
49 1 3 -0.11508 23.8152 13.7497 14.1117
50 1 3 -0.11508 12.7168 7.34203 0.802379
51 1 3 -0.11508 30.9828 17.8879 8.25944
52 1 3 -0.11508 5.54921 3.20384 6.65468
53 1 3 -0.11508 23.8152 17.8879 8.25944
54 1 3 -0.11508 12.7168 3.20384 6.65468
55 1 3 -0.11508 30.9828 13.7497 14.1117
56 1 3 -0.11508 5.54921 7.34203 0.802379
57 1 3 -0.0559 18.266 5.39949 13.5316
58 1 3 -0.0559 18.266 15.6923 1.38254
59 1 3 -0.055903 18.266 14.5575 0.580159
60 1 3 -0.055903 18.266 6.53422 14.334
61 1 3 -0.0559 26.1971 11.1132 7.85825
62 1 3 -0.0559 10.3349 9.9785 7.05587
63 1 3 -0.055903 10.3349 11.1132 7.85825
64 1 3 -0.055903 26.1971 9.9785 7.05587
65 1 3 -0.0559 14.7918 8.54005 0.580159
66 1 3 -0.0559 21.7402 12.5517 14.334
67 1 3 -0.055903 22.7229 13.1191 13.5316
68 1 3 -0.055903 13.8091 7.97268 1.38254
69 1 3 -0.0559 21.7402 3.39366 7.85825
70 1 3 -0.0559 14.7918 17.6981 7.05587
71 1 3 -0.055903 13.8091 17.1307 7.85825
72 1 3 -0.055903 22.7229 3.96103 7.05587
73 1 3 -0.055901 22.7229 17.1307 7.85825
74 1 3 -0.055901 13.8091 3.96103 7.05587
75 1 3 -0.055903 14.7918 3.39366 7.85825
76 1 3 -0.055903 21.7402 17.6981 7.05587
77 1 3 -0.0559 21.7402 8.54005 0.580159
78 1 3 -0.0559 14.7918 12.5517 14.334
79 1 3 -0.055903 13.8091 13.1191 13.5316
80 1 3 -0.055903 22.7229 7.97268 1.38254
81 1 4 -1.26215 27.399 15.8188 11.1856
82 1 4 -1.26215 9.13299 5.27293 3.72853
83 1 4 -0.60118 27.399 18.9383 11.9641
84 1 4 -0.60118 9.13299 2.15347 2.95001
85 1 4 -0.601179 27.399 17.5926 13.8671
86 1 4 -0.601179 9.13299 3.49912 1.04697
87 1 4 -0.601179 26.2336 13.3722 9.45555
88 1 4 -0.601179 10.2984 7.71958 5.45857
89 1 4 -0.60118 28.5643 13.3722 9.45555
90 1 4 -0.60118 7.96762 7.71958 5.45857
91 1 4 -0.60118 25.8628 14.9319 13.8671
92 1 4 -0.60118 10.6692 6.15984 1.04697
93 1 4 -0.601179 24.6974 14.2591 11.9641
94 1 4 -0.601179 11.8345 6.83267 2.95001
95 1 4 -0.60118 28.9351 18.0514 9.45555
96 1 4 -0.60118 7.59682 3.04037 5.45857
97 1 4 -0.601179 30.1005 16.0329 9.45555
98 1 4 -0.601179 6.43145 5.05885 5.45857
99 1 4 -0.601179 24.6974 16.0329 9.45555
100 1 4 -0.601179 11.8345 5.05885 5.45857
101 1 4 -0.60118 25.8628 18.0514 9.45555
102 1 4 -0.60118 10.6692 3.04037 5.45857
103 1 4 -0.60118 28.9351 14.9319 13.8671
104 1 4 -0.60118 7.59682 6.15984 1.04697
105 1 4 -0.60118 30.1005 14.2591 11.9641
106 1 4 -0.60118 6.43145 6.83267 2.95001
107 2 5 -0.35 21.2735 18.6468 12.3076
108 2 6 0.7 20.9534 17.5337 12.3721
109 2 5 -0.35 20.6333 16.4206 12.4366
ITEM: TIMESTEP
82000
ITEM: NUMBER OF ATOMS
106
ITEM: BOX BOUNDS xy xz yz pp pp pp
0.0000000000000000e+00 3.6531964750000000e+01 9.1329911900000003e+00
0.0000000000000000e+00 2.1091739680000000e+01 9.1329911900000003e+00
0.0000000000000000e+00 1.4914112149999999e+01 5.2729349200000000e+00
ITEM: ATOMS id mol type q x y z
1 1 1 1.10383 27.399 17.6496 10.5383
2 1 1 1.10383 9.13299 3.44217 4.3758
3 1 1 1.10383 27.399 15.8188 13.1274
4 1 1 1.10383 9.13299 5.27293 1.78671
5 1 1 1.10383 25.8135 14.9034 10.5383
6 1 1 1.10383 10.7185 6.18832 4.3758
7 1 1 1.10383 28.9845 14.9034 10.5383
8 1 1 1.10383 7.5475 6.18832 4.3758
9 1 2 0.115889 18.266 5.48596 12.6084
10 1 2 0.115889 18.266 15.6058 2.30572
11 1 2 0.115888 18.266 13.716 0.969417
12 1 2 0.115888 18.266 7.37578 13.9447
13 1 2 0.11589 25.3934 11.4908 8.12521
14 1 2 0.11589 11.1386 9.60096 6.7889
15 1 2 0.115888 11.1386 11.4908 8.12521
16 1 2 0.115888 25.3934 9.60096 6.7889
17 1 2 0.115889 15.5206 8.96083 0.969417
18 1 2 0.115889 21.0114 12.1309 13.9447
19 1 2 0.115888 22.648 13.0758 12.6084
20 1 2 0.115888 13.884 8.01592 2.30572
21 1 2 0.115889 21.0114 3.90092 8.12521
22 1 2 0.115889 15.5206 17.1908 6.7889
23 1 2 0.115887 13.884 16.2459 8.12521
24 1 2 0.115887 22.648 4.84583 6.7889
25 1 2 0.115889 22.648 16.2459 8.12521
26 1 2 0.115889 13.884 4.84583 6.7889
27 1 2 0.115887 15.5206 3.90092 8.12521
28 1 2 0.115887 21.0114 17.1908 6.7889
29 1 2 0.115889 21.0114 8.96083 0.969417
30 1 2 0.115889 15.5206 12.1309 13.9447
31 1 2 0.115887 13.884 13.0758 12.6084
32 1 2 0.115887 22.648 8.01592 2.30572
33 1 3 0.671939 27.399 18.7442 13.2542
34 1 3 0.671939 9.13299 2.34751 1.65994
35 1 3 0.671939 27.399 12.8934 9.117
36 1 3 0.671939 9.13299 8.19836 5.79712
37 1 3 0.67194 24.8655 14.3561 13.2542
38 1 3 0.67194 11.6665 6.73565 1.65994
39 1 3 0.67194 29.9325 17.2815 9.117
40 1 3 0.67194 6.5995 3.81022 5.79712
41 1 3 0.67194 24.8655 17.2815 9.117
42 1 3 0.67194 11.6665 3.81022 5.79712
43 1 3 0.67194 29.9325 14.3561 13.2542
44 1 3 0.67194 6.5995 6.73565 1.65994
45 1 3 -0.11508 27.399 19.957 14.1117
46 1 3 -0.11508 9.13299 1.13474 0.802379
47 1 3 -0.11508 27.399 11.6806 8.25944
48 1 3 -0.11508 9.13299 9.41113 6.65468
49 1 3 -0.11508 23.8152 13.7497 14.1117
50 1 3 -0.11508 12.7168 7.34203 0.802379
51 1 3 -0.11508 30.9828 17.8879 8.25944
52 1 3 -0.11508 5.54921 3.20384 6.65468
53 1 3 -0.11508 23.8152 17.8879 8.25944
54 1 3 -0.11508 12.7168 3.20384 6.65468
55 1 3 -0.11508 30.9828 13.7497 14.1117
56 1 3 -0.11508 5.54921 7.34203 0.802379
57 1 3 -0.0559 18.266 5.39949 13.5316
58 1 3 -0.0559 18.266 15.6923 1.38254
59 1 3 -0.055903 18.266 14.5575 0.580159
60 1 3 -0.055903 18.266 6.53422 14.334
61 1 3 -0.0559 26.1971 11.1132 7.85825
62 1 3 -0.0559 10.3349 9.9785 7.05587
63 1 3 -0.055903 10.3349 11.1132 7.85825
64 1 3 -0.055903 26.1971 9.9785 7.05587
65 1 3 -0.0559 14.7918 8.54005 0.580159
66 1 3 -0.0559 21.7402 12.5517 14.334
67 1 3 -0.055903 22.7229 13.1191 13.5316
68 1 3 -0.055903 13.8091 7.97268 1.38254
69 1 3 -0.0559 21.7402 3.39366 7.85825
70 1 3 -0.0559 14.7918 17.6981 7.05587
71 1 3 -0.055903 13.8091 17.1307 7.85825
72 1 3 -0.055903 22.7229 3.96103 7.05587
73 1 3 -0.055901 22.7229 17.1307 7.85825
74 1 3 -0.055901 13.8091 3.96103 7.05587
75 1 3 -0.055903 14.7918 3.39366 7.85825
76 1 3 -0.055903 21.7402 17.6981 7.05587
77 1 3 -0.0559 21.7402 8.54005 0.580159
78 1 3 -0.0559 14.7918 12.5517 14.334
79 1 3 -0.055903 13.8091 13.1191 13.5316
80 1 3 -0.055903 22.7229 7.97268 1.38254
81 1 4 -1.26215 27.399 15.8188 11.1856
82 1 4 -1.26215 9.13299 5.27293 3.72853
83 1 4 -0.60118 27.399 18.9383 11.9641
84 1 4 -0.60118 9.13299 2.15347 2.95001
85 1 4 -0.601179 27.399 17.5926 13.8671
86 1 4 -0.601179 9.13299 3.49912 1.04697
87 1 4 -0.601179 26.2336 13.3722 9.45555
88 1 4 -0.601179 10.2984 7.71958 5.45857
89 1 4 -0.60118 28.5643 13.3722 9.45555
90 1 4 -0.60118 7.96762 7.71958 5.45857
91 1 4 -0.60118 25.8628 14.9319 13.8671
92 1 4 -0.60118 10.6692 6.15984 1.04697
93 1 4 -0.601179 24.6974 14.2591 11.9641
94 1 4 -0.601179 11.8345 6.83267 2.95001
95 1 4 -0.60118 28.9351 18.0514 9.45555
96 1 4 -0.60118 7.59682 3.04037 5.45857
97 1 4 -0.601179 30.1005 16.0329 9.45555
98 1 4 -0.601179 6.43145 5.05885 5.45857
99 1 4 -0.601179 24.6974 16.0329 9.45555
100 1 4 -0.601179 11.8345 5.05885 5.45857
101 1 4 -0.60118 25.8628 18.0514 9.45555
102 1 4 -0.60118 10.6692 3.04037 5.45857
103 1 4 -0.60118 28.9351 14.9319 13.8671
104 1 4 -0.60118 7.59682 6.15984 1.04697
105 1 4 -0.60118 30.1005 14.2591 11.9641
106 1 4 -0.60118 6.43145 6.83267 2.95001
ITEM: TIMESTEP
83000
ITEM: NUMBER OF ATOMS
109
ITEM: BOX BOUNDS xy xz yz pp pp pp
0.0000000000000000e+00 3.6531964750000000e+01 9.1329911900000003e+00
0.0000000000000000e+00 2.1091739680000000e+01 9.1329911900000003e+00
0.0000000000000000e+00 1.4914112149999999e+01 5.2729349200000000e+00
ITEM: ATOMS id mol type q x y z
1 1 1 1.10383 27.399 17.6496 10.5383
2 1 1 1.10383 9.13299 3.44217 4.3758
3 1 1 1.10383 27.399 15.8188 13.1274
4 1 1 1.10383 9.13299 5.27293 1.78671
5 1 1 1.10383 25.8135 14.9034 10.5383
6 1 1 1.10383 10.7185 6.18832 4.3758
7 1 1 1.10383 28.9845 14.9034 10.5383
8 1 1 1.10383 7.5475 6.18832 4.3758
9 1 2 0.115889 18.266 5.48596 12.6084
10 1 2 0.115889 18.266 15.6058 2.30572
11 1 2 0.115888 18.266 13.716 0.969417
12 1 2 0.115888 18.266 7.37578 13.9447
13 1 2 0.11589 25.3934 11.4908 8.12521
14 1 2 0.11589 11.1386 9.60096 6.7889
15 1 2 0.115888 11.1386 11.4908 8.12521
16 1 2 0.115888 25.3934 9.60096 6.7889
17 1 2 0.115889 15.5206 8.96083 0.969417
18 1 2 0.115889 21.0114 12.1309 13.9447
19 1 2 0.115888 22.648 13.0758 12.6084
20 1 2 0.115888 13.884 8.01592 2.30572
21 1 2 0.115889 21.0114 3.90092 8.12521
22 1 2 0.115889 15.5206 17.1908 6.7889
23 1 2 0.115887 13.884 16.2459 8.12521
24 1 2 0.115887 22.648 4.84583 6.7889
25 1 2 0.115889 22.648 16.2459 8.12521
26 1 2 0.115889 13.884 4.84583 6.7889
27 1 2 0.115887 15.5206 3.90092 8.12521
28 1 2 0.115887 21.0114 17.1908 6.7889
29 1 2 0.115889 21.0114 8.96083 0.969417
30 1 2 0.115889 15.5206 12.1309 13.9447
31 1 2 0.115887 13.884 13.0758 12.6084
32 1 2 0.115887 22.648 8.01592 2.30572
33 1 3 0.671939 27.399 18.7442 13.2542
34 1 3 0.671939 9.13299 2.34751 1.65994
35 1 3 0.671939 27.399 12.8934 9.117
36 1 3 0.671939 9.13299 8.19836 5.79712
37 1 3 0.67194 24.8655 14.3561 13.2542
38 1 3 0.67194 11.6665 6.73565 1.65994
39 1 3 0.67194 29.9325 17.2815 9.117
40 1 3 0.67194 6.5995 3.81022 5.79712
41 1 3 0.67194 24.8655 17.2815 9.117
42 1 3 0.67194 11.6665 3.81022 5.79712
43 1 3 0.67194 29.9325 14.3561 13.2542
44 1 3 0.67194 6.5995 6.73565 1.65994
45 1 3 -0.11508 27.399 19.957 14.1117
46 1 3 -0.11508 9.13299 1.13474 0.802379
47 1 3 -0.11508 27.399 11.6806 8.25944
48 1 3 -0.11508 9.13299 9.41113 6.65468
49 1 3 -0.11508 23.8152 13.7497 14.1117
50 1 3 -0.11508 12.7168 7.34203 0.802379
51 1 3 -0.11508 30.9828 17.8879 8.25944
52 1 3 -0.11508 5.54921 3.20384 6.65468
53 1 3 -0.11508 23.8152 17.8879 8.25944
54 1 3 -0.11508 12.7168 3.20384 6.65468
55 1 3 -0.11508 30.9828 13.7497 14.1117
56 1 3 -0.11508 5.54921 7.34203 0.802379
57 1 3 -0.0559 18.266 5.39949 13.5316
58 1 3 -0.0559 18.266 15.6923 1.38254
59 1 3 -0.055903 18.266 14.5575 0.580159
60 1 3 -0.055903 18.266 6.53422 14.334
61 1 3 -0.0559 26.1971 11.1132 7.85825
62 1 3 -0.0559 10.3349 9.9785 7.05587
63 1 3 -0.055903 10.3349 11.1132 7.85825
64 1 3 -0.055903 26.1971 9.9785 7.05587
65 1 3 -0.0559 14.7918 8.54005 0.580159
66 1 3 -0.0559 21.7402 12.5517 14.334
67 1 3 -0.055903 22.7229 13.1191 13.5316
68 1 3 -0.055903 13.8091 7.97268 1.38254
69 1 3 -0.0559 21.7402 3.39366 7.85825
70 1 3 -0.0559 14.7918 17.6981 7.05587
71 1 3 -0.055903 13.8091 17.1307 7.85825
72 1 3 -0.055903 22.7229 3.96103 7.05587
73 1 3 -0.055901 22.7229 17.1307 7.85825
74 1 3 -0.055901 13.8091 3.96103 7.05587
75 1 3 -0.055903 14.7918 3.39366 7.85825
76 1 3 -0.055903 21.7402 17.6981 7.05587
77 1 3 -0.0559 21.7402 8.54005 0.580159
78 1 3 -0.0559 14.7918 12.5517 14.334
79 1 3 -0.055903 13.8091 13.1191 13.5316
80 1 3 -0.055903 22.7229 7.97268 1.38254
81 1 4 -1.26215 27.399 15.8188 11.1856
82 1 4 -1.26215 9.13299 5.27293 3.72853
83 1 4 -0.60118 27.399 18.9383 11.9641
84 1 4 -0.60118 9.13299 2.15347 2.95001
85 1 4 -0.601179 27.399 17.5926 13.8671
86 1 4 -0.601179 9.13299 3.49912 1.04697
87 1 4 -0.601179 26.2336 13.3722 9.45555
88 1 4 -0.601179 10.2984 7.71958 5.45857
89 1 4 -0.60118 28.5643 13.3722 9.45555
90 1 4 -0.60118 7.96762 7.71958 5.45857
91 1 4 -0.60118 25.8628 14.9319 13.8671
92 1 4 -0.60118 10.6692 6.15984 1.04697
93 1 4 -0.601179 24.6974 14.2591 11.9641
94 1 4 -0.601179 11.8345 6.83267 2.95001
95 1 4 -0.60118 28.9351 18.0514 9.45555
96 1 4 -0.60118 7.59682 3.04037 5.45857
97 1 4 -0.601179 30.1005 16.0329 9.45555
98 1 4 -0.601179 6.43145 5.05885 5.45857
99 1 4 -0.601179 24.6974 16.0329 9.45555
100 1 4 -0.601179 11.8345 5.05885 5.45857
101 1 4 -0.60118 25.8628 18.0514 9.45555
102 1 4 -0.60118 10.6692 3.04037 5.45857
103 1 4 -0.60118 28.9351 14.9319 13.8671
104 1 4 -0.60118 7.59682 6.15984 1.04697
105 1 4 -0.60118 30.1005 14.2591 11.9641
106 1 4 -0.60118 6.43145 6.83267 2.95001
110 3 5 -0.35 16.3054 16.4708 14.913
111 3 6 0.7 25.203 11.4512 1.10616
112 3 5 -0.35 24.9676 11.7045 2.21342
ITEM: TIMESTEP
84000
ITEM: NUMBER OF ATOMS
106
ITEM: BOX BOUNDS xy xz yz pp pp pp
0.0000000000000000e+00 3.6531964750000000e+01 9.1329911900000003e+00
0.0000000000000000e+00 2.1091739680000000e+01 9.1329911900000003e+00
0.0000000000000000e+00 1.4914112149999999e+01 5.2729349200000000e+00
ITEM: ATOMS id mol type q x y z
1 1 1 1.10383 27.399 17.6496 10.5383
2 1 1 1.10383 9.13299 3.44217 4.3758
3 1 1 1.10383 27.399 15.8188 13.1274
4 1 1 1.10383 9.13299 5.27293 1.78671
5 1 1 1.10383 25.8135 14.9034 10.5383
6 1 1 1.10383 10.7185 6.18832 4.3758
7 1 1 1.10383 28.9845 14.9034 10.5383
8 1 1 1.10383 7.5475 6.18832 4.3758
9 1 2 0.115889 18.266 5.48596 12.6084
10 1 2 0.115889 18.266 15.6058 2.30572
11 1 2 0.115888 18.266 13.716 0.969417
12 1 2 0.115888 18.266 7.37578 13.9447
13 1 2 0.11589 25.3934 11.4908 8.12521
14 1 2 0.11589 11.1386 9.60096 6.7889
15 1 2 0.115888 11.1386 11.4908 8.12521
16 1 2 0.115888 25.3934 9.60096 6.7889
17 1 2 0.115889 15.5206 8.96083 0.969417
18 1 2 0.115889 21.0114 12.1309 13.9447
19 1 2 0.115888 22.648 13.0758 12.6084
20 1 2 0.115888 13.884 8.01592 2.30572
21 1 2 0.115889 21.0114 3.90092 8.12521
22 1 2 0.115889 15.5206 17.1908 6.7889
23 1 2 0.115887 13.884 16.2459 8.12521
24 1 2 0.115887 22.648 4.84583 6.7889
25 1 2 0.115889 22.648 16.2459 8.12521
26 1 2 0.115889 13.884 4.84583 6.7889
27 1 2 0.115887 15.5206 3.90092 8.12521
28 1 2 0.115887 21.0114 17.1908 6.7889
29 1 2 0.115889 21.0114 8.96083 0.969417
30 1 2 0.115889 15.5206 12.1309 13.9447
31 1 2 0.115887 13.884 13.0758 12.6084
32 1 2 0.115887 22.648 8.01592 2.30572
33 1 3 0.671939 27.399 18.7442 13.2542
34 1 3 0.671939 9.13299 2.34751 1.65994
35 1 3 0.671939 27.399 12.8934 9.117
36 1 3 0.671939 9.13299 8.19836 5.79712
37 1 3 0.67194 24.8655 14.3561 13.2542
38 1 3 0.67194 11.6665 6.73565 1.65994
39 1 3 0.67194 29.9325 17.2815 9.117
40 1 3 0.67194 6.5995 3.81022 5.79712
41 1 3 0.67194 24.8655 17.2815 9.117
42 1 3 0.67194 11.6665 3.81022 5.79712
43 1 3 0.67194 29.9325 14.3561 13.2542
44 1 3 0.67194 6.5995 6.73565 1.65994
45 1 3 -0.11508 27.399 19.957 14.1117
46 1 3 -0.11508 9.13299 1.13474 0.802379
47 1 3 -0.11508 27.399 11.6806 8.25944
48 1 3 -0.11508 9.13299 9.41113 6.65468
49 1 3 -0.11508 23.8152 13.7497 14.1117
50 1 3 -0.11508 12.7168 7.34203 0.802379
51 1 3 -0.11508 30.9828 17.8879 8.25944
52 1 3 -0.11508 5.54921 3.20384 6.65468
53 1 3 -0.11508 23.8152 17.8879 8.25944
54 1 3 -0.11508 12.7168 3.20384 6.65468
55 1 3 -0.11508 30.9828 13.7497 14.1117
56 1 3 -0.11508 5.54921 7.34203 0.802379
57 1 3 -0.0559 18.266 5.39949 13.5316
58 1 3 -0.0559 18.266 15.6923 1.38254
59 1 3 -0.055903 18.266 14.5575 0.580159
60 1 3 -0.055903 18.266 6.53422 14.334
61 1 3 -0.0559 26.1971 11.1132 7.85825
62 1 3 -0.0559 10.3349 9.9785 7.05587
63 1 3 -0.055903 10.3349 11.1132 7.85825
64 1 3 -0.055903 26.1971 9.9785 7.05587
65 1 3 -0.0559 14.7918 8.54005 0.580159
66 1 3 -0.0559 21.7402 12.5517 14.334
67 1 3 -0.055903 22.7229 13.1191 13.5316
68 1 3 -0.055903 13.8091 7.97268 1.38254
69 1 3 -0.0559 21.7402 3.39366 7.85825
70 1 3 -0.0559 14.7918 17.6981 7.05587
71 1 3 -0.055903 13.8091 17.1307 7.85825
72 1 3 -0.055903 22.7229 3.96103 7.05587
73 1 3 -0.055901 22.7229 17.1307 7.85825
74 1 3 -0.055901 13.8091 3.96103 7.05587
75 1 3 -0.055903 14.7918 3.39366 7.85825
76 1 3 -0.055903 21.7402 17.6981 7.05587
77 1 3 -0.0559 21.7402 8.54005 0.580159
78 1 3 -0.0559 14.7918 12.5517 14.334
79 1 3 -0.055903 13.8091 13.1191 13.5316
80 1 3 -0.055903 22.7229 7.97268 1.38254
81 1 4 -1.26215 27.399 15.8188 11.1856
82 1 4 -1.26215 9.13299 5.27293 3.72853
83 1 4 -0.60118 27.399 18.9383 11.9641
84 1 4 -0.60118 9.13299 2.15347 2.95001
85 1 4 -0.601179 27.399 17.5926 13.8671
86 1 4 -0.601179 9.13299 3.49912 1.04697
87 1 4 -0.601179 26.2336 13.3722 9.45555
88 1 4 -0.601179 10.2984 7.71958 5.45857
89 1 4 -0.60118 28.5643 13.3722 9.45555
90 1 4 -0.60118 7.96762 7.71958 5.45857
91 1 4 -0.60118 25.8628 14.9319 13.8671
92 1 4 -0.60118 10.6692 6.15984 1.04697
93 1 4 -0.601179 24.6974 14.2591 11.9641
94 1 4 -0.601179 11.8345 6.83267 2.95001
95 1 4 -0.60118 28.9351 18.0514 9.45555
96 1 4 -0.60118 7.59682 3.04037 5.45857
97 1 4 -0.601179 30.1005 16.0329 9.45555
98 1 4 -0.601179 6.43145 5.05885 5.45857
99 1 4 -0.601179 24.6974 16.0329 9.45555
100 1 4 -0.601179 11.8345 5.05885 5.45857
101 1 4 -0.60118 25.8628 18.0514 9.45555
102 1 4 -0.60118 10.6692 3.04037 5.45857
103 1 4 -0.60118 28.9351 14.9319 13.8671
104 1 4 -0.60118 7.59682 6.15984 1.04697
105 1 4 -0.60118 30.1005 14.2591 11.9641
106 1 4 -0.60118 6.43145 6.83267 2.95001
ITEM: TIMESTEP
85000
ITEM: NUMBER OF ATOMS
106
ITEM: BOX BOUNDS xy xz yz pp pp pp
0.0000000000000000e+00 3.6531964750000000e+01 9.1329911900000003e+00
0.0000000000000000e+00 2.1091739680000000e+01 9.1329911900000003e+00
0.0000000000000000e+00 1.4914112149999999e+01 5.2729349200000000e+00
ITEM: ATOMS id mol type q x y z
1 1 1 1.10383 27.399 17.6496 10.5383
2 1 1 1.10383 9.13299 3.44217 4.3758
3 1 1 1.10383 27.399 15.8188 13.1274
4 1 1 1.10383 9.13299 5.27293 1.78671
5 1 1 1.10383 25.8135 14.9034 10.5383
6 1 1 1.10383 10.7185 6.18832 4.3758
7 1 1 1.10383 28.9845 14.9034 10.5383
8 1 1 1.10383 7.5475 6.18832 4.3758
9 1 2 0.115889 18.266 5.48596 12.6084
10 1 2 0.115889 18.266 15.6058 2.30572
11 1 2 0.115888 18.266 13.716 0.969417
12 1 2 0.115888 18.266 7.37578 13.9447
13 1 2 0.11589 25.3934 11.4908 8.12521
14 1 2 0.11589 11.1386 9.60096 6.7889
15 1 2 0.115888 11.1386 11.4908 8.12521
16 1 2 0.115888 25.3934 9.60096 6.7889
17 1 2 0.115889 15.5206 8.96083 0.969417
18 1 2 0.115889 21.0114 12.1309 13.9447
19 1 2 0.115888 22.648 13.0758 12.6084
20 1 2 0.115888 13.884 8.01592 2.30572
21 1 2 0.115889 21.0114 3.90092 8.12521
22 1 2 0.115889 15.5206 17.1908 6.7889
23 1 2 0.115887 13.884 16.2459 8.12521
24 1 2 0.115887 22.648 4.84583 6.7889
25 1 2 0.115889 22.648 16.2459 8.12521
26 1 2 0.115889 13.884 4.84583 6.7889
27 1 2 0.115887 15.5206 3.90092 8.12521
28 1 2 0.115887 21.0114 17.1908 6.7889
29 1 2 0.115889 21.0114 8.96083 0.969417
30 1 2 0.115889 15.5206 12.1309 13.9447
31 1 2 0.115887 13.884 13.0758 12.6084
32 1 2 0.115887 22.648 8.01592 2.30572
33 1 3 0.671939 27.399 18.7442 13.2542
34 1 3 0.671939 9.13299 2.34751 1.65994
35 1 3 0.671939 27.399 12.8934 9.117
36 1 3 0.671939 9.13299 8.19836 5.79712
37 1 3 0.67194 24.8655 14.3561 13.2542
38 1 3 0.67194 11.6665 6.73565 1.65994
39 1 3 0.67194 29.9325 17.2815 9.117
40 1 3 0.67194 6.5995 3.81022 5.79712
41 1 3 0.67194 24.8655 17.2815 9.117
42 1 3 0.67194 11.6665 3.81022 5.79712
43 1 3 0.67194 29.9325 14.3561 13.2542
44 1 3 0.67194 6.5995 6.73565 1.65994
45 1 3 -0.11508 27.399 19.957 14.1117
46 1 3 -0.11508 9.13299 1.13474 0.802379
47 1 3 -0.11508 27.399 11.6806 8.25944
48 1 3 -0.11508 9.13299 9.41113 6.65468
49 1 3 -0.11508 23.8152 13.7497 14.1117
50 1 3 -0.11508 12.7168 7.34203 0.802379
51 1 3 -0.11508 30.9828 17.8879 8.25944
52 1 3 -0.11508 5.54921 3.20384 6.65468
53 1 3 -0.11508 23.8152 17.8879 8.25944
54 1 3 -0.11508 12.7168 3.20384 6.65468
55 1 3 -0.11508 30.9828 13.7497 14.1117
56 1 3 -0.11508 5.54921 7.34203 0.802379
57 1 3 -0.0559 18.266 5.39949 13.5316
58 1 3 -0.0559 18.266 15.6923 1.38254
59 1 3 -0.055903 18.266 14.5575 0.580159
60 1 3 -0.055903 18.266 6.53422 14.334
61 1 3 -0.0559 26.1971 11.1132 7.85825
62 1 3 -0.0559 10.3349 9.9785 7.05587
63 1 3 -0.055903 10.3349 11.1132 7.85825
64 1 3 -0.055903 26.1971 9.9785 7.05587
65 1 3 -0.0559 14.7918 8.54005 0.580159
66 1 3 -0.0559 21.7402 12.5517 14.334
67 1 3 -0.055903 22.7229 13.1191 13.5316
68 1 3 -0.055903 13.8091 7.97268 1.38254
69 1 3 -0.0559 21.7402 3.39366 7.85825
70 1 3 -0.0559 14.7918 17.6981 7.05587
71 1 3 -0.055903 13.8091 17.1307 7.85825
72 1 3 -0.055903 22.7229 3.96103 7.05587
73 1 3 -0.055901 22.7229 17.1307 7.85825
74 1 3 -0.055901 13.8091 3.96103 7.05587
75 1 3 -0.055903 14.7918 3.39366 7.85825
76 1 3 -0.055903 21.7402 17.6981 7.05587
77 1 3 -0.0559 21.7402 8.54005 0.580159
78 1 3 -0.0559 14.7918 12.5517 14.334
79 1 3 -0.055903 13.8091 13.1191 13.5316
80 1 3 -0.055903 22.7229 7.97268 1.38254
81 1 4 -1.26215 27.399 15.8188 11.1856
82 1 4 -1.26215 9.13299 5.27293 3.72853
83 1 4 -0.60118 27.399 18.9383 11.9641
84 1 4 -0.60118 9.13299 2.15347 2.95001
85 1 4 -0.601179 27.399 17.5926 13.8671
86 1 4 -0.601179 9.13299 3.49912 1.04697
87 1 4 -0.601179 26.2336 13.3722 9.45555
88 1 4 -0.601179 10.2984 7.71958 5.45857
89 1 4 -0.60118 28.5643 13.3722 9.45555
90 1 4 -0.60118 7.96762 7.71958 5.45857
91 1 4 -0.60118 25.8628 14.9319 13.8671
92 1 4 -0.60118 10.6692 6.15984 1.04697
93 1 4 -0.601179 24.6974 14.2591 11.9641
94 1 4 -0.601179 11.8345 6.83267 2.95001
95 1 4 -0.60118 28.9351 18.0514 9.45555
96 1 4 -0.60118 7.59682 3.04037 5.45857
97 1 4 -0.601179 30.1005 16.0329 9.45555
98 1 4 -0.601179 6.43145 5.05885 5.45857
99 1 4 -0.601179 24.6974 16.0329 9.45555
100 1 4 -0.601179 11.8345 5.05885 5.45857
101 1 4 -0.60118 25.8628 18.0514 9.45555
102 1 4 -0.60118 10.6692 3.04037 5.45857
103 1 4 -0.60118 28.9351 14.9319 13.8671
104 1 4 -0.60118 7.59682 6.15984 1.04697
105 1 4 -0.60118 30.1005 14.2591 11.9641
106 1 4 -0.60118 6.43145 6.83267 2.95001
ITEM: TIMESTEP
86000
ITEM: NUMBER OF ATOMS
109
ITEM: BOX BOUNDS xy xz yz pp pp pp
0.0000000000000000e+00 3.6531964750000000e+01 9.1329911900000003e+00
0.0000000000000000e+00 2.1091739680000000e+01 9.1329911900000003e+00
0.0000000000000000e+00 1.4914112149999999e+01 5.2729349200000000e+00
ITEM: ATOMS id mol type q x y z
1 1 1 1.10383 27.399 17.6496 10.5383
2 1 1 1.10383 9.13299 3.44217 4.3758
3 1 1 1.10383 27.399 15.8188 13.1274
4 1 1 1.10383 9.13299 5.27293 1.78671
5 1 1 1.10383 25.8135 14.9034 10.5383
6 1 1 1.10383 10.7185 6.18832 4.3758
7 1 1 1.10383 28.9845 14.9034 10.5383
8 1 1 1.10383 7.5475 6.18832 4.3758
9 1 2 0.115889 18.266 5.48596 12.6084
10 1 2 0.115889 18.266 15.6058 2.30572
11 1 2 0.115888 18.266 13.716 0.969417
12 1 2 0.115888 18.266 7.37578 13.9447
13 1 2 0.11589 25.3934 11.4908 8.12521
14 1 2 0.11589 11.1386 9.60096 6.7889
15 1 2 0.115888 11.1386 11.4908 8.12521
16 1 2 0.115888 25.3934 9.60096 6.7889
17 1 2 0.115889 15.5206 8.96083 0.969417
18 1 2 0.115889 21.0114 12.1309 13.9447
19 1 2 0.115888 22.648 13.0758 12.6084
20 1 2 0.115888 13.884 8.01592 2.30572
21 1 2 0.115889 21.0114 3.90092 8.12521
22 1 2 0.115889 15.5206 17.1908 6.7889
23 1 2 0.115887 13.884 16.2459 8.12521
24 1 2 0.115887 22.648 4.84583 6.7889
25 1 2 0.115889 22.648 16.2459 8.12521
26 1 2 0.115889 13.884 4.84583 6.7889
27 1 2 0.115887 15.5206 3.90092 8.12521
28 1 2 0.115887 21.0114 17.1908 6.7889
29 1 2 0.115889 21.0114 8.96083 0.969417
30 1 2 0.115889 15.5206 12.1309 13.9447
31 1 2 0.115887 13.884 13.0758 12.6084
32 1 2 0.115887 22.648 8.01592 2.30572
33 1 3 0.671939 27.399 18.7442 13.2542
34 1 3 0.671939 9.13299 2.34751 1.65994
35 1 3 0.671939 27.399 12.8934 9.117
36 1 3 0.671939 9.13299 8.19836 5.79712
37 1 3 0.67194 24.8655 14.3561 13.2542
38 1 3 0.67194 11.6665 6.73565 1.65994
39 1 3 0.67194 29.9325 17.2815 9.117
40 1 3 0.67194 6.5995 3.81022 5.79712
41 1 3 0.67194 24.8655 17.2815 9.117
42 1 3 0.67194 11.6665 3.81022 5.79712
43 1 3 0.67194 29.9325 14.3561 13.2542
44 1 3 0.67194 6.5995 6.73565 1.65994
45 1 3 -0.11508 27.399 19.957 14.1117
46 1 3 -0.11508 9.13299 1.13474 0.802379
47 1 3 -0.11508 27.399 11.6806 8.25944
48 1 3 -0.11508 9.13299 9.41113 6.65468
49 1 3 -0.11508 23.8152 13.7497 14.1117
50 1 3 -0.11508 12.7168 7.34203 0.802379
51 1 3 -0.11508 30.9828 17.8879 8.25944
52 1 3 -0.11508 5.54921 3.20384 6.65468
53 1 3 -0.11508 23.8152 17.8879 8.25944
54 1 3 -0.11508 12.7168 3.20384 6.65468
55 1 3 -0.11508 30.9828 13.7497 14.1117
56 1 3 -0.11508 5.54921 7.34203 0.802379
57 1 3 -0.0559 18.266 5.39949 13.5316
58 1 3 -0.0559 18.266 15.6923 1.38254
59 1 3 -0.055903 18.266 14.5575 0.580159
60 1 3 -0.055903 18.266 6.53422 14.334
61 1 3 -0.0559 26.1971 11.1132 7.85825
62 1 3 -0.0559 10.3349 9.9785 7.05587
63 1 3 -0.055903 10.3349 11.1132 7.85825
64 1 3 -0.055903 26.1971 9.9785 7.05587
65 1 3 -0.0559 14.7918 8.54005 0.580159
66 1 3 -0.0559 21.7402 12.5517 14.334
67 1 3 -0.055903 22.7229 13.1191 13.5316
68 1 3 -0.055903 13.8091 7.97268 1.38254
69 1 3 -0.0559 21.7402 3.39366 7.85825
70 1 3 -0.0559 14.7918 17.6981 7.05587
71 1 3 -0.055903 13.8091 17.1307 7.85825
72 1 3 -0.055903 22.7229 3.96103 7.05587
73 1 3 -0.055901 22.7229 17.1307 7.85825
74 1 3 -0.055901 13.8091 3.96103 7.05587
75 1 3 -0.055903 14.7918 3.39366 7.85825
76 1 3 -0.055903 21.7402 17.6981 7.05587
77 1 3 -0.0559 21.7402 8.54005 0.580159
78 1 3 -0.0559 14.7918 12.5517 14.334
79 1 3 -0.055903 13.8091 13.1191 13.5316
80 1 3 -0.055903 22.7229 7.97268 1.38254
81 1 4 -1.26215 27.399 15.8188 11.1856
82 1 4 -1.26215 9.13299 5.27293 3.72853
83 1 4 -0.60118 27.399 18.9383 11.9641
84 1 4 -0.60118 9.13299 2.15347 2.95001
85 1 4 -0.601179 27.399 17.5926 13.8671
86 1 4 -0.601179 9.13299 3.49912 1.04697
87 1 4 -0.601179 26.2336 13.3722 9.45555
88 1 4 -0.601179 10.2984 7.71958 5.45857
89 1 4 -0.60118 28.5643 13.3722 9.45555
90 1 4 -0.60118 7.96762 7.71958 5.45857
91 1 4 -0.60118 25.8628 14.9319 13.8671
92 1 4 -0.60118 10.6692 6.15984 1.04697
93 1 4 -0.601179 24.6974 14.2591 11.9641
94 1 4 -0.601179 11.8345 6.83267 2.95001
95 1 4 -0.60118 28.9351 18.0514 9.45555
96 1 4 -0.60118 7.59682 3.04037 5.45857
97 1 4 -0.601179 30.1005 16.0329 9.45555
98 1 4 -0.601179 6.43145 5.05885 5.45857
99 1 4 -0.601179 24.6974 16.0329 9.45555
100 1 4 -0.601179 11.8345 5.05885 5.45857
101 1 4 -0.60118 25.8628 18.0514 9.45555
102 1 4 -0.60118 10.6692 3.04037 5.45857
103 1 4 -0.60118 28.9351 14.9319 13.8671
104 1 4 -0.60118 7.59682 6.15984 1.04697
105 1 4 -0.60118 30.1005 14.2591 11.9641
106 1 4 -0.60118 6.43145 6.83267 2.95001
110 3 5 -0.35 14.6285 4.86476 13.3493
111 3 6 0.7 14.7722 4.81741 12.1992
112 3 5 -0.35 14.9159 4.77007 11.0491
ITEM: TIMESTEP
87000
ITEM: NUMBER OF ATOMS
112
ITEM: BOX BOUNDS xy xz yz pp pp pp
0.0000000000000000e+00 3.6531964750000000e+01 9.1329911900000003e+00
0.0000000000000000e+00 2.1091739680000000e+01 9.1329911900000003e+00
0.0000000000000000e+00 1.4914112149999999e+01 5.2729349200000000e+00
ITEM: ATOMS id mol type q x y z
1 1 1 1.10383 27.399 17.6496 10.5383
2 1 1 1.10383 9.13299 3.44217 4.3758
3 1 1 1.10383 27.399 15.8188 13.1274
4 1 1 1.10383 9.13299 5.27293 1.78671
5 1 1 1.10383 25.8135 14.9034 10.5383
6 1 1 1.10383 10.7185 6.18832 4.3758
7 1 1 1.10383 28.9845 14.9034 10.5383
8 1 1 1.10383 7.5475 6.18832 4.3758
9 1 2 0.115889 18.266 5.48596 12.6084
10 1 2 0.115889 18.266 15.6058 2.30572
11 1 2 0.115888 18.266 13.716 0.969417
12 1 2 0.115888 18.266 7.37578 13.9447
13 1 2 0.11589 25.3934 11.4908 8.12521
14 1 2 0.11589 11.1386 9.60096 6.7889
15 1 2 0.115888 11.1386 11.4908 8.12521
16 1 2 0.115888 25.3934 9.60096 6.7889
17 1 2 0.115889 15.5206 8.96083 0.969417
18 1 2 0.115889 21.0114 12.1309 13.9447
19 1 2 0.115888 22.648 13.0758 12.6084
20 1 2 0.115888 13.884 8.01592 2.30572
21 1 2 0.115889 21.0114 3.90092 8.12521
22 1 2 0.115889 15.5206 17.1908 6.7889
23 1 2 0.115887 13.884 16.2459 8.12521
24 1 2 0.115887 22.648 4.84583 6.7889
25 1 2 0.115889 22.648 16.2459 8.12521
26 1 2 0.115889 13.884 4.84583 6.7889
27 1 2 0.115887 15.5206 3.90092 8.12521
28 1 2 0.115887 21.0114 17.1908 6.7889
29 1 2 0.115889 21.0114 8.96083 0.969417
30 1 2 0.115889 15.5206 12.1309 13.9447
31 1 2 0.115887 13.884 13.0758 12.6084
32 1 2 0.115887 22.648 8.01592 2.30572
33 1 3 0.671939 27.399 18.7442 13.2542
34 1 3 0.671939 9.13299 2.34751 1.65994
35 1 3 0.671939 27.399 12.8934 9.117
36 1 3 0.671939 9.13299 8.19836 5.79712
37 1 3 0.67194 24.8655 14.3561 13.2542
38 1 3 0.67194 11.6665 6.73565 1.65994
39 1 3 0.67194 29.9325 17.2815 9.117
40 1 3 0.67194 6.5995 3.81022 5.79712
41 1 3 0.67194 24.8655 17.2815 9.117
42 1 3 0.67194 11.6665 3.81022 5.79712
43 1 3 0.67194 29.9325 14.3561 13.2542
44 1 3 0.67194 6.5995 6.73565 1.65994
45 1 3 -0.11508 27.399 19.957 14.1117
46 1 3 -0.11508 9.13299 1.13474 0.802379
47 1 3 -0.11508 27.399 11.6806 8.25944
48 1 3 -0.11508 9.13299 9.41113 6.65468
49 1 3 -0.11508 23.8152 13.7497 14.1117
50 1 3 -0.11508 12.7168 7.34203 0.802379
51 1 3 -0.11508 30.9828 17.8879 8.25944
52 1 3 -0.11508 5.54921 3.20384 6.65468
53 1 3 -0.11508 23.8152 17.8879 8.25944
54 1 3 -0.11508 12.7168 3.20384 6.65468
55 1 3 -0.11508 30.9828 13.7497 14.1117
56 1 3 -0.11508 5.54921 7.34203 0.802379
57 1 3 -0.0559 18.266 5.39949 13.5316
58 1 3 -0.0559 18.266 15.6923 1.38254
59 1 3 -0.055903 18.266 14.5575 0.580159
60 1 3 -0.055903 18.266 6.53422 14.334
61 1 3 -0.0559 26.1971 11.1132 7.85825
62 1 3 -0.0559 10.3349 9.9785 7.05587
63 1 3 -0.055903 10.3349 11.1132 7.85825
64 1 3 -0.055903 26.1971 9.9785 7.05587
65 1 3 -0.0559 14.7918 8.54005 0.580159
66 1 3 -0.0559 21.7402 12.5517 14.334
67 1 3 -0.055903 22.7229 13.1191 13.5316
68 1 3 -0.055903 13.8091 7.97268 1.38254
69 1 3 -0.0559 21.7402 3.39366 7.85825
70 1 3 -0.0559 14.7918 17.6981 7.05587
71 1 3 -0.055903 13.8091 17.1307 7.85825
72 1 3 -0.055903 22.7229 3.96103 7.05587
73 1 3 -0.055901 22.7229 17.1307 7.85825
74 1 3 -0.055901 13.8091 3.96103 7.05587
75 1 3 -0.055903 14.7918 3.39366 7.85825
76 1 3 -0.055903 21.7402 17.6981 7.05587
77 1 3 -0.0559 21.7402 8.54005 0.580159
78 1 3 -0.0559 14.7918 12.5517 14.334
79 1 3 -0.055903 13.8091 13.1191 13.5316
80 1 3 -0.055903 22.7229 7.97268 1.38254
81 1 4 -1.26215 27.399 15.8188 11.1856
82 1 4 -1.26215 9.13299 5.27293 3.72853
83 1 4 -0.60118 27.399 18.9383 11.9641
84 1 4 -0.60118 9.13299 2.15347 2.95001
85 1 4 -0.601179 27.399 17.5926 13.8671
86 1 4 -0.601179 9.13299 3.49912 1.04697
87 1 4 -0.601179 26.2336 13.3722 9.45555
88 1 4 -0.601179 10.2984 7.71958 5.45857
89 1 4 -0.60118 28.5643 13.3722 9.45555
90 1 4 -0.60118 7.96762 7.71958 5.45857
91 1 4 -0.60118 25.8628 14.9319 13.8671
92 1 4 -0.60118 10.6692 6.15984 1.04697
93 1 4 -0.601179 24.6974 14.2591 11.9641
94 1 4 -0.601179 11.8345 6.83267 2.95001
95 1 4 -0.60118 28.9351 18.0514 9.45555
96 1 4 -0.60118 7.59682 3.04037 5.45857
97 1 4 -0.601179 30.1005 16.0329 9.45555
98 1 4 -0.601179 6.43145 5.05885 5.45857
99 1 4 -0.601179 24.6974 16.0329 9.45555
100 1 4 -0.601179 11.8345 5.05885 5.45857
101 1 4 -0.60118 25.8628 18.0514 9.45555
102 1 4 -0.60118 10.6692 3.04037 5.45857
103 1 4 -0.60118 28.9351 14.9319 13.8671
104 1 4 -0.60118 7.59682 6.15984 1.04697
105 1 4 -0.60118 30.1005 14.2591 11.9641
106 1 4 -0.60118 6.43145 6.83267 2.95001
110 3 5 -0.35 22.8798 16.3466 12.5214
111 3 6 0.7 22.7391 17.3902 12.0347
112 3 5 -0.35 22.5983 18.4337 11.548
116 5 5 -0.35 16.4622 18.0379 9.91833
117 5 6 0.7 17.5828 18.3215 9.82168
118 5 5 -0.35 18.7034 18.6052 9.72504
ITEM: TIMESTEP
88000
ITEM: NUMBER OF ATOMS
109
ITEM: BOX BOUNDS xy xz yz pp pp pp
0.0000000000000000e+00 3.6531964750000000e+01 9.1329911900000003e+00
0.0000000000000000e+00 2.1091739680000000e+01 9.1329911900000003e+00
0.0000000000000000e+00 1.4914112149999999e+01 5.2729349200000000e+00
ITEM: ATOMS id mol type q x y z
1 1 1 1.10383 27.399 17.6496 10.5383
2 1 1 1.10383 9.13299 3.44217 4.3758
3 1 1 1.10383 27.399 15.8188 13.1274
4 1 1 1.10383 9.13299 5.27293 1.78671
5 1 1 1.10383 25.8135 14.9034 10.5383
6 1 1 1.10383 10.7185 6.18832 4.3758
7 1 1 1.10383 28.9845 14.9034 10.5383
8 1 1 1.10383 7.5475 6.18832 4.3758
9 1 2 0.115889 18.266 5.48596 12.6084
10 1 2 0.115889 18.266 15.6058 2.30572
11 1 2 0.115888 18.266 13.716 0.969417
12 1 2 0.115888 18.266 7.37578 13.9447
13 1 2 0.11589 25.3934 11.4908 8.12521
14 1 2 0.11589 11.1386 9.60096 6.7889
15 1 2 0.115888 11.1386 11.4908 8.12521
16 1 2 0.115888 25.3934 9.60096 6.7889
17 1 2 0.115889 15.5206 8.96083 0.969417
18 1 2 0.115889 21.0114 12.1309 13.9447
19 1 2 0.115888 22.648 13.0758 12.6084
20 1 2 0.115888 13.884 8.01592 2.30572
21 1 2 0.115889 21.0114 3.90092 8.12521
22 1 2 0.115889 15.5206 17.1908 6.7889
23 1 2 0.115887 13.884 16.2459 8.12521
24 1 2 0.115887 22.648 4.84583 6.7889
25 1 2 0.115889 22.648 16.2459 8.12521
26 1 2 0.115889 13.884 4.84583 6.7889
27 1 2 0.115887 15.5206 3.90092 8.12521
28 1 2 0.115887 21.0114 17.1908 6.7889
29 1 2 0.115889 21.0114 8.96083 0.969417
30 1 2 0.115889 15.5206 12.1309 13.9447
31 1 2 0.115887 13.884 13.0758 12.6084
32 1 2 0.115887 22.648 8.01592 2.30572
33 1 3 0.671939 27.399 18.7442 13.2542
34 1 3 0.671939 9.13299 2.34751 1.65994
35 1 3 0.671939 27.399 12.8934 9.117
36 1 3 0.671939 9.13299 8.19836 5.79712
37 1 3 0.67194 24.8655 14.3561 13.2542
38 1 3 0.67194 11.6665 6.73565 1.65994
39 1 3 0.67194 29.9325 17.2815 9.117
40 1 3 0.67194 6.5995 3.81022 5.79712
41 1 3 0.67194 24.8655 17.2815 9.117
42 1 3 0.67194 11.6665 3.81022 5.79712
43 1 3 0.67194 29.9325 14.3561 13.2542
44 1 3 0.67194 6.5995 6.73565 1.65994
45 1 3 -0.11508 27.399 19.957 14.1117
46 1 3 -0.11508 9.13299 1.13474 0.802379
47 1 3 -0.11508 27.399 11.6806 8.25944
48 1 3 -0.11508 9.13299 9.41113 6.65468
49 1 3 -0.11508 23.8152 13.7497 14.1117
50 1 3 -0.11508 12.7168 7.34203 0.802379
51 1 3 -0.11508 30.9828 17.8879 8.25944
52 1 3 -0.11508 5.54921 3.20384 6.65468
53 1 3 -0.11508 23.8152 17.8879 8.25944
54 1 3 -0.11508 12.7168 3.20384 6.65468
55 1 3 -0.11508 30.9828 13.7497 14.1117
56 1 3 -0.11508 5.54921 7.34203 0.802379
57 1 3 -0.0559 18.266 5.39949 13.5316
58 1 3 -0.0559 18.266 15.6923 1.38254
59 1 3 -0.055903 18.266 14.5575 0.580159
60 1 3 -0.055903 18.266 6.53422 14.334
61 1 3 -0.0559 26.1971 11.1132 7.85825
62 1 3 -0.0559 10.3349 9.9785 7.05587
63 1 3 -0.055903 10.3349 11.1132 7.85825
64 1 3 -0.055903 26.1971 9.9785 7.05587
65 1 3 -0.0559 14.7918 8.54005 0.580159
66 1 3 -0.0559 21.7402 12.5517 14.334
67 1 3 -0.055903 22.7229 13.1191 13.5316
68 1 3 -0.055903 13.8091 7.97268 1.38254
69 1 3 -0.0559 21.7402 3.39366 7.85825
70 1 3 -0.0559 14.7918 17.6981 7.05587
71 1 3 -0.055903 13.8091 17.1307 7.85825
72 1 3 -0.055903 22.7229 3.96103 7.05587
73 1 3 -0.055901 22.7229 17.1307 7.85825
74 1 3 -0.055901 13.8091 3.96103 7.05587
75 1 3 -0.055903 14.7918 3.39366 7.85825
76 1 3 -0.055903 21.7402 17.6981 7.05587
77 1 3 -0.0559 21.7402 8.54005 0.580159
78 1 3 -0.0559 14.7918 12.5517 14.334
79 1 3 -0.055903 13.8091 13.1191 13.5316
80 1 3 -0.055903 22.7229 7.97268 1.38254
81 1 4 -1.26215 27.399 15.8188 11.1856
82 1 4 -1.26215 9.13299 5.27293 3.72853
83 1 4 -0.60118 27.399 18.9383 11.9641
84 1 4 -0.60118 9.13299 2.15347 2.95001
85 1 4 -0.601179 27.399 17.5926 13.8671
86 1 4 -0.601179 9.13299 3.49912 1.04697
87 1 4 -0.601179 26.2336 13.3722 9.45555
88 1 4 -0.601179 10.2984 7.71958 5.45857
89 1 4 -0.60118 28.5643 13.3722 9.45555
90 1 4 -0.60118 7.96762 7.71958 5.45857
91 1 4 -0.60118 25.8628 14.9319 13.8671
92 1 4 -0.60118 10.6692 6.15984 1.04697
93 1 4 -0.601179 24.6974 14.2591 11.9641
94 1 4 -0.601179 11.8345 6.83267 2.95001
95 1 4 -0.60118 28.9351 18.0514 9.45555
96 1 4 -0.60118 7.59682 3.04037 5.45857
97 1 4 -0.601179 30.1005 16.0329 9.45555
98 1 4 -0.601179 6.43145 5.05885 5.45857
99 1 4 -0.601179 24.6974 16.0329 9.45555
100 1 4 -0.601179 11.8345 5.05885 5.45857
101 1 4 -0.60118 25.8628 18.0514 9.45555
102 1 4 -0.60118 10.6692 3.04037 5.45857
103 1 4 -0.60118 28.9351 14.9319 13.8671
104 1 4 -0.60118 7.59682 6.15984 1.04697
105 1 4 -0.60118 30.1005 14.2591 11.9641
106 1 4 -0.60118 6.43145 6.83267 2.95001
107 2 5 -0.35 11.9054 11.6433 3.95297
108 2 6 0.7 12.2946 11.319 2.90947
109 2 5 -0.35 12.6839 10.9947 1.86596
ITEM: TIMESTEP
89000
ITEM: NUMBER OF ATOMS
106
ITEM: BOX BOUNDS xy xz yz pp pp pp
0.0000000000000000e+00 3.6531964750000000e+01 9.1329911900000003e+00
0.0000000000000000e+00 2.1091739680000000e+01 9.1329911900000003e+00
0.0000000000000000e+00 1.4914112149999999e+01 5.2729349200000000e+00
ITEM: ATOMS id mol type q x y z
1 1 1 1.10383 27.399 17.6496 10.5383
2 1 1 1.10383 9.13299 3.44217 4.3758
3 1 1 1.10383 27.399 15.8188 13.1274
4 1 1 1.10383 9.13299 5.27293 1.78671
5 1 1 1.10383 25.8135 14.9034 10.5383
6 1 1 1.10383 10.7185 6.18832 4.3758
7 1 1 1.10383 28.9845 14.9034 10.5383
8 1 1 1.10383 7.5475 6.18832 4.3758
9 1 2 0.115889 18.266 5.48596 12.6084
10 1 2 0.115889 18.266 15.6058 2.30572
11 1 2 0.115888 18.266 13.716 0.969417
12 1 2 0.115888 18.266 7.37578 13.9447
13 1 2 0.11589 25.3934 11.4908 8.12521
14 1 2 0.11589 11.1386 9.60096 6.7889
15 1 2 0.115888 11.1386 11.4908 8.12521
16 1 2 0.115888 25.3934 9.60096 6.7889
17 1 2 0.115889 15.5206 8.96083 0.969417
18 1 2 0.115889 21.0114 12.1309 13.9447
19 1 2 0.115888 22.648 13.0758 12.6084
20 1 2 0.115888 13.884 8.01592 2.30572
21 1 2 0.115889 21.0114 3.90092 8.12521
22 1 2 0.115889 15.5206 17.1908 6.7889
23 1 2 0.115887 13.884 16.2459 8.12521
24 1 2 0.115887 22.648 4.84583 6.7889
25 1 2 0.115889 22.648 16.2459 8.12521
26 1 2 0.115889 13.884 4.84583 6.7889
27 1 2 0.115887 15.5206 3.90092 8.12521
28 1 2 0.115887 21.0114 17.1908 6.7889
29 1 2 0.115889 21.0114 8.96083 0.969417
30 1 2 0.115889 15.5206 12.1309 13.9447
31 1 2 0.115887 13.884 13.0758 12.6084
32 1 2 0.115887 22.648 8.01592 2.30572
33 1 3 0.671939 27.399 18.7442 13.2542
34 1 3 0.671939 9.13299 2.34751 1.65994
35 1 3 0.671939 27.399 12.8934 9.117
36 1 3 0.671939 9.13299 8.19836 5.79712
37 1 3 0.67194 24.8655 14.3561 13.2542
38 1 3 0.67194 11.6665 6.73565 1.65994
39 1 3 0.67194 29.9325 17.2815 9.117
40 1 3 0.67194 6.5995 3.81022 5.79712
41 1 3 0.67194 24.8655 17.2815 9.117
42 1 3 0.67194 11.6665 3.81022 5.79712
43 1 3 0.67194 29.9325 14.3561 13.2542
44 1 3 0.67194 6.5995 6.73565 1.65994
45 1 3 -0.11508 27.399 19.957 14.1117
46 1 3 -0.11508 9.13299 1.13474 0.802379
47 1 3 -0.11508 27.399 11.6806 8.25944
48 1 3 -0.11508 9.13299 9.41113 6.65468
49 1 3 -0.11508 23.8152 13.7497 14.1117
50 1 3 -0.11508 12.7168 7.34203 0.802379
51 1 3 -0.11508 30.9828 17.8879 8.25944
52 1 3 -0.11508 5.54921 3.20384 6.65468
53 1 3 -0.11508 23.8152 17.8879 8.25944
54 1 3 -0.11508 12.7168 3.20384 6.65468
55 1 3 -0.11508 30.9828 13.7497 14.1117
56 1 3 -0.11508 5.54921 7.34203 0.802379
57 1 3 -0.0559 18.266 5.39949 13.5316
58 1 3 -0.0559 18.266 15.6923 1.38254
59 1 3 -0.055903 18.266 14.5575 0.580159
60 1 3 -0.055903 18.266 6.53422 14.334
61 1 3 -0.0559 26.1971 11.1132 7.85825
62 1 3 -0.0559 10.3349 9.9785 7.05587
63 1 3 -0.055903 10.3349 11.1132 7.85825
64 1 3 -0.055903 26.1971 9.9785 7.05587
65 1 3 -0.0559 14.7918 8.54005 0.580159
66 1 3 -0.0559 21.7402 12.5517 14.334
67 1 3 -0.055903 22.7229 13.1191 13.5316
68 1 3 -0.055903 13.8091 7.97268 1.38254
69 1 3 -0.0559 21.7402 3.39366 7.85825
70 1 3 -0.0559 14.7918 17.6981 7.05587
71 1 3 -0.055903 13.8091 17.1307 7.85825
72 1 3 -0.055903 22.7229 3.96103 7.05587
73 1 3 -0.055901 22.7229 17.1307 7.85825
74 1 3 -0.055901 13.8091 3.96103 7.05587
75 1 3 -0.055903 14.7918 3.39366 7.85825
76 1 3 -0.055903 21.7402 17.6981 7.05587
77 1 3 -0.0559 21.7402 8.54005 0.580159
78 1 3 -0.0559 14.7918 12.5517 14.334
79 1 3 -0.055903 13.8091 13.1191 13.5316
80 1 3 -0.055903 22.7229 7.97268 1.38254
81 1 4 -1.26215 27.399 15.8188 11.1856
82 1 4 -1.26215 9.13299 5.27293 3.72853
83 1 4 -0.60118 27.399 18.9383 11.9641
84 1 4 -0.60118 9.13299 2.15347 2.95001
85 1 4 -0.601179 27.399 17.5926 13.8671
86 1 4 -0.601179 9.13299 3.49912 1.04697
87 1 4 -0.601179 26.2336 13.3722 9.45555
88 1 4 -0.601179 10.2984 7.71958 5.45857
89 1 4 -0.60118 28.5643 13.3722 9.45555
90 1 4 -0.60118 7.96762 7.71958 5.45857
91 1 4 -0.60118 25.8628 14.9319 13.8671
92 1 4 -0.60118 10.6692 6.15984 1.04697
93 1 4 -0.601179 24.6974 14.2591 11.9641
94 1 4 -0.601179 11.8345 6.83267 2.95001
95 1 4 -0.60118 28.9351 18.0514 9.45555
96 1 4 -0.60118 7.59682 3.04037 5.45857
97 1 4 -0.601179 30.1005 16.0329 9.45555
98 1 4 -0.601179 6.43145 5.05885 5.45857
99 1 4 -0.601179 24.6974 16.0329 9.45555
100 1 4 -0.601179 11.8345 5.05885 5.45857
101 1 4 -0.60118 25.8628 18.0514 9.45555
102 1 4 -0.60118 10.6692 3.04037 5.45857
103 1 4 -0.60118 28.9351 14.9319 13.8671
104 1 4 -0.60118 7.59682 6.15984 1.04697
105 1 4 -0.60118 30.1005 14.2591 11.9641
106 1 4 -0.60118 6.43145 6.83267 2.95001
ITEM: TIMESTEP
90000
ITEM: NUMBER OF ATOMS
109
ITEM: BOX BOUNDS xy xz yz pp pp pp
0.0000000000000000e+00 3.6531964750000000e+01 9.1329911900000003e+00
0.0000000000000000e+00 2.1091739680000000e+01 9.1329911900000003e+00
0.0000000000000000e+00 1.4914112149999999e+01 5.2729349200000000e+00
ITEM: ATOMS id mol type q x y z
1 1 1 1.10383 27.399 17.6496 10.5383
2 1 1 1.10383 9.13299 3.44217 4.3758
3 1 1 1.10383 27.399 15.8188 13.1274
4 1 1 1.10383 9.13299 5.27293 1.78671
5 1 1 1.10383 25.8135 14.9034 10.5383
6 1 1 1.10383 10.7185 6.18832 4.3758
7 1 1 1.10383 28.9845 14.9034 10.5383
8 1 1 1.10383 7.5475 6.18832 4.3758
9 1 2 0.115889 18.266 5.48596 12.6084
10 1 2 0.115889 18.266 15.6058 2.30572
11 1 2 0.115888 18.266 13.716 0.969417
12 1 2 0.115888 18.266 7.37578 13.9447
13 1 2 0.11589 25.3934 11.4908 8.12521
14 1 2 0.11589 11.1386 9.60096 6.7889
15 1 2 0.115888 11.1386 11.4908 8.12521
16 1 2 0.115888 25.3934 9.60096 6.7889
17 1 2 0.115889 15.5206 8.96083 0.969417
18 1 2 0.115889 21.0114 12.1309 13.9447
19 1 2 0.115888 22.648 13.0758 12.6084
20 1 2 0.115888 13.884 8.01592 2.30572
21 1 2 0.115889 21.0114 3.90092 8.12521
22 1 2 0.115889 15.5206 17.1908 6.7889
23 1 2 0.115887 13.884 16.2459 8.12521
24 1 2 0.115887 22.648 4.84583 6.7889
25 1 2 0.115889 22.648 16.2459 8.12521
26 1 2 0.115889 13.884 4.84583 6.7889
27 1 2 0.115887 15.5206 3.90092 8.12521
28 1 2 0.115887 21.0114 17.1908 6.7889
29 1 2 0.115889 21.0114 8.96083 0.969417
30 1 2 0.115889 15.5206 12.1309 13.9447
31 1 2 0.115887 13.884 13.0758 12.6084
32 1 2 0.115887 22.648 8.01592 2.30572
33 1 3 0.671939 27.399 18.7442 13.2542
34 1 3 0.671939 9.13299 2.34751 1.65994
35 1 3 0.671939 27.399 12.8934 9.117
36 1 3 0.671939 9.13299 8.19836 5.79712
37 1 3 0.67194 24.8655 14.3561 13.2542
38 1 3 0.67194 11.6665 6.73565 1.65994
39 1 3 0.67194 29.9325 17.2815 9.117
40 1 3 0.67194 6.5995 3.81022 5.79712
41 1 3 0.67194 24.8655 17.2815 9.117
42 1 3 0.67194 11.6665 3.81022 5.79712
43 1 3 0.67194 29.9325 14.3561 13.2542
44 1 3 0.67194 6.5995 6.73565 1.65994
45 1 3 -0.11508 27.399 19.957 14.1117
46 1 3 -0.11508 9.13299 1.13474 0.802379
47 1 3 -0.11508 27.399 11.6806 8.25944
48 1 3 -0.11508 9.13299 9.41113 6.65468
49 1 3 -0.11508 23.8152 13.7497 14.1117
50 1 3 -0.11508 12.7168 7.34203 0.802379
51 1 3 -0.11508 30.9828 17.8879 8.25944
52 1 3 -0.11508 5.54921 3.20384 6.65468
53 1 3 -0.11508 23.8152 17.8879 8.25944
54 1 3 -0.11508 12.7168 3.20384 6.65468
55 1 3 -0.11508 30.9828 13.7497 14.1117
56 1 3 -0.11508 5.54921 7.34203 0.802379
57 1 3 -0.0559 18.266 5.39949 13.5316
58 1 3 -0.0559 18.266 15.6923 1.38254
59 1 3 -0.055903 18.266 14.5575 0.580159
60 1 3 -0.055903 18.266 6.53422 14.334
61 1 3 -0.0559 26.1971 11.1132 7.85825
62 1 3 -0.0559 10.3349 9.9785 7.05587
63 1 3 -0.055903 10.3349 11.1132 7.85825
64 1 3 -0.055903 26.1971 9.9785 7.05587
65 1 3 -0.0559 14.7918 8.54005 0.580159
66 1 3 -0.0559 21.7402 12.5517 14.334
67 1 3 -0.055903 22.7229 13.1191 13.5316
68 1 3 -0.055903 13.8091 7.97268 1.38254
69 1 3 -0.0559 21.7402 3.39366 7.85825
70 1 3 -0.0559 14.7918 17.6981 7.05587
71 1 3 -0.055903 13.8091 17.1307 7.85825
72 1 3 -0.055903 22.7229 3.96103 7.05587
73 1 3 -0.055901 22.7229 17.1307 7.85825
74 1 3 -0.055901 13.8091 3.96103 7.05587
75 1 3 -0.055903 14.7918 3.39366 7.85825
76 1 3 -0.055903 21.7402 17.6981 7.05587
77 1 3 -0.0559 21.7402 8.54005 0.580159
78 1 3 -0.0559 14.7918 12.5517 14.334
79 1 3 -0.055903 13.8091 13.1191 13.5316
80 1 3 -0.055903 22.7229 7.97268 1.38254
81 1 4 -1.26215 27.399 15.8188 11.1856
82 1 4 -1.26215 9.13299 5.27293 3.72853
83 1 4 -0.60118 27.399 18.9383 11.9641
84 1 4 -0.60118 9.13299 2.15347 2.95001
85 1 4 -0.601179 27.399 17.5926 13.8671
86 1 4 -0.601179 9.13299 3.49912 1.04697
87 1 4 -0.601179 26.2336 13.3722 9.45555
88 1 4 -0.601179 10.2984 7.71958 5.45857
89 1 4 -0.60118 28.5643 13.3722 9.45555
90 1 4 -0.60118 7.96762 7.71958 5.45857
91 1 4 -0.60118 25.8628 14.9319 13.8671
92 1 4 -0.60118 10.6692 6.15984 1.04697
93 1 4 -0.601179 24.6974 14.2591 11.9641
94 1 4 -0.601179 11.8345 6.83267 2.95001
95 1 4 -0.60118 28.9351 18.0514 9.45555
96 1 4 -0.60118 7.59682 3.04037 5.45857
97 1 4 -0.601179 30.1005 16.0329 9.45555
98 1 4 -0.601179 6.43145 5.05885 5.45857
99 1 4 -0.601179 24.6974 16.0329 9.45555
100 1 4 -0.601179 11.8345 5.05885 5.45857
101 1 4 -0.60118 25.8628 18.0514 9.45555
102 1 4 -0.60118 10.6692 3.04037 5.45857
103 1 4 -0.60118 28.9351 14.9319 13.8671
104 1 4 -0.60118 7.59682 6.15984 1.04697
105 1 4 -0.60118 30.1005 14.2591 11.9641
106 1 4 -0.60118 6.43145 6.83267 2.95001
107 2 5 -0.35 14.5998 9.42666 13.7224
108 2 6 0.7 15.0094 8.68004 12.9348
109 2 5 -0.35 15.419 7.93342 12.1471
ITEM: TIMESTEP
91000
ITEM: NUMBER OF ATOMS
112
ITEM: BOX BOUNDS xy xz yz pp pp pp
0.0000000000000000e+00 3.6531964750000000e+01 9.1329911900000003e+00
0.0000000000000000e+00 2.1091739680000000e+01 9.1329911900000003e+00
0.0000000000000000e+00 1.4914112149999999e+01 5.2729349200000000e+00
ITEM: ATOMS id mol type q x y z
1 1 1 1.10383 27.399 17.6496 10.5383
2 1 1 1.10383 9.13299 3.44217 4.3758
3 1 1 1.10383 27.399 15.8188 13.1274
4 1 1 1.10383 9.13299 5.27293 1.78671
5 1 1 1.10383 25.8135 14.9034 10.5383
6 1 1 1.10383 10.7185 6.18832 4.3758
7 1 1 1.10383 28.9845 14.9034 10.5383
8 1 1 1.10383 7.5475 6.18832 4.3758
9 1 2 0.115889 18.266 5.48596 12.6084
10 1 2 0.115889 18.266 15.6058 2.30572
11 1 2 0.115888 18.266 13.716 0.969417
12 1 2 0.115888 18.266 7.37578 13.9447
13 1 2 0.11589 25.3934 11.4908 8.12521
14 1 2 0.11589 11.1386 9.60096 6.7889
15 1 2 0.115888 11.1386 11.4908 8.12521
16 1 2 0.115888 25.3934 9.60096 6.7889
17 1 2 0.115889 15.5206 8.96083 0.969417
18 1 2 0.115889 21.0114 12.1309 13.9447
19 1 2 0.115888 22.648 13.0758 12.6084
20 1 2 0.115888 13.884 8.01592 2.30572
21 1 2 0.115889 21.0114 3.90092 8.12521
22 1 2 0.115889 15.5206 17.1908 6.7889
23 1 2 0.115887 13.884 16.2459 8.12521
24 1 2 0.115887 22.648 4.84583 6.7889
25 1 2 0.115889 22.648 16.2459 8.12521
26 1 2 0.115889 13.884 4.84583 6.7889
27 1 2 0.115887 15.5206 3.90092 8.12521
28 1 2 0.115887 21.0114 17.1908 6.7889
29 1 2 0.115889 21.0114 8.96083 0.969417
30 1 2 0.115889 15.5206 12.1309 13.9447
31 1 2 0.115887 13.884 13.0758 12.6084
32 1 2 0.115887 22.648 8.01592 2.30572
33 1 3 0.671939 27.399 18.7442 13.2542
34 1 3 0.671939 9.13299 2.34751 1.65994
35 1 3 0.671939 27.399 12.8934 9.117
36 1 3 0.671939 9.13299 8.19836 5.79712
37 1 3 0.67194 24.8655 14.3561 13.2542
38 1 3 0.67194 11.6665 6.73565 1.65994
39 1 3 0.67194 29.9325 17.2815 9.117
40 1 3 0.67194 6.5995 3.81022 5.79712
41 1 3 0.67194 24.8655 17.2815 9.117
42 1 3 0.67194 11.6665 3.81022 5.79712
43 1 3 0.67194 29.9325 14.3561 13.2542
44 1 3 0.67194 6.5995 6.73565 1.65994
45 1 3 -0.11508 27.399 19.957 14.1117
46 1 3 -0.11508 9.13299 1.13474 0.802379
47 1 3 -0.11508 27.399 11.6806 8.25944
48 1 3 -0.11508 9.13299 9.41113 6.65468
49 1 3 -0.11508 23.8152 13.7497 14.1117
50 1 3 -0.11508 12.7168 7.34203 0.802379
51 1 3 -0.11508 30.9828 17.8879 8.25944
52 1 3 -0.11508 5.54921 3.20384 6.65468
53 1 3 -0.11508 23.8152 17.8879 8.25944
54 1 3 -0.11508 12.7168 3.20384 6.65468
55 1 3 -0.11508 30.9828 13.7497 14.1117
56 1 3 -0.11508 5.54921 7.34203 0.802379
57 1 3 -0.0559 18.266 5.39949 13.5316
58 1 3 -0.0559 18.266 15.6923 1.38254
59 1 3 -0.055903 18.266 14.5575 0.580159
60 1 3 -0.055903 18.266 6.53422 14.334
61 1 3 -0.0559 26.1971 11.1132 7.85825
62 1 3 -0.0559 10.3349 9.9785 7.05587
63 1 3 -0.055903 10.3349 11.1132 7.85825
64 1 3 -0.055903 26.1971 9.9785 7.05587
65 1 3 -0.0559 14.7918 8.54005 0.580159
66 1 3 -0.0559 21.7402 12.5517 14.334
67 1 3 -0.055903 22.7229 13.1191 13.5316
68 1 3 -0.055903 13.8091 7.97268 1.38254
69 1 3 -0.0559 21.7402 3.39366 7.85825
70 1 3 -0.0559 14.7918 17.6981 7.05587
71 1 3 -0.055903 13.8091 17.1307 7.85825
72 1 3 -0.055903 22.7229 3.96103 7.05587
73 1 3 -0.055901 22.7229 17.1307 7.85825
74 1 3 -0.055901 13.8091 3.96103 7.05587
75 1 3 -0.055903 14.7918 3.39366 7.85825
76 1 3 -0.055903 21.7402 17.6981 7.05587
77 1 3 -0.0559 21.7402 8.54005 0.580159
78 1 3 -0.0559 14.7918 12.5517 14.334
79 1 3 -0.055903 13.8091 13.1191 13.5316
80 1 3 -0.055903 22.7229 7.97268 1.38254
81 1 4 -1.26215 27.399 15.8188 11.1856
82 1 4 -1.26215 9.13299 5.27293 3.72853
83 1 4 -0.60118 27.399 18.9383 11.9641
84 1 4 -0.60118 9.13299 2.15347 2.95001
85 1 4 -0.601179 27.399 17.5926 13.8671
86 1 4 -0.601179 9.13299 3.49912 1.04697
87 1 4 -0.601179 26.2336 13.3722 9.45555
88 1 4 -0.601179 10.2984 7.71958 5.45857
89 1 4 -0.60118 28.5643 13.3722 9.45555
90 1 4 -0.60118 7.96762 7.71958 5.45857
91 1 4 -0.60118 25.8628 14.9319 13.8671
92 1 4 -0.60118 10.6692 6.15984 1.04697
93 1 4 -0.601179 24.6974 14.2591 11.9641
94 1 4 -0.601179 11.8345 6.83267 2.95001
95 1 4 -0.60118 28.9351 18.0514 9.45555
96 1 4 -0.60118 7.59682 3.04037 5.45857
97 1 4 -0.601179 30.1005 16.0329 9.45555
98 1 4 -0.601179 6.43145 5.05885 5.45857
99 1 4 -0.601179 24.6974 16.0329 9.45555
100 1 4 -0.601179 11.8345 5.05885 5.45857
101 1 4 -0.60118 25.8628 18.0514 9.45555
102 1 4 -0.60118 10.6692 3.04037 5.45857
103 1 4 -0.60118 28.9351 14.9319 13.8671
104 1 4 -0.60118 7.59682 6.15984 1.04697
105 1 4 -0.60118 30.1005 14.2591 11.9641
106 1 4 -0.60118 6.43145 6.83267 2.95001
113 4 5 -0.35 6.2346 3.46707 2.40517
114 4 6 0.7 5.3094 3.01153 1.87404
115 4 5 -0.35 4.38421 2.55598 1.34292
122 7 5 -0.35 12.1897 10.7847 14.185
123 7 6 0.7 12.1756 10.5349 13.0523
124 7 5 -0.35 12.1615 10.2852 11.9195
ITEM: TIMESTEP
92000
ITEM: NUMBER OF ATOMS
118
ITEM: BOX BOUNDS xy xz yz pp pp pp
0.0000000000000000e+00 3.6531964750000000e+01 9.1329911900000003e+00
0.0000000000000000e+00 2.1091739680000000e+01 9.1329911900000003e+00
0.0000000000000000e+00 1.4914112149999999e+01 5.2729349200000000e+00
ITEM: ATOMS id mol type q x y z
1 1 1 1.10383 27.399 17.6496 10.5383
2 1 1 1.10383 9.13299 3.44217 4.3758
3 1 1 1.10383 27.399 15.8188 13.1274
4 1 1 1.10383 9.13299 5.27293 1.78671
5 1 1 1.10383 25.8135 14.9034 10.5383
6 1 1 1.10383 10.7185 6.18832 4.3758
7 1 1 1.10383 28.9845 14.9034 10.5383
8 1 1 1.10383 7.5475 6.18832 4.3758
9 1 2 0.115889 18.266 5.48596 12.6084
10 1 2 0.115889 18.266 15.6058 2.30572
11 1 2 0.115888 18.266 13.716 0.969417
12 1 2 0.115888 18.266 7.37578 13.9447
13 1 2 0.11589 25.3934 11.4908 8.12521
14 1 2 0.11589 11.1386 9.60096 6.7889
15 1 2 0.115888 11.1386 11.4908 8.12521
16 1 2 0.115888 25.3934 9.60096 6.7889
17 1 2 0.115889 15.5206 8.96083 0.969417
18 1 2 0.115889 21.0114 12.1309 13.9447
19 1 2 0.115888 22.648 13.0758 12.6084
20 1 2 0.115888 13.884 8.01592 2.30572
21 1 2 0.115889 21.0114 3.90092 8.12521
22 1 2 0.115889 15.5206 17.1908 6.7889
23 1 2 0.115887 13.884 16.2459 8.12521
24 1 2 0.115887 22.648 4.84583 6.7889
25 1 2 0.115889 22.648 16.2459 8.12521
26 1 2 0.115889 13.884 4.84583 6.7889
27 1 2 0.115887 15.5206 3.90092 8.12521
28 1 2 0.115887 21.0114 17.1908 6.7889
29 1 2 0.115889 21.0114 8.96083 0.969417
30 1 2 0.115889 15.5206 12.1309 13.9447
31 1 2 0.115887 13.884 13.0758 12.6084
32 1 2 0.115887 22.648 8.01592 2.30572
33 1 3 0.671939 27.399 18.7442 13.2542
34 1 3 0.671939 9.13299 2.34751 1.65994
35 1 3 0.671939 27.399 12.8934 9.117
36 1 3 0.671939 9.13299 8.19836 5.79712
37 1 3 0.67194 24.8655 14.3561 13.2542
38 1 3 0.67194 11.6665 6.73565 1.65994
39 1 3 0.67194 29.9325 17.2815 9.117
40 1 3 0.67194 6.5995 3.81022 5.79712
41 1 3 0.67194 24.8655 17.2815 9.117
42 1 3 0.67194 11.6665 3.81022 5.79712
43 1 3 0.67194 29.9325 14.3561 13.2542
44 1 3 0.67194 6.5995 6.73565 1.65994
45 1 3 -0.11508 27.399 19.957 14.1117
46 1 3 -0.11508 9.13299 1.13474 0.802379
47 1 3 -0.11508 27.399 11.6806 8.25944
48 1 3 -0.11508 9.13299 9.41113 6.65468
49 1 3 -0.11508 23.8152 13.7497 14.1117
50 1 3 -0.11508 12.7168 7.34203 0.802379
51 1 3 -0.11508 30.9828 17.8879 8.25944
52 1 3 -0.11508 5.54921 3.20384 6.65468
53 1 3 -0.11508 23.8152 17.8879 8.25944
54 1 3 -0.11508 12.7168 3.20384 6.65468
55 1 3 -0.11508 30.9828 13.7497 14.1117
56 1 3 -0.11508 5.54921 7.34203 0.802379
57 1 3 -0.0559 18.266 5.39949 13.5316
58 1 3 -0.0559 18.266 15.6923 1.38254
59 1 3 -0.055903 18.266 14.5575 0.580159
60 1 3 -0.055903 18.266 6.53422 14.334
61 1 3 -0.0559 26.1971 11.1132 7.85825
62 1 3 -0.0559 10.3349 9.9785 7.05587
63 1 3 -0.055903 10.3349 11.1132 7.85825
64 1 3 -0.055903 26.1971 9.9785 7.05587
65 1 3 -0.0559 14.7918 8.54005 0.580159
66 1 3 -0.0559 21.7402 12.5517 14.334
67 1 3 -0.055903 22.7229 13.1191 13.5316
68 1 3 -0.055903 13.8091 7.97268 1.38254
69 1 3 -0.0559 21.7402 3.39366 7.85825
70 1 3 -0.0559 14.7918 17.6981 7.05587
71 1 3 -0.055903 13.8091 17.1307 7.85825
72 1 3 -0.055903 22.7229 3.96103 7.05587
73 1 3 -0.055901 22.7229 17.1307 7.85825
74 1 3 -0.055901 13.8091 3.96103 7.05587
75 1 3 -0.055903 14.7918 3.39366 7.85825
76 1 3 -0.055903 21.7402 17.6981 7.05587
77 1 3 -0.0559 21.7402 8.54005 0.580159
78 1 3 -0.0559 14.7918 12.5517 14.334
79 1 3 -0.055903 13.8091 13.1191 13.5316
80 1 3 -0.055903 22.7229 7.97268 1.38254
81 1 4 -1.26215 27.399 15.8188 11.1856
82 1 4 -1.26215 9.13299 5.27293 3.72853
83 1 4 -0.60118 27.399 18.9383 11.9641
84 1 4 -0.60118 9.13299 2.15347 2.95001
85 1 4 -0.601179 27.399 17.5926 13.8671
86 1 4 -0.601179 9.13299 3.49912 1.04697
87 1 4 -0.601179 26.2336 13.3722 9.45555
88 1 4 -0.601179 10.2984 7.71958 5.45857
89 1 4 -0.60118 28.5643 13.3722 9.45555
90 1 4 -0.60118 7.96762 7.71958 5.45857
91 1 4 -0.60118 25.8628 14.9319 13.8671
92 1 4 -0.60118 10.6692 6.15984 1.04697
93 1 4 -0.601179 24.6974 14.2591 11.9641
94 1 4 -0.601179 11.8345 6.83267 2.95001
95 1 4 -0.60118 28.9351 18.0514 9.45555
96 1 4 -0.60118 7.59682 3.04037 5.45857
97 1 4 -0.601179 30.1005 16.0329 9.45555
98 1 4 -0.601179 6.43145 5.05885 5.45857
99 1 4 -0.601179 24.6974 16.0329 9.45555
100 1 4 -0.601179 11.8345 5.05885 5.45857
101 1 4 -0.60118 25.8628 18.0514 9.45555
102 1 4 -0.60118 10.6692 3.04037 5.45857
103 1 4 -0.60118 28.9351 14.9319 13.8671
104 1 4 -0.60118 7.59682 6.15984 1.04697
105 1 4 -0.60118 30.1005 14.2591 11.9641
106 1 4 -0.60118 6.43145 6.83267 2.95001
107 2 5 -0.35 21.6767 16.8627 11.2555
108 2 6 0.7 22.6594 17.1615 11.7946
109 2 5 -0.35 23.6421 17.4602 12.3337
110 3 5 -0.35 15.4165 13.5739 5.93697
111 3 6 0.7 14.2626 13.5786 5.81905
112 3 5 -0.35 13.1086 13.5832 5.70113
113 4 5 -0.35 14.903 9.34968 12.2782
114 4 6 0.7 15.2083 8.82857 13.2686
115 4 5 -0.35 15.5135 8.30747 14.259
116 5 5 -0.35 17.7921 15.3908 10.3805
117 5 6 0.7 17.9666 15.9517 9.38022
118 5 5 -0.35 18.141 16.5127 8.37996
ITEM: TIMESTEP
93000
ITEM: NUMBER OF ATOMS
106
ITEM: BOX BOUNDS xy xz yz pp pp pp
0.0000000000000000e+00 3.6531964750000000e+01 9.1329911900000003e+00
0.0000000000000000e+00 2.1091739680000000e+01 9.1329911900000003e+00
0.0000000000000000e+00 1.4914112149999999e+01 5.2729349200000000e+00
ITEM: ATOMS id mol type q x y z
1 1 1 1.10383 27.399 17.6496 10.5383
2 1 1 1.10383 9.13299 3.44217 4.3758
3 1 1 1.10383 27.399 15.8188 13.1274
4 1 1 1.10383 9.13299 5.27293 1.78671
5 1 1 1.10383 25.8135 14.9034 10.5383
6 1 1 1.10383 10.7185 6.18832 4.3758
7 1 1 1.10383 28.9845 14.9034 10.5383
8 1 1 1.10383 7.5475 6.18832 4.3758
9 1 2 0.115889 18.266 5.48596 12.6084
10 1 2 0.115889 18.266 15.6058 2.30572
11 1 2 0.115888 18.266 13.716 0.969417
12 1 2 0.115888 18.266 7.37578 13.9447
13 1 2 0.11589 25.3934 11.4908 8.12521
14 1 2 0.11589 11.1386 9.60096 6.7889
15 1 2 0.115888 11.1386 11.4908 8.12521
16 1 2 0.115888 25.3934 9.60096 6.7889
17 1 2 0.115889 15.5206 8.96083 0.969417
18 1 2 0.115889 21.0114 12.1309 13.9447
19 1 2 0.115888 22.648 13.0758 12.6084
20 1 2 0.115888 13.884 8.01592 2.30572
21 1 2 0.115889 21.0114 3.90092 8.12521
22 1 2 0.115889 15.5206 17.1908 6.7889
23 1 2 0.115887 13.884 16.2459 8.12521
24 1 2 0.115887 22.648 4.84583 6.7889
25 1 2 0.115889 22.648 16.2459 8.12521
26 1 2 0.115889 13.884 4.84583 6.7889
27 1 2 0.115887 15.5206 3.90092 8.12521
28 1 2 0.115887 21.0114 17.1908 6.7889
29 1 2 0.115889 21.0114 8.96083 0.969417
30 1 2 0.115889 15.5206 12.1309 13.9447
31 1 2 0.115887 13.884 13.0758 12.6084
32 1 2 0.115887 22.648 8.01592 2.30572
33 1 3 0.671939 27.399 18.7442 13.2542
34 1 3 0.671939 9.13299 2.34751 1.65994
35 1 3 0.671939 27.399 12.8934 9.117
36 1 3 0.671939 9.13299 8.19836 5.79712
37 1 3 0.67194 24.8655 14.3561 13.2542
38 1 3 0.67194 11.6665 6.73565 1.65994
39 1 3 0.67194 29.9325 17.2815 9.117
40 1 3 0.67194 6.5995 3.81022 5.79712
41 1 3 0.67194 24.8655 17.2815 9.117
42 1 3 0.67194 11.6665 3.81022 5.79712
43 1 3 0.67194 29.9325 14.3561 13.2542
44 1 3 0.67194 6.5995 6.73565 1.65994
45 1 3 -0.11508 27.399 19.957 14.1117
46 1 3 -0.11508 9.13299 1.13474 0.802379
47 1 3 -0.11508 27.399 11.6806 8.25944
48 1 3 -0.11508 9.13299 9.41113 6.65468
49 1 3 -0.11508 23.8152 13.7497 14.1117
50 1 3 -0.11508 12.7168 7.34203 0.802379
51 1 3 -0.11508 30.9828 17.8879 8.25944
52 1 3 -0.11508 5.54921 3.20384 6.65468
53 1 3 -0.11508 23.8152 17.8879 8.25944
54 1 3 -0.11508 12.7168 3.20384 6.65468
55 1 3 -0.11508 30.9828 13.7497 14.1117
56 1 3 -0.11508 5.54921 7.34203 0.802379
57 1 3 -0.0559 18.266 5.39949 13.5316
58 1 3 -0.0559 18.266 15.6923 1.38254
59 1 3 -0.055903 18.266 14.5575 0.580159
60 1 3 -0.055903 18.266 6.53422 14.334
61 1 3 -0.0559 26.1971 11.1132 7.85825
62 1 3 -0.0559 10.3349 9.9785 7.05587
63 1 3 -0.055903 10.3349 11.1132 7.85825
64 1 3 -0.055903 26.1971 9.9785 7.05587
65 1 3 -0.0559 14.7918 8.54005 0.580159
66 1 3 -0.0559 21.7402 12.5517 14.334
67 1 3 -0.055903 22.7229 13.1191 13.5316
68 1 3 -0.055903 13.8091 7.97268 1.38254
69 1 3 -0.0559 21.7402 3.39366 7.85825
70 1 3 -0.0559 14.7918 17.6981 7.05587
71 1 3 -0.055903 13.8091 17.1307 7.85825
72 1 3 -0.055903 22.7229 3.96103 7.05587
73 1 3 -0.055901 22.7229 17.1307 7.85825
74 1 3 -0.055901 13.8091 3.96103 7.05587
75 1 3 -0.055903 14.7918 3.39366 7.85825
76 1 3 -0.055903 21.7402 17.6981 7.05587
77 1 3 -0.0559 21.7402 8.54005 0.580159
78 1 3 -0.0559 14.7918 12.5517 14.334
79 1 3 -0.055903 13.8091 13.1191 13.5316
80 1 3 -0.055903 22.7229 7.97268 1.38254
81 1 4 -1.26215 27.399 15.8188 11.1856
82 1 4 -1.26215 9.13299 5.27293 3.72853
83 1 4 -0.60118 27.399 18.9383 11.9641
84 1 4 -0.60118 9.13299 2.15347 2.95001
85 1 4 -0.601179 27.399 17.5926 13.8671
86 1 4 -0.601179 9.13299 3.49912 1.04697
87 1 4 -0.601179 26.2336 13.3722 9.45555
88 1 4 -0.601179 10.2984 7.71958 5.45857
89 1 4 -0.60118 28.5643 13.3722 9.45555
90 1 4 -0.60118 7.96762 7.71958 5.45857
91 1 4 -0.60118 25.8628 14.9319 13.8671
92 1 4 -0.60118 10.6692 6.15984 1.04697
93 1 4 -0.601179 24.6974 14.2591 11.9641
94 1 4 -0.601179 11.8345 6.83267 2.95001
95 1 4 -0.60118 28.9351 18.0514 9.45555
96 1 4 -0.60118 7.59682 3.04037 5.45857
97 1 4 -0.601179 30.1005 16.0329 9.45555
98 1 4 -0.601179 6.43145 5.05885 5.45857
99 1 4 -0.601179 24.6974 16.0329 9.45555
100 1 4 -0.601179 11.8345 5.05885 5.45857
101 1 4 -0.60118 25.8628 18.0514 9.45555
102 1 4 -0.60118 10.6692 3.04037 5.45857
103 1 4 -0.60118 28.9351 14.9319 13.8671
104 1 4 -0.60118 7.59682 6.15984 1.04697
105 1 4 -0.60118 30.1005 14.2591 11.9641
106 1 4 -0.60118 6.43145 6.83267 2.95001
ITEM: TIMESTEP
94000
ITEM: NUMBER OF ATOMS
106
ITEM: BOX BOUNDS xy xz yz pp pp pp
0.0000000000000000e+00 3.6531964750000000e+01 9.1329911900000003e+00
0.0000000000000000e+00 2.1091739680000000e+01 9.1329911900000003e+00
0.0000000000000000e+00 1.4914112149999999e+01 5.2729349200000000e+00
ITEM: ATOMS id mol type q x y z
1 1 1 1.10383 27.399 17.6496 10.5383
2 1 1 1.10383 9.13299 3.44217 4.3758
3 1 1 1.10383 27.399 15.8188 13.1274
4 1 1 1.10383 9.13299 5.27293 1.78671
5 1 1 1.10383 25.8135 14.9034 10.5383
6 1 1 1.10383 10.7185 6.18832 4.3758
7 1 1 1.10383 28.9845 14.9034 10.5383
8 1 1 1.10383 7.5475 6.18832 4.3758
9 1 2 0.115889 18.266 5.48596 12.6084
10 1 2 0.115889 18.266 15.6058 2.30572
11 1 2 0.115888 18.266 13.716 0.969417
12 1 2 0.115888 18.266 7.37578 13.9447
13 1 2 0.11589 25.3934 11.4908 8.12521
14 1 2 0.11589 11.1386 9.60096 6.7889
15 1 2 0.115888 11.1386 11.4908 8.12521
16 1 2 0.115888 25.3934 9.60096 6.7889
17 1 2 0.115889 15.5206 8.96083 0.969417
18 1 2 0.115889 21.0114 12.1309 13.9447
19 1 2 0.115888 22.648 13.0758 12.6084
20 1 2 0.115888 13.884 8.01592 2.30572
21 1 2 0.115889 21.0114 3.90092 8.12521
22 1 2 0.115889 15.5206 17.1908 6.7889
23 1 2 0.115887 13.884 16.2459 8.12521
24 1 2 0.115887 22.648 4.84583 6.7889
25 1 2 0.115889 22.648 16.2459 8.12521
26 1 2 0.115889 13.884 4.84583 6.7889
27 1 2 0.115887 15.5206 3.90092 8.12521
28 1 2 0.115887 21.0114 17.1908 6.7889
29 1 2 0.115889 21.0114 8.96083 0.969417
30 1 2 0.115889 15.5206 12.1309 13.9447
31 1 2 0.115887 13.884 13.0758 12.6084
32 1 2 0.115887 22.648 8.01592 2.30572
33 1 3 0.671939 27.399 18.7442 13.2542
34 1 3 0.671939 9.13299 2.34751 1.65994
35 1 3 0.671939 27.399 12.8934 9.117
36 1 3 0.671939 9.13299 8.19836 5.79712
37 1 3 0.67194 24.8655 14.3561 13.2542
38 1 3 0.67194 11.6665 6.73565 1.65994
39 1 3 0.67194 29.9325 17.2815 9.117
40 1 3 0.67194 6.5995 3.81022 5.79712
41 1 3 0.67194 24.8655 17.2815 9.117
42 1 3 0.67194 11.6665 3.81022 5.79712
43 1 3 0.67194 29.9325 14.3561 13.2542
44 1 3 0.67194 6.5995 6.73565 1.65994
45 1 3 -0.11508 27.399 19.957 14.1117
46 1 3 -0.11508 9.13299 1.13474 0.802379
47 1 3 -0.11508 27.399 11.6806 8.25944
48 1 3 -0.11508 9.13299 9.41113 6.65468
49 1 3 -0.11508 23.8152 13.7497 14.1117
50 1 3 -0.11508 12.7168 7.34203 0.802379
51 1 3 -0.11508 30.9828 17.8879 8.25944
52 1 3 -0.11508 5.54921 3.20384 6.65468
53 1 3 -0.11508 23.8152 17.8879 8.25944
54 1 3 -0.11508 12.7168 3.20384 6.65468
55 1 3 -0.11508 30.9828 13.7497 14.1117
56 1 3 -0.11508 5.54921 7.34203 0.802379
57 1 3 -0.0559 18.266 5.39949 13.5316
58 1 3 -0.0559 18.266 15.6923 1.38254
59 1 3 -0.055903 18.266 14.5575 0.580159
60 1 3 -0.055903 18.266 6.53422 14.334
61 1 3 -0.0559 26.1971 11.1132 7.85825
62 1 3 -0.0559 10.3349 9.9785 7.05587
63 1 3 -0.055903 10.3349 11.1132 7.85825
64 1 3 -0.055903 26.1971 9.9785 7.05587
65 1 3 -0.0559 14.7918 8.54005 0.580159
66 1 3 -0.0559 21.7402 12.5517 14.334
67 1 3 -0.055903 22.7229 13.1191 13.5316
68 1 3 -0.055903 13.8091 7.97268 1.38254
69 1 3 -0.0559 21.7402 3.39366 7.85825
70 1 3 -0.0559 14.7918 17.6981 7.05587
71 1 3 -0.055903 13.8091 17.1307 7.85825
72 1 3 -0.055903 22.7229 3.96103 7.05587
73 1 3 -0.055901 22.7229 17.1307 7.85825
74 1 3 -0.055901 13.8091 3.96103 7.05587
75 1 3 -0.055903 14.7918 3.39366 7.85825
76 1 3 -0.055903 21.7402 17.6981 7.05587
77 1 3 -0.0559 21.7402 8.54005 0.580159
78 1 3 -0.0559 14.7918 12.5517 14.334
79 1 3 -0.055903 13.8091 13.1191 13.5316
80 1 3 -0.055903 22.7229 7.97268 1.38254
81 1 4 -1.26215 27.399 15.8188 11.1856
82 1 4 -1.26215 9.13299 5.27293 3.72853
83 1 4 -0.60118 27.399 18.9383 11.9641
84 1 4 -0.60118 9.13299 2.15347 2.95001
85 1 4 -0.601179 27.399 17.5926 13.8671
86 1 4 -0.601179 9.13299 3.49912 1.04697
87 1 4 -0.601179 26.2336 13.3722 9.45555
88 1 4 -0.601179 10.2984 7.71958 5.45857
89 1 4 -0.60118 28.5643 13.3722 9.45555
90 1 4 -0.60118 7.96762 7.71958 5.45857
91 1 4 -0.60118 25.8628 14.9319 13.8671
92 1 4 -0.60118 10.6692 6.15984 1.04697
93 1 4 -0.601179 24.6974 14.2591 11.9641
94 1 4 -0.601179 11.8345 6.83267 2.95001
95 1 4 -0.60118 28.9351 18.0514 9.45555
96 1 4 -0.60118 7.59682 3.04037 5.45857
97 1 4 -0.601179 30.1005 16.0329 9.45555
98 1 4 -0.601179 6.43145 5.05885 5.45857
99 1 4 -0.601179 24.6974 16.0329 9.45555
100 1 4 -0.601179 11.8345 5.05885 5.45857
101 1 4 -0.60118 25.8628 18.0514 9.45555
102 1 4 -0.60118 10.6692 3.04037 5.45857
103 1 4 -0.60118 28.9351 14.9319 13.8671
104 1 4 -0.60118 7.59682 6.15984 1.04697
105 1 4 -0.60118 30.1005 14.2591 11.9641
106 1 4 -0.60118 6.43145 6.83267 2.95001
ITEM: TIMESTEP
95000
ITEM: NUMBER OF ATOMS
106
ITEM: BOX BOUNDS xy xz yz pp pp pp
0.0000000000000000e+00 3.6531964750000000e+01 9.1329911900000003e+00
0.0000000000000000e+00 2.1091739680000000e+01 9.1329911900000003e+00
0.0000000000000000e+00 1.4914112149999999e+01 5.2729349200000000e+00
ITEM: ATOMS id mol type q x y z
1 1 1 1.10383 27.399 17.6496 10.5383
2 1 1 1.10383 9.13299 3.44217 4.3758
3 1 1 1.10383 27.399 15.8188 13.1274
4 1 1 1.10383 9.13299 5.27293 1.78671
5 1 1 1.10383 25.8135 14.9034 10.5383
6 1 1 1.10383 10.7185 6.18832 4.3758
7 1 1 1.10383 28.9845 14.9034 10.5383
8 1 1 1.10383 7.5475 6.18832 4.3758
9 1 2 0.115889 18.266 5.48596 12.6084
10 1 2 0.115889 18.266 15.6058 2.30572
11 1 2 0.115888 18.266 13.716 0.969417
12 1 2 0.115888 18.266 7.37578 13.9447
13 1 2 0.11589 25.3934 11.4908 8.12521
14 1 2 0.11589 11.1386 9.60096 6.7889
15 1 2 0.115888 11.1386 11.4908 8.12521
16 1 2 0.115888 25.3934 9.60096 6.7889
17 1 2 0.115889 15.5206 8.96083 0.969417
18 1 2 0.115889 21.0114 12.1309 13.9447
19 1 2 0.115888 22.648 13.0758 12.6084
20 1 2 0.115888 13.884 8.01592 2.30572
21 1 2 0.115889 21.0114 3.90092 8.12521
22 1 2 0.115889 15.5206 17.1908 6.7889
23 1 2 0.115887 13.884 16.2459 8.12521
24 1 2 0.115887 22.648 4.84583 6.7889
25 1 2 0.115889 22.648 16.2459 8.12521
26 1 2 0.115889 13.884 4.84583 6.7889
27 1 2 0.115887 15.5206 3.90092 8.12521
28 1 2 0.115887 21.0114 17.1908 6.7889
29 1 2 0.115889 21.0114 8.96083 0.969417
30 1 2 0.115889 15.5206 12.1309 13.9447
31 1 2 0.115887 13.884 13.0758 12.6084
32 1 2 0.115887 22.648 8.01592 2.30572
33 1 3 0.671939 27.399 18.7442 13.2542
34 1 3 0.671939 9.13299 2.34751 1.65994
35 1 3 0.671939 27.399 12.8934 9.117
36 1 3 0.671939 9.13299 8.19836 5.79712
37 1 3 0.67194 24.8655 14.3561 13.2542
38 1 3 0.67194 11.6665 6.73565 1.65994
39 1 3 0.67194 29.9325 17.2815 9.117
40 1 3 0.67194 6.5995 3.81022 5.79712
41 1 3 0.67194 24.8655 17.2815 9.117
42 1 3 0.67194 11.6665 3.81022 5.79712
43 1 3 0.67194 29.9325 14.3561 13.2542
44 1 3 0.67194 6.5995 6.73565 1.65994
45 1 3 -0.11508 27.399 19.957 14.1117
46 1 3 -0.11508 9.13299 1.13474 0.802379
47 1 3 -0.11508 27.399 11.6806 8.25944
48 1 3 -0.11508 9.13299 9.41113 6.65468
49 1 3 -0.11508 23.8152 13.7497 14.1117
50 1 3 -0.11508 12.7168 7.34203 0.802379
51 1 3 -0.11508 30.9828 17.8879 8.25944
52 1 3 -0.11508 5.54921 3.20384 6.65468
53 1 3 -0.11508 23.8152 17.8879 8.25944
54 1 3 -0.11508 12.7168 3.20384 6.65468
55 1 3 -0.11508 30.9828 13.7497 14.1117
56 1 3 -0.11508 5.54921 7.34203 0.802379
57 1 3 -0.0559 18.266 5.39949 13.5316
58 1 3 -0.0559 18.266 15.6923 1.38254
59 1 3 -0.055903 18.266 14.5575 0.580159
60 1 3 -0.055903 18.266 6.53422 14.334
61 1 3 -0.0559 26.1971 11.1132 7.85825
62 1 3 -0.0559 10.3349 9.9785 7.05587
63 1 3 -0.055903 10.3349 11.1132 7.85825
64 1 3 -0.055903 26.1971 9.9785 7.05587
65 1 3 -0.0559 14.7918 8.54005 0.580159
66 1 3 -0.0559 21.7402 12.5517 14.334
67 1 3 -0.055903 22.7229 13.1191 13.5316
68 1 3 -0.055903 13.8091 7.97268 1.38254
69 1 3 -0.0559 21.7402 3.39366 7.85825
70 1 3 -0.0559 14.7918 17.6981 7.05587
71 1 3 -0.055903 13.8091 17.1307 7.85825
72 1 3 -0.055903 22.7229 3.96103 7.05587
73 1 3 -0.055901 22.7229 17.1307 7.85825
74 1 3 -0.055901 13.8091 3.96103 7.05587
75 1 3 -0.055903 14.7918 3.39366 7.85825
76 1 3 -0.055903 21.7402 17.6981 7.05587
77 1 3 -0.0559 21.7402 8.54005 0.580159
78 1 3 -0.0559 14.7918 12.5517 14.334
79 1 3 -0.055903 13.8091 13.1191 13.5316
80 1 3 -0.055903 22.7229 7.97268 1.38254
81 1 4 -1.26215 27.399 15.8188 11.1856
82 1 4 -1.26215 9.13299 5.27293 3.72853
83 1 4 -0.60118 27.399 18.9383 11.9641
84 1 4 -0.60118 9.13299 2.15347 2.95001
85 1 4 -0.601179 27.399 17.5926 13.8671
86 1 4 -0.601179 9.13299 3.49912 1.04697
87 1 4 -0.601179 26.2336 13.3722 9.45555
88 1 4 -0.601179 10.2984 7.71958 5.45857
89 1 4 -0.60118 28.5643 13.3722 9.45555
90 1 4 -0.60118 7.96762 7.71958 5.45857
91 1 4 -0.60118 25.8628 14.9319 13.8671
92 1 4 -0.60118 10.6692 6.15984 1.04697
93 1 4 -0.601179 24.6974 14.2591 11.9641
94 1 4 -0.601179 11.8345 6.83267 2.95001
95 1 4 -0.60118 28.9351 18.0514 9.45555
96 1 4 -0.60118 7.59682 3.04037 5.45857
97 1 4 -0.601179 30.1005 16.0329 9.45555
98 1 4 -0.601179 6.43145 5.05885 5.45857
99 1 4 -0.601179 24.6974 16.0329 9.45555
100 1 4 -0.601179 11.8345 5.05885 5.45857
101 1 4 -0.60118 25.8628 18.0514 9.45555
102 1 4 -0.60118 10.6692 3.04037 5.45857
103 1 4 -0.60118 28.9351 14.9319 13.8671
104 1 4 -0.60118 7.59682 6.15984 1.04697
105 1 4 -0.60118 30.1005 14.2591 11.9641
106 1 4 -0.60118 6.43145 6.83267 2.95001
ITEM: TIMESTEP
96000
ITEM: NUMBER OF ATOMS
109
ITEM: BOX BOUNDS xy xz yz pp pp pp
0.0000000000000000e+00 3.6531964750000000e+01 9.1329911900000003e+00
0.0000000000000000e+00 2.1091739680000000e+01 9.1329911900000003e+00
0.0000000000000000e+00 1.4914112149999999e+01 5.2729349200000000e+00
ITEM: ATOMS id mol type q x y z
1 1 1 1.10383 27.399 17.6496 10.5383
2 1 1 1.10383 9.13299 3.44217 4.3758
3 1 1 1.10383 27.399 15.8188 13.1274
4 1 1 1.10383 9.13299 5.27293 1.78671
5 1 1 1.10383 25.8135 14.9034 10.5383
6 1 1 1.10383 10.7185 6.18832 4.3758
7 1 1 1.10383 28.9845 14.9034 10.5383
8 1 1 1.10383 7.5475 6.18832 4.3758
9 1 2 0.115889 18.266 5.48596 12.6084
10 1 2 0.115889 18.266 15.6058 2.30572
11 1 2 0.115888 18.266 13.716 0.969417
12 1 2 0.115888 18.266 7.37578 13.9447
13 1 2 0.11589 25.3934 11.4908 8.12521
14 1 2 0.11589 11.1386 9.60096 6.7889
15 1 2 0.115888 11.1386 11.4908 8.12521
16 1 2 0.115888 25.3934 9.60096 6.7889
17 1 2 0.115889 15.5206 8.96083 0.969417
18 1 2 0.115889 21.0114 12.1309 13.9447
19 1 2 0.115888 22.648 13.0758 12.6084
20 1 2 0.115888 13.884 8.01592 2.30572
21 1 2 0.115889 21.0114 3.90092 8.12521
22 1 2 0.115889 15.5206 17.1908 6.7889
23 1 2 0.115887 13.884 16.2459 8.12521
24 1 2 0.115887 22.648 4.84583 6.7889
25 1 2 0.115889 22.648 16.2459 8.12521
26 1 2 0.115889 13.884 4.84583 6.7889
27 1 2 0.115887 15.5206 3.90092 8.12521
28 1 2 0.115887 21.0114 17.1908 6.7889
29 1 2 0.115889 21.0114 8.96083 0.969417
30 1 2 0.115889 15.5206 12.1309 13.9447
31 1 2 0.115887 13.884 13.0758 12.6084
32 1 2 0.115887 22.648 8.01592 2.30572
33 1 3 0.671939 27.399 18.7442 13.2542
34 1 3 0.671939 9.13299 2.34751 1.65994
35 1 3 0.671939 27.399 12.8934 9.117
36 1 3 0.671939 9.13299 8.19836 5.79712
37 1 3 0.67194 24.8655 14.3561 13.2542
38 1 3 0.67194 11.6665 6.73565 1.65994
39 1 3 0.67194 29.9325 17.2815 9.117
40 1 3 0.67194 6.5995 3.81022 5.79712
41 1 3 0.67194 24.8655 17.2815 9.117
42 1 3 0.67194 11.6665 3.81022 5.79712
43 1 3 0.67194 29.9325 14.3561 13.2542
44 1 3 0.67194 6.5995 6.73565 1.65994
45 1 3 -0.11508 27.399 19.957 14.1117
46 1 3 -0.11508 9.13299 1.13474 0.802379
47 1 3 -0.11508 27.399 11.6806 8.25944
48 1 3 -0.11508 9.13299 9.41113 6.65468
49 1 3 -0.11508 23.8152 13.7497 14.1117
50 1 3 -0.11508 12.7168 7.34203 0.802379
51 1 3 -0.11508 30.9828 17.8879 8.25944
52 1 3 -0.11508 5.54921 3.20384 6.65468
53 1 3 -0.11508 23.8152 17.8879 8.25944
54 1 3 -0.11508 12.7168 3.20384 6.65468
55 1 3 -0.11508 30.9828 13.7497 14.1117
56 1 3 -0.11508 5.54921 7.34203 0.802379
57 1 3 -0.0559 18.266 5.39949 13.5316
58 1 3 -0.0559 18.266 15.6923 1.38254
59 1 3 -0.055903 18.266 14.5575 0.580159
60 1 3 -0.055903 18.266 6.53422 14.334
61 1 3 -0.0559 26.1971 11.1132 7.85825
62 1 3 -0.0559 10.3349 9.9785 7.05587
63 1 3 -0.055903 10.3349 11.1132 7.85825
64 1 3 -0.055903 26.1971 9.9785 7.05587
65 1 3 -0.0559 14.7918 8.54005 0.580159
66 1 3 -0.0559 21.7402 12.5517 14.334
67 1 3 -0.055903 22.7229 13.1191 13.5316
68 1 3 -0.055903 13.8091 7.97268 1.38254
69 1 3 -0.0559 21.7402 3.39366 7.85825
70 1 3 -0.0559 14.7918 17.6981 7.05587
71 1 3 -0.055903 13.8091 17.1307 7.85825
72 1 3 -0.055903 22.7229 3.96103 7.05587
73 1 3 -0.055901 22.7229 17.1307 7.85825
74 1 3 -0.055901 13.8091 3.96103 7.05587
75 1 3 -0.055903 14.7918 3.39366 7.85825
76 1 3 -0.055903 21.7402 17.6981 7.05587
77 1 3 -0.0559 21.7402 8.54005 0.580159
78 1 3 -0.0559 14.7918 12.5517 14.334
79 1 3 -0.055903 13.8091 13.1191 13.5316
80 1 3 -0.055903 22.7229 7.97268 1.38254
81 1 4 -1.26215 27.399 15.8188 11.1856
82 1 4 -1.26215 9.13299 5.27293 3.72853
83 1 4 -0.60118 27.399 18.9383 11.9641
84 1 4 -0.60118 9.13299 2.15347 2.95001
85 1 4 -0.601179 27.399 17.5926 13.8671
86 1 4 -0.601179 9.13299 3.49912 1.04697
87 1 4 -0.601179 26.2336 13.3722 9.45555
88 1 4 -0.601179 10.2984 7.71958 5.45857
89 1 4 -0.60118 28.5643 13.3722 9.45555
90 1 4 -0.60118 7.96762 7.71958 5.45857
91 1 4 -0.60118 25.8628 14.9319 13.8671
92 1 4 -0.60118 10.6692 6.15984 1.04697
93 1 4 -0.601179 24.6974 14.2591 11.9641
94 1 4 -0.601179 11.8345 6.83267 2.95001
95 1 4 -0.60118 28.9351 18.0514 9.45555
96 1 4 -0.60118 7.59682 3.04037 5.45857
97 1 4 -0.601179 30.1005 16.0329 9.45555
98 1 4 -0.601179 6.43145 5.05885 5.45857
99 1 4 -0.601179 24.6974 16.0329 9.45555
100 1 4 -0.601179 11.8345 5.05885 5.45857
101 1 4 -0.60118 25.8628 18.0514 9.45555
102 1 4 -0.60118 10.6692 3.04037 5.45857
103 1 4 -0.60118 28.9351 14.9319 13.8671
104 1 4 -0.60118 7.59682 6.15984 1.04697
105 1 4 -0.60118 30.1005 14.2591 11.9641
106 1 4 -0.60118 6.43145 6.83267 2.95001
107 2 5 -0.35 19.1664 5.84039 0.959008
108 2 6 0.7 28.257 11.4046 14.7511
109 2 5 -0.35 28.2147 11.696 13.6291
ITEM: TIMESTEP
97000
ITEM: NUMBER OF ATOMS
106
ITEM: BOX BOUNDS xy xz yz pp pp pp
0.0000000000000000e+00 3.6531964750000000e+01 9.1329911900000003e+00
0.0000000000000000e+00 2.1091739680000000e+01 9.1329911900000003e+00
0.0000000000000000e+00 1.4914112149999999e+01 5.2729349200000000e+00
ITEM: ATOMS id mol type q x y z
1 1 1 1.10383 27.399 17.6496 10.5383
2 1 1 1.10383 9.13299 3.44217 4.3758
3 1 1 1.10383 27.399 15.8188 13.1274
4 1 1 1.10383 9.13299 5.27293 1.78671
5 1 1 1.10383 25.8135 14.9034 10.5383
6 1 1 1.10383 10.7185 6.18832 4.3758
7 1 1 1.10383 28.9845 14.9034 10.5383
8 1 1 1.10383 7.5475 6.18832 4.3758
9 1 2 0.115889 18.266 5.48596 12.6084
10 1 2 0.115889 18.266 15.6058 2.30572
11 1 2 0.115888 18.266 13.716 0.969417
12 1 2 0.115888 18.266 7.37578 13.9447
13 1 2 0.11589 25.3934 11.4908 8.12521
14 1 2 0.11589 11.1386 9.60096 6.7889
15 1 2 0.115888 11.1386 11.4908 8.12521
16 1 2 0.115888 25.3934 9.60096 6.7889
17 1 2 0.115889 15.5206 8.96083 0.969417
18 1 2 0.115889 21.0114 12.1309 13.9447
19 1 2 0.115888 22.648 13.0758 12.6084
20 1 2 0.115888 13.884 8.01592 2.30572
21 1 2 0.115889 21.0114 3.90092 8.12521
22 1 2 0.115889 15.5206 17.1908 6.7889
23 1 2 0.115887 13.884 16.2459 8.12521
24 1 2 0.115887 22.648 4.84583 6.7889
25 1 2 0.115889 22.648 16.2459 8.12521
26 1 2 0.115889 13.884 4.84583 6.7889
27 1 2 0.115887 15.5206 3.90092 8.12521
28 1 2 0.115887 21.0114 17.1908 6.7889
29 1 2 0.115889 21.0114 8.96083 0.969417
30 1 2 0.115889 15.5206 12.1309 13.9447
31 1 2 0.115887 13.884 13.0758 12.6084
32 1 2 0.115887 22.648 8.01592 2.30572
33 1 3 0.671939 27.399 18.7442 13.2542
34 1 3 0.671939 9.13299 2.34751 1.65994
35 1 3 0.671939 27.399 12.8934 9.117
36 1 3 0.671939 9.13299 8.19836 5.79712
37 1 3 0.67194 24.8655 14.3561 13.2542
38 1 3 0.67194 11.6665 6.73565 1.65994
39 1 3 0.67194 29.9325 17.2815 9.117
40 1 3 0.67194 6.5995 3.81022 5.79712
41 1 3 0.67194 24.8655 17.2815 9.117
42 1 3 0.67194 11.6665 3.81022 5.79712
43 1 3 0.67194 29.9325 14.3561 13.2542
44 1 3 0.67194 6.5995 6.73565 1.65994
45 1 3 -0.11508 27.399 19.957 14.1117
46 1 3 -0.11508 9.13299 1.13474 0.802379
47 1 3 -0.11508 27.399 11.6806 8.25944
48 1 3 -0.11508 9.13299 9.41113 6.65468
49 1 3 -0.11508 23.8152 13.7497 14.1117
50 1 3 -0.11508 12.7168 7.34203 0.802379
51 1 3 -0.11508 30.9828 17.8879 8.25944
52 1 3 -0.11508 5.54921 3.20384 6.65468
53 1 3 -0.11508 23.8152 17.8879 8.25944
54 1 3 -0.11508 12.7168 3.20384 6.65468
55 1 3 -0.11508 30.9828 13.7497 14.1117
56 1 3 -0.11508 5.54921 7.34203 0.802379
57 1 3 -0.0559 18.266 5.39949 13.5316
58 1 3 -0.0559 18.266 15.6923 1.38254
59 1 3 -0.055903 18.266 14.5575 0.580159
60 1 3 -0.055903 18.266 6.53422 14.334
61 1 3 -0.0559 26.1971 11.1132 7.85825
62 1 3 -0.0559 10.3349 9.9785 7.05587
63 1 3 -0.055903 10.3349 11.1132 7.85825
64 1 3 -0.055903 26.1971 9.9785 7.05587
65 1 3 -0.0559 14.7918 8.54005 0.580159
66 1 3 -0.0559 21.7402 12.5517 14.334
67 1 3 -0.055903 22.7229 13.1191 13.5316
68 1 3 -0.055903 13.8091 7.97268 1.38254
69 1 3 -0.0559 21.7402 3.39366 7.85825
70 1 3 -0.0559 14.7918 17.6981 7.05587
71 1 3 -0.055903 13.8091 17.1307 7.85825
72 1 3 -0.055903 22.7229 3.96103 7.05587
73 1 3 -0.055901 22.7229 17.1307 7.85825
74 1 3 -0.055901 13.8091 3.96103 7.05587
75 1 3 -0.055903 14.7918 3.39366 7.85825
76 1 3 -0.055903 21.7402 17.6981 7.05587
77 1 3 -0.0559 21.7402 8.54005 0.580159
78 1 3 -0.0559 14.7918 12.5517 14.334
79 1 3 -0.055903 13.8091 13.1191 13.5316
80 1 3 -0.055903 22.7229 7.97268 1.38254
81 1 4 -1.26215 27.399 15.8188 11.1856
82 1 4 -1.26215 9.13299 5.27293 3.72853
83 1 4 -0.60118 27.399 18.9383 11.9641
84 1 4 -0.60118 9.13299 2.15347 2.95001
85 1 4 -0.601179 27.399 17.5926 13.8671
86 1 4 -0.601179 9.13299 3.49912 1.04697
87 1 4 -0.601179 26.2336 13.3722 9.45555
88 1 4 -0.601179 10.2984 7.71958 5.45857
89 1 4 -0.60118 28.5643 13.3722 9.45555
90 1 4 -0.60118 7.96762 7.71958 5.45857
91 1 4 -0.60118 25.8628 14.9319 13.8671
92 1 4 -0.60118 10.6692 6.15984 1.04697
93 1 4 -0.601179 24.6974 14.2591 11.9641
94 1 4 -0.601179 11.8345 6.83267 2.95001
95 1 4 -0.60118 28.9351 18.0514 9.45555
96 1 4 -0.60118 7.59682 3.04037 5.45857
97 1 4 -0.601179 30.1005 16.0329 9.45555
98 1 4 -0.601179 6.43145 5.05885 5.45857
99 1 4 -0.601179 24.6974 16.0329 9.45555
100 1 4 -0.601179 11.8345 5.05885 5.45857
101 1 4 -0.60118 25.8628 18.0514 9.45555
102 1 4 -0.60118 10.6692 3.04037 5.45857
103 1 4 -0.60118 28.9351 14.9319 13.8671
104 1 4 -0.60118 7.59682 6.15984 1.04697
105 1 4 -0.60118 30.1005 14.2591 11.9641
106 1 4 -0.60118 6.43145 6.83267 2.95001
ITEM: TIMESTEP
98000
ITEM: NUMBER OF ATOMS
109
ITEM: BOX BOUNDS xy xz yz pp pp pp
0.0000000000000000e+00 3.6531964750000000e+01 9.1329911900000003e+00
0.0000000000000000e+00 2.1091739680000000e+01 9.1329911900000003e+00
0.0000000000000000e+00 1.4914112149999999e+01 5.2729349200000000e+00
ITEM: ATOMS id mol type q x y z
1 1 1 1.10383 27.399 17.6496 10.5383
2 1 1 1.10383 9.13299 3.44217 4.3758
3 1 1 1.10383 27.399 15.8188 13.1274
4 1 1 1.10383 9.13299 5.27293 1.78671
5 1 1 1.10383 25.8135 14.9034 10.5383
6 1 1 1.10383 10.7185 6.18832 4.3758
7 1 1 1.10383 28.9845 14.9034 10.5383
8 1 1 1.10383 7.5475 6.18832 4.3758
9 1 2 0.115889 18.266 5.48596 12.6084
10 1 2 0.115889 18.266 15.6058 2.30572
11 1 2 0.115888 18.266 13.716 0.969417
12 1 2 0.115888 18.266 7.37578 13.9447
13 1 2 0.11589 25.3934 11.4908 8.12521
14 1 2 0.11589 11.1386 9.60096 6.7889
15 1 2 0.115888 11.1386 11.4908 8.12521
16 1 2 0.115888 25.3934 9.60096 6.7889
17 1 2 0.115889 15.5206 8.96083 0.969417
18 1 2 0.115889 21.0114 12.1309 13.9447
19 1 2 0.115888 22.648 13.0758 12.6084
20 1 2 0.115888 13.884 8.01592 2.30572
21 1 2 0.115889 21.0114 3.90092 8.12521
22 1 2 0.115889 15.5206 17.1908 6.7889
23 1 2 0.115887 13.884 16.2459 8.12521
24 1 2 0.115887 22.648 4.84583 6.7889
25 1 2 0.115889 22.648 16.2459 8.12521
26 1 2 0.115889 13.884 4.84583 6.7889
27 1 2 0.115887 15.5206 3.90092 8.12521
28 1 2 0.115887 21.0114 17.1908 6.7889
29 1 2 0.115889 21.0114 8.96083 0.969417
30 1 2 0.115889 15.5206 12.1309 13.9447
31 1 2 0.115887 13.884 13.0758 12.6084
32 1 2 0.115887 22.648 8.01592 2.30572
33 1 3 0.671939 27.399 18.7442 13.2542
34 1 3 0.671939 9.13299 2.34751 1.65994
35 1 3 0.671939 27.399 12.8934 9.117
36 1 3 0.671939 9.13299 8.19836 5.79712
37 1 3 0.67194 24.8655 14.3561 13.2542
38 1 3 0.67194 11.6665 6.73565 1.65994
39 1 3 0.67194 29.9325 17.2815 9.117
40 1 3 0.67194 6.5995 3.81022 5.79712
41 1 3 0.67194 24.8655 17.2815 9.117
42 1 3 0.67194 11.6665 3.81022 5.79712
43 1 3 0.67194 29.9325 14.3561 13.2542
44 1 3 0.67194 6.5995 6.73565 1.65994
45 1 3 -0.11508 27.399 19.957 14.1117
46 1 3 -0.11508 9.13299 1.13474 0.802379
47 1 3 -0.11508 27.399 11.6806 8.25944
48 1 3 -0.11508 9.13299 9.41113 6.65468
49 1 3 -0.11508 23.8152 13.7497 14.1117
50 1 3 -0.11508 12.7168 7.34203 0.802379
51 1 3 -0.11508 30.9828 17.8879 8.25944
52 1 3 -0.11508 5.54921 3.20384 6.65468
53 1 3 -0.11508 23.8152 17.8879 8.25944
54 1 3 -0.11508 12.7168 3.20384 6.65468
55 1 3 -0.11508 30.9828 13.7497 14.1117
56 1 3 -0.11508 5.54921 7.34203 0.802379
57 1 3 -0.0559 18.266 5.39949 13.5316
58 1 3 -0.0559 18.266 15.6923 1.38254
59 1 3 -0.055903 18.266 14.5575 0.580159
60 1 3 -0.055903 18.266 6.53422 14.334
61 1 3 -0.0559 26.1971 11.1132 7.85825
62 1 3 -0.0559 10.3349 9.9785 7.05587
63 1 3 -0.055903 10.3349 11.1132 7.85825
64 1 3 -0.055903 26.1971 9.9785 7.05587
65 1 3 -0.0559 14.7918 8.54005 0.580159
66 1 3 -0.0559 21.7402 12.5517 14.334
67 1 3 -0.055903 22.7229 13.1191 13.5316
68 1 3 -0.055903 13.8091 7.97268 1.38254
69 1 3 -0.0559 21.7402 3.39366 7.85825
70 1 3 -0.0559 14.7918 17.6981 7.05587
71 1 3 -0.055903 13.8091 17.1307 7.85825
72 1 3 -0.055903 22.7229 3.96103 7.05587
73 1 3 -0.055901 22.7229 17.1307 7.85825
74 1 3 -0.055901 13.8091 3.96103 7.05587
75 1 3 -0.055903 14.7918 3.39366 7.85825
76 1 3 -0.055903 21.7402 17.6981 7.05587
77 1 3 -0.0559 21.7402 8.54005 0.580159
78 1 3 -0.0559 14.7918 12.5517 14.334
79 1 3 -0.055903 13.8091 13.1191 13.5316
80 1 3 -0.055903 22.7229 7.97268 1.38254
81 1 4 -1.26215 27.399 15.8188 11.1856
82 1 4 -1.26215 9.13299 5.27293 3.72853
83 1 4 -0.60118 27.399 18.9383 11.9641
84 1 4 -0.60118 9.13299 2.15347 2.95001
85 1 4 -0.601179 27.399 17.5926 13.8671
86 1 4 -0.601179 9.13299 3.49912 1.04697
87 1 4 -0.601179 26.2336 13.3722 9.45555
88 1 4 -0.601179 10.2984 7.71958 5.45857
89 1 4 -0.60118 28.5643 13.3722 9.45555
90 1 4 -0.60118 7.96762 7.71958 5.45857
91 1 4 -0.60118 25.8628 14.9319 13.8671
92 1 4 -0.60118 10.6692 6.15984 1.04697
93 1 4 -0.601179 24.6974 14.2591 11.9641
94 1 4 -0.601179 11.8345 6.83267 2.95001
95 1 4 -0.60118 28.9351 18.0514 9.45555
96 1 4 -0.60118 7.59682 3.04037 5.45857
97 1 4 -0.601179 30.1005 16.0329 9.45555
98 1 4 -0.601179 6.43145 5.05885 5.45857
99 1 4 -0.601179 24.6974 16.0329 9.45555
100 1 4 -0.601179 11.8345 5.05885 5.45857
101 1 4 -0.60118 25.8628 18.0514 9.45555
102 1 4 -0.60118 10.6692 3.04037 5.45857
103 1 4 -0.60118 28.9351 14.9319 13.8671
104 1 4 -0.60118 7.59682 6.15984 1.04697
105 1 4 -0.60118 30.1005 14.2591 11.9641
106 1 4 -0.60118 6.43145 6.83267 2.95001
110 3 5 -0.35 14.6137 15.5709 10.7243
111 3 6 0.7 14.3608 14.5082 10.3341
112 3 5 -0.35 14.108 13.4454 9.9439
ITEM: TIMESTEP
99000
ITEM: NUMBER OF ATOMS
109
ITEM: BOX BOUNDS xy xz yz pp pp pp
0.0000000000000000e+00 3.6531964750000000e+01 9.1329911900000003e+00
0.0000000000000000e+00 2.1091739680000000e+01 9.1329911900000003e+00
0.0000000000000000e+00 1.4914112149999999e+01 5.2729349200000000e+00
ITEM: ATOMS id mol type q x y z
1 1 1 1.10383 27.399 17.6496 10.5383
2 1 1 1.10383 9.13299 3.44217 4.3758
3 1 1 1.10383 27.399 15.8188 13.1274
4 1 1 1.10383 9.13299 5.27293 1.78671
5 1 1 1.10383 25.8135 14.9034 10.5383
6 1 1 1.10383 10.7185 6.18832 4.3758
7 1 1 1.10383 28.9845 14.9034 10.5383
8 1 1 1.10383 7.5475 6.18832 4.3758
9 1 2 0.115889 18.266 5.48596 12.6084
10 1 2 0.115889 18.266 15.6058 2.30572
11 1 2 0.115888 18.266 13.716 0.969417
12 1 2 0.115888 18.266 7.37578 13.9447
13 1 2 0.11589 25.3934 11.4908 8.12521
14 1 2 0.11589 11.1386 9.60096 6.7889
15 1 2 0.115888 11.1386 11.4908 8.12521
16 1 2 0.115888 25.3934 9.60096 6.7889
17 1 2 0.115889 15.5206 8.96083 0.969417
18 1 2 0.115889 21.0114 12.1309 13.9447
19 1 2 0.115888 22.648 13.0758 12.6084
20 1 2 0.115888 13.884 8.01592 2.30572
21 1 2 0.115889 21.0114 3.90092 8.12521
22 1 2 0.115889 15.5206 17.1908 6.7889
23 1 2 0.115887 13.884 16.2459 8.12521
24 1 2 0.115887 22.648 4.84583 6.7889
25 1 2 0.115889 22.648 16.2459 8.12521
26 1 2 0.115889 13.884 4.84583 6.7889
27 1 2 0.115887 15.5206 3.90092 8.12521
28 1 2 0.115887 21.0114 17.1908 6.7889
29 1 2 0.115889 21.0114 8.96083 0.969417
30 1 2 0.115889 15.5206 12.1309 13.9447
31 1 2 0.115887 13.884 13.0758 12.6084
32 1 2 0.115887 22.648 8.01592 2.30572
33 1 3 0.671939 27.399 18.7442 13.2542
34 1 3 0.671939 9.13299 2.34751 1.65994
35 1 3 0.671939 27.399 12.8934 9.117
36 1 3 0.671939 9.13299 8.19836 5.79712
37 1 3 0.67194 24.8655 14.3561 13.2542
38 1 3 0.67194 11.6665 6.73565 1.65994
39 1 3 0.67194 29.9325 17.2815 9.117
40 1 3 0.67194 6.5995 3.81022 5.79712
41 1 3 0.67194 24.8655 17.2815 9.117
42 1 3 0.67194 11.6665 3.81022 5.79712
43 1 3 0.67194 29.9325 14.3561 13.2542
44 1 3 0.67194 6.5995 6.73565 1.65994
45 1 3 -0.11508 27.399 19.957 14.1117
46 1 3 -0.11508 9.13299 1.13474 0.802379
47 1 3 -0.11508 27.399 11.6806 8.25944
48 1 3 -0.11508 9.13299 9.41113 6.65468
49 1 3 -0.11508 23.8152 13.7497 14.1117
50 1 3 -0.11508 12.7168 7.34203 0.802379
51 1 3 -0.11508 30.9828 17.8879 8.25944
52 1 3 -0.11508 5.54921 3.20384 6.65468
53 1 3 -0.11508 23.8152 17.8879 8.25944
54 1 3 -0.11508 12.7168 3.20384 6.65468
55 1 3 -0.11508 30.9828 13.7497 14.1117
56 1 3 -0.11508 5.54921 7.34203 0.802379
57 1 3 -0.0559 18.266 5.39949 13.5316
58 1 3 -0.0559 18.266 15.6923 1.38254
59 1 3 -0.055903 18.266 14.5575 0.580159
60 1 3 -0.055903 18.266 6.53422 14.334
61 1 3 -0.0559 26.1971 11.1132 7.85825
62 1 3 -0.0559 10.3349 9.9785 7.05587
63 1 3 -0.055903 10.3349 11.1132 7.85825
64 1 3 -0.055903 26.1971 9.9785 7.05587
65 1 3 -0.0559 14.7918 8.54005 0.580159
66 1 3 -0.0559 21.7402 12.5517 14.334
67 1 3 -0.055903 22.7229 13.1191 13.5316
68 1 3 -0.055903 13.8091 7.97268 1.38254
69 1 3 -0.0559 21.7402 3.39366 7.85825
70 1 3 -0.0559 14.7918 17.6981 7.05587
71 1 3 -0.055903 13.8091 17.1307 7.85825
72 1 3 -0.055903 22.7229 3.96103 7.05587
73 1 3 -0.055901 22.7229 17.1307 7.85825
74 1 3 -0.055901 13.8091 3.96103 7.05587
75 1 3 -0.055903 14.7918 3.39366 7.85825
76 1 3 -0.055903 21.7402 17.6981 7.05587
77 1 3 -0.0559 21.7402 8.54005 0.580159
78 1 3 -0.0559 14.7918 12.5517 14.334
79 1 3 -0.055903 13.8091 13.1191 13.5316
80 1 3 -0.055903 22.7229 7.97268 1.38254
81 1 4 -1.26215 27.399 15.8188 11.1856
82 1 4 -1.26215 9.13299 5.27293 3.72853
83 1 4 -0.60118 27.399 18.9383 11.9641
84 1 4 -0.60118 9.13299 2.15347 2.95001
85 1 4 -0.601179 27.399 17.5926 13.8671
86 1 4 -0.601179 9.13299 3.49912 1.04697
87 1 4 -0.601179 26.2336 13.3722 9.45555
88 1 4 -0.601179 10.2984 7.71958 5.45857
89 1 4 -0.60118 28.5643 13.3722 9.45555
90 1 4 -0.60118 7.96762 7.71958 5.45857
91 1 4 -0.60118 25.8628 14.9319 13.8671
92 1 4 -0.60118 10.6692 6.15984 1.04697
93 1 4 -0.601179 24.6974 14.2591 11.9641
94 1 4 -0.601179 11.8345 6.83267 2.95001
95 1 4 -0.60118 28.9351 18.0514 9.45555
96 1 4 -0.60118 7.59682 3.04037 5.45857
97 1 4 -0.601179 30.1005 16.0329 9.45555
98 1 4 -0.601179 6.43145 5.05885 5.45857
99 1 4 -0.601179 24.6974 16.0329 9.45555
100 1 4 -0.601179 11.8345 5.05885 5.45857
101 1 4 -0.60118 25.8628 18.0514 9.45555
102 1 4 -0.60118 10.6692 3.04037 5.45857
103 1 4 -0.60118 28.9351 14.9319 13.8671
104 1 4 -0.60118 7.59682 6.15984 1.04697
105 1 4 -0.60118 30.1005 14.2591 11.9641
106 1 4 -0.60118 6.43145 6.83267 2.95001
107 2 5 -0.35 15.8799 7.72536 10.8936
108 2 6 0.7 16.2689 7.78738 9.80246
109 2 5 -0.35 16.6578 7.84939 8.71137
ITEM: TIMESTEP
100000
ITEM: NUMBER OF ATOMS
106
ITEM: BOX BOUNDS xy xz yz pp pp pp
0.0000000000000000e+00 3.6531964750000000e+01 9.1329911900000003e+00
0.0000000000000000e+00 2.1091739680000000e+01 9.1329911900000003e+00
0.0000000000000000e+00 1.4914112149999999e+01 5.2729349200000000e+00
ITEM: ATOMS id mol type q x y z
1 1 1 1.10383 27.399 17.6496 10.5383
2 1 1 1.10383 9.13299 3.44217 4.3758
3 1 1 1.10383 27.399 15.8188 13.1274
4 1 1 1.10383 9.13299 5.27293 1.78671
5 1 1 1.10383 25.8135 14.9034 10.5383
6 1 1 1.10383 10.7185 6.18832 4.3758
7 1 1 1.10383 28.9845 14.9034 10.5383
8 1 1 1.10383 7.5475 6.18832 4.3758
9 1 2 0.115889 18.266 5.48596 12.6084
10 1 2 0.115889 18.266 15.6058 2.30572
11 1 2 0.115888 18.266 13.716 0.969417
12 1 2 0.115888 18.266 7.37578 13.9447
13 1 2 0.11589 25.3934 11.4908 8.12521
14 1 2 0.11589 11.1386 9.60096 6.7889
15 1 2 0.115888 11.1386 11.4908 8.12521
16 1 2 0.115888 25.3934 9.60096 6.7889
17 1 2 0.115889 15.5206 8.96083 0.969417
18 1 2 0.115889 21.0114 12.1309 13.9447
19 1 2 0.115888 22.648 13.0758 12.6084
20 1 2 0.115888 13.884 8.01592 2.30572
21 1 2 0.115889 21.0114 3.90092 8.12521
22 1 2 0.115889 15.5206 17.1908 6.7889
23 1 2 0.115887 13.884 16.2459 8.12521
24 1 2 0.115887 22.648 4.84583 6.7889
25 1 2 0.115889 22.648 16.2459 8.12521
26 1 2 0.115889 13.884 4.84583 6.7889
27 1 2 0.115887 15.5206 3.90092 8.12521
28 1 2 0.115887 21.0114 17.1908 6.7889
29 1 2 0.115889 21.0114 8.96083 0.969417
30 1 2 0.115889 15.5206 12.1309 13.9447
31 1 2 0.115887 13.884 13.0758 12.6084
32 1 2 0.115887 22.648 8.01592 2.30572
33 1 3 0.671939 27.399 18.7442 13.2542
34 1 3 0.671939 9.13299 2.34751 1.65994
35 1 3 0.671939 27.399 12.8934 9.117
36 1 3 0.671939 9.13299 8.19836 5.79712
37 1 3 0.67194 24.8655 14.3561 13.2542
38 1 3 0.67194 11.6665 6.73565 1.65994
39 1 3 0.67194 29.9325 17.2815 9.117
40 1 3 0.67194 6.5995 3.81022 5.79712
41 1 3 0.67194 24.8655 17.2815 9.117
42 1 3 0.67194 11.6665 3.81022 5.79712
43 1 3 0.67194 29.9325 14.3561 13.2542
44 1 3 0.67194 6.5995 6.73565 1.65994
45 1 3 -0.11508 27.399 19.957 14.1117
46 1 3 -0.11508 9.13299 1.13474 0.802379
47 1 3 -0.11508 27.399 11.6806 8.25944
48 1 3 -0.11508 9.13299 9.41113 6.65468
49 1 3 -0.11508 23.8152 13.7497 14.1117
50 1 3 -0.11508 12.7168 7.34203 0.802379
51 1 3 -0.11508 30.9828 17.8879 8.25944
52 1 3 -0.11508 5.54921 3.20384 6.65468
53 1 3 -0.11508 23.8152 17.8879 8.25944
54 1 3 -0.11508 12.7168 3.20384 6.65468
55 1 3 -0.11508 30.9828 13.7497 14.1117
56 1 3 -0.11508 5.54921 7.34203 0.802379
57 1 3 -0.0559 18.266 5.39949 13.5316
58 1 3 -0.0559 18.266 15.6923 1.38254
59 1 3 -0.055903 18.266 14.5575 0.580159
60 1 3 -0.055903 18.266 6.53422 14.334
61 1 3 -0.0559 26.1971 11.1132 7.85825
62 1 3 -0.0559 10.3349 9.9785 7.05587
63 1 3 -0.055903 10.3349 11.1132 7.85825
64 1 3 -0.055903 26.1971 9.9785 7.05587
65 1 3 -0.0559 14.7918 8.54005 0.580159
66 1 3 -0.0559 21.7402 12.5517 14.334
67 1 3 -0.055903 22.7229 13.1191 13.5316
68 1 3 -0.055903 13.8091 7.97268 1.38254
69 1 3 -0.0559 21.7402 3.39366 7.85825
70 1 3 -0.0559 14.7918 17.6981 7.05587
71 1 3 -0.055903 13.8091 17.1307 7.85825
72 1 3 -0.055903 22.7229 3.96103 7.05587
73 1 3 -0.055901 22.7229 17.1307 7.85825
74 1 3 -0.055901 13.8091 3.96103 7.05587
75 1 3 -0.055903 14.7918 3.39366 7.85825
76 1 3 -0.055903 21.7402 17.6981 7.05587
77 1 3 -0.0559 21.7402 8.54005 0.580159
78 1 3 -0.0559 14.7918 12.5517 14.334
79 1 3 -0.055903 13.8091 13.1191 13.5316
80 1 3 -0.055903 22.7229 7.97268 1.38254
81 1 4 -1.26215 27.399 15.8188 11.1856
82 1 4 -1.26215 9.13299 5.27293 3.72853
83 1 4 -0.60118 27.399 18.9383 11.9641
84 1 4 -0.60118 9.13299 2.15347 2.95001
85 1 4 -0.601179 27.399 17.5926 13.8671
86 1 4 -0.601179 9.13299 3.49912 1.04697
87 1 4 -0.601179 26.2336 13.3722 9.45555
88 1 4 -0.601179 10.2984 7.71958 5.45857
89 1 4 -0.60118 28.5643 13.3722 9.45555
90 1 4 -0.60118 7.96762 7.71958 5.45857
91 1 4 -0.60118 25.8628 14.9319 13.8671
92 1 4 -0.60118 10.6692 6.15984 1.04697
93 1 4 -0.601179 24.6974 14.2591 11.9641
94 1 4 -0.601179 11.8345 6.83267 2.95001
95 1 4 -0.60118 28.9351 18.0514 9.45555
96 1 4 -0.60118 7.59682 3.04037 5.45857
97 1 4 -0.601179 30.1005 16.0329 9.45555
98 1 4 -0.601179 6.43145 5.05885 5.45857
99 1 4 -0.601179 24.6974 16.0329 9.45555
100 1 4 -0.601179 11.8345 5.05885 5.45857
101 1 4 -0.60118 25.8628 18.0514 9.45555
102 1 4 -0.60118 10.6692 3.04037 5.45857
103 1 4 -0.60118 28.9351 14.9319 13.8671
104 1 4 -0.60118 7.59682 6.15984 1.04697
105 1 4 -0.60118 30.1005 14.2591 11.9641
106 1 4 -0.60118 6.43145 6.83267 2.95001
